LAMMPS (19 Feb 2013)
###########################################################################
#x0
###########################################################################
units 			metal
atom_style		full
read_data		fort.26.nonbonded
  0 = max bonds/atom
  0 = max angles/atom
  0 = max dihedrals/atom
  triclinic box = (0 0 0) to (14.3 14.3 14.3) with tilt (0 0 0)
  1 by 1 by 1 MPI processor grid
  240 atoms
  0 bonds
  0 angles
  0 dihedrals
  0 = max # of 1-2 neighbors
  0 = max # of 1-3 neighbors
  0 = max # of 1-4 neighbors
  1 = max # of special neighbors
group         		C type = 1
60 atoms in group C
###########################################################################
#OLPS
###########################################################################

################################################################################
#### Pair potentials
################################################################################
pair_style hybrid/overlay tersoff lj/cut 12.0
pair_coeff * * tersoff C.4.tersoff 1 2 3 4
pair_coeff 1 2 lj/cut 0.0007000000 3.5500000000
pair_coeff 1 3 lj/cut 0.0007000000 3.5500000000
pair_coeff 1 4 lj/cut 0.0007000000 3.5500000000
pair_coeff 2 3 lj/cut 0.0007000000 3.5500000000
pair_coeff 2 4 lj/cut 0.0007000000 3.5500000000
pair_coeff 3 4 lj/cut 0.0007000000 3.5500000000
special_bonds lj 0.0 0.0 0.0 coul 0.0 0.0 0.0

#pair_style tersoff
#pair_coeff * * C.4.tersoff 1 2 3 4

#pair_style lj/cut 12.0
#pair_coeff 1 1 0.0700000000 3.5500000000
#special_bonds lj 0.0 0.0 0.0 coul 0.0 0.0 0.0
###########################################################################

###########################################################################
#run parameters
###########################################################################
variable   	dt 		equal 0.001
variable 	T_run 		equal 300
variable 	seed 		equal 11111

velocity 		all create ${T_run} ${seed} rot yes dist gaussian
velocity 		all create 300 ${seed} rot yes dist gaussian
velocity 		all create 300 11111 rot yes dist gaussian

#--------------------------------------------------------------------------
#nvtanneal
#--------------------------------------------------------------------------
fix 		1 all nvt temp 300 300 1.0
dump		1 all xyz 10 dump.xyz
dump_modify 	1 sort id
compute 	myDis all msd
thermo_style  	custom step temp press etotal pe ke vol c_myDis[4]
thermo			10
timestep		${dt}
timestep		0.0010000000000000000208
#run			500000
run			5000
Memory usage per processor = 5.21447 Mbytes
Step Temp Press TotEng PotEng KinEng Volume myDis[4] 
       0          300    177883.56   -1574.5439   -1583.8118    9.2679524     2924.207 1.7765454e-30 
      10    768.70117    115628.21   -1574.5505   -1598.2981     23.74762     2924.207 0.0068161705 
      20    1069.4814   -18147.021   -1574.5598   -1607.5994    33.039676     2924.207   0.04162092 
      30    449.46732   -121675.63    -1574.539   -1588.4245    13.885472     2924.207  0.095612233 
      40    318.02073   -138613.24   -1574.5474    -1584.372    9.8246698     2924.207   0.10568006 
      50    880.18306   -65698.781   -1574.5894   -1601.7811    27.191649     2924.207  0.063134994 
      60    976.18127    64647.658   -1574.6501   -1604.8074    30.157339     2924.207  0.023475345 
      70    324.40576    162996.57   -1574.6447   -1584.6666    10.021924     2924.207  0.015321173 
      80    530.32169    154586.06   -1574.6956   -1591.0789     16.38332     2924.207  0.016283935 
      90     1043.436    41647.165   -1574.7674   -1607.0025     32.23505     2924.207   0.03581554 
     100    777.43404   -82488.412   -1574.8273   -1598.8447    24.017406     2924.207  0.088017266 
     110    245.65314   -140168.57   -1574.8253   -1582.4143    7.5890053     2924.207   0.12673373 
     120    675.55032    -105534.8   -1574.8832    -1595.753    20.869894     2924.207   0.10395239 
     130    1037.6017    3897.7572   -1574.9878   -1607.0426    32.054809     2924.207  0.059506623 
     140     597.5796    124446.03   -1575.0708   -1593.5319    18.461131     2924.207  0.043900654 
     150    356.34461    171045.41   -1575.1136   -1586.1222    11.008616     2924.207  0.051215498 
     160    915.00081    98539.194   -1575.2033   -1603.4706     28.26728     2924.207  0.069852914 
     170    928.46024   -33123.113   -1575.3105   -1603.9936    28.683084     2924.207   0.11723193 
     180    352.82303   -124056.76   -1575.3567   -1586.2565    10.899824     2924.207   0.16916651 
     190    450.64719   -128351.24   -1575.4046   -1589.3265    13.921922     2924.207   0.17135322 
     200      941.754   -50601.848   -1575.5282   -1604.6219    29.093771     2924.207   0.13230465 
     210    788.62533    71210.976   -1575.6633   -1600.0265     24.36314     2924.207   0.10312407 
     220    357.13885    160343.46   -1575.7214   -1586.7545    11.033153     2924.207  0.099974504 
     230     658.4105    140146.76   -1575.8031   -1596.1434    20.340391     2924.207   0.11055144 
     240      979.484    27823.535   -1575.9373   -1606.1966     30.25937     2924.207   0.14619438 
     250    558.13578   -85858.855   -1576.0328   -1593.2754    17.242586     2924.207   0.20141914 
     260    336.52055   -129145.86   -1576.0777   -1586.4739    10.396188     2924.207    0.2230778 
     270    751.47852   -87086.814   -1576.1763   -1599.3919    23.215557     2924.207   0.19341656 
     280    865.05621    14207.304   -1576.3137    -1603.038    26.724333     2924.207   0.15659691 
     290    470.93285    120892.13   -1576.4019   -1590.9505    14.548611     2924.207   0.14342116 
     300    466.08736    155407.04   -1576.4614   -1590.8604    14.398918     2924.207   0.14699456 
     310    877.21428    79924.515   -1576.5831   -1603.6831    27.099934     2924.207   0.16716875 
     320    763.54428   -40558.697   -1576.7044   -1600.2927    23.588307     2924.207   0.21293306 
     330     362.6329   -113796.03   -1576.7613   -1587.9641    11.202881     2924.207   0.24993505 
     340    559.29991   -109509.85   -1576.8254    -1594.104     17.27855     2924.207   0.23755343 
     350    881.89128   -35151.873   -1576.9341   -1604.1786    27.244421     2924.207   0.19551029 
     360    670.55819    72328.003   -1577.0447   -1597.7604    20.715671     2924.207    0.1685207 
     370    396.02357     144454.8   -1577.1029   -1589.3373    12.234425     2924.207   0.16636915 
     380    744.77522    120248.57   -1577.1883   -1600.1968    23.008471     2924.207   0.18104486 
     390    830.66237    13518.048   -1577.2891   -1602.9509    25.661798     2924.207   0.21959135 
     400    496.34623   -85205.445   -1577.3552   -1592.6889    15.333711     2924.207    0.2641832 
     410    409.61157   -115022.55   -1577.3875   -1590.0417    12.654202     2924.207   0.27292968 
     420    787.19567   -73413.078   -1577.4904   -1601.8094    24.318973     2924.207    0.2418306 
     430    772.58894    19360.437   -1577.5996   -1601.4673    23.867725     2924.207   0.20929307 
     440    428.85942    111997.06   -1577.6456   -1590.8945    13.248829     2924.207   0.19736699 
     450    551.34841    137278.28   -1577.7071     -1594.74    17.032903     2924.207   0.20150375 
     460    818.47554      66572.6   -1577.8128   -1603.0982    25.285308     2924.207   0.22745467 
     470    661.35136   -38880.888   -1577.8951   -1598.3263    20.431243     2924.207   0.27230524 
     480    411.14066   -100687.71   -1577.9335    -1590.635     12.70144     2924.207   0.30076937 
     490    623.45608    -92688.12   -1578.0058   -1597.2664    19.260537     2924.207   0.28720735 
     500     761.5851   -26129.745   -1578.0996   -1601.6274    23.527781     2924.207   0.25378503 
     510    573.00048    67269.801   -1578.1822    -1595.884    17.701804     2924.207   0.23236796 
     520    477.77132    128386.29    -1578.233   -1592.9928    14.759873     2924.207   0.23106604 
     530    718.25958    102086.13   -1578.3185   -1600.5079    22.189319     2924.207   0.24948595 
     540    744.49876    7092.1851   -1578.4215   -1601.4214     22.99993     2924.207   0.28932038 
     550    473.05986   -73800.348   -1578.4754   -1593.0897    14.614321     2924.207   0.32759378 
     560    476.98727   -96542.896   -1578.5228   -1593.2585    14.735651     2924.207   0.33161918 
     570    724.97076    -58363.77   -1578.6151   -1601.0118    22.396648     2924.207    0.3037913 
     580    649.71111    20281.909   -1578.7118   -1598.7834    20.071639     2924.207   0.27591147 
     590    520.91151    98107.017   -1578.7935   -1594.8861     16.09261     2924.207   0.26632054 
     600    604.09094    114154.99   -1578.8668    -1597.529    18.662287     2924.207    0.2777229 
     610    744.65497    51714.072   -1578.9649   -1601.9697    23.004756     2924.207    0.3105059 
     620    562.12433   -35500.573   -1579.0396   -1596.4054    17.365805     2924.207    0.3531861 
     630    459.16551   -85346.409   -1579.0925   -1593.2776     14.18508     2924.207   0.37354839 
     640    657.71086    -77517.31   -1579.1801   -1599.4989    20.318776     2924.207   0.35901708 
     650    687.98517   -19763.081   -1579.2847   -1600.5387    21.254046     2924.207   0.33311026 
     660    507.21148    57839.146   -1579.3559   -1595.0253    15.669373     2924.207   0.31749673 
     670    559.57211    108416.25   -1579.4333   -1596.7203    17.286959     2924.207   0.31865776 
     680    665.21182    84758.154     -1579.53   -1600.0805    20.550505     2924.207   0.34251062 
     690    613.71985    5849.6113   -1579.6256   -1598.5854    18.959755     2924.207   0.38230643 
     700    472.20397   -60298.628   -1579.6928   -1594.2807     14.58788     2924.207   0.41240756 
     710    582.36798   -78102.277   -1579.7753   -1597.7665    17.991196     2924.207   0.41088172 
     720    675.51001   -45156.808   -1579.8717   -1600.7403    20.868649     2924.207   0.38695645 
     730     557.5122    18120.346   -1579.9697    -1597.193    17.223322     2924.207   0.36525042 
     740    526.75642    81865.046   -1580.0527   -1596.3259    16.273178     2924.207   0.35801781 
     750    625.78669    95264.221   -1580.1358   -1599.4683    19.332537     2924.207   0.36996234 
     760     661.9002    41554.013   -1580.2406   -1600.6888    20.448199     2924.207   0.40101037 
     770    534.57805   -30057.818   -1580.3223   -1596.8371    16.514813     2924.207   0.43451444 
     780    498.86573   -66751.764   -1580.3878   -1595.7993    15.411546     2924.207   0.44501541 
     790    629.03735   -57663.878    -1580.475    -1599.908    19.432961     2924.207   0.42789025 
     800    589.05597   -11692.549   -1580.5736   -1598.7714    18.197809     2924.207   0.40327574 
     810    483.40118     47771.51   -1580.6589   -1595.5927    14.933797     2924.207   0.38777535 
     820    595.68116    84098.943   -1580.7588   -1599.1613    18.402482     2924.207   0.38738968 
     830    656.80446    64070.315   -1580.8491   -1601.1399    20.290775     2924.207   0.40791348 
     840     537.4066    4084.3973   -1580.9319   -1597.5341    16.602196     2924.207    0.4405236 
     850    466.15939   -45460.776   -1581.0054   -1595.4065    14.401144     2924.207   0.46027141 
     860    592.59282   -58637.287   -1581.0944   -1599.4015    18.307073     2924.207   0.45328184 
     870    624.24228   -34230.277    -1581.198   -1600.4828    19.284826     2924.207    0.4315218 
     880    497.54267     15162.74   -1581.2936   -1596.6643    15.370673     2924.207   0.41289192 
     890    543.77297    61975.522   -1581.3677   -1598.1666    16.798873     2924.207   0.40488724 
     900    638.06047    73254.821   -1581.4593   -1601.1711    19.711713     2924.207    0.4164123 
     910     560.9797    33025.283   -1581.5587   -1598.8891    17.330444     2924.207    0.4462063 
     920    458.63324    -21778.21   -1581.6336   -1595.8022    14.168637     2924.207   0.47274335 
     930    525.20124   -48561.772   -1581.7045   -1597.9296    16.225134     2924.207   0.47600856 
     940    612.50832   -41214.458   -1581.8005   -1600.7228    18.922327     2924.207   0.45889741 
     950    544.13104   -8118.0142   -1581.9012   -1598.7111    16.809935     2924.207   0.43916135 
     960    488.13519    34717.331   -1581.9831   -1597.0631    15.080046     2924.207   0.42766376 
     970    596.53983    62600.531   -1582.0778   -1600.5068    18.429009     2924.207    0.4302009 
     980    596.21898    49302.676   -1582.1649    -1600.584    18.419097     2924.207   0.45104316 
     990    503.11533    5772.4726   -1582.2532   -1597.7961     15.54283     2924.207   0.47817662 
    1000    463.68955   -30459.743   -1582.3263   -1596.6511    14.324842     2924.207   0.49106977 
    1010    597.18727   -38040.669   -1582.4078   -1600.8568    18.449011     2924.207   0.48086603 
    1020    587.97639   -21419.686   -1582.5028   -1600.6673    18.164457     2924.207   0.46261568 
    1030    461.32255    10410.062   -1582.5849   -1596.8367    14.251718     2924.207    0.4499793 
    1040     522.8729    43061.453   -1582.6746   -1598.8278    16.153204     2924.207   0.44650917 
    1050    617.56324    50644.607   -1582.7711   -1601.8496    19.078489     2924.207   0.45718458 
    1060    532.12896    24302.442   -1582.8465   -1599.2857    16.439153     2924.207   0.48009256 
    1070    459.26757   -10379.148   -1582.9236   -1597.1119    14.188233     2924.207   0.49785639 
    1080    541.02792   -28726.631   -1583.0069   -1599.7209     16.71407     2924.207   0.49588297 
    1090    615.97318   -25639.075   -1583.1039   -1602.1333    19.029367     2924.207   0.47929552 
    1100     497.4392   -6212.3327   -1583.1862   -1598.5536    15.367476     2924.207    0.4640477 
    1110    458.44409    23087.106   -1583.2493   -1597.4121    14.162793     2924.207   0.45598937 
    1120    611.97754    40821.788   -1583.3547   -1602.2606    18.905929     2924.207   0.45949652 
    1130    572.21099    33517.824   -1583.4469   -1601.1243    17.677414     2924.207   0.47838704 
    1140    457.58745     5871.237   -1583.5171   -1597.6534    14.136329     2924.207   0.49881547 
    1150    487.40613   -16009.744   -1583.5862   -1598.6437    15.057523     2924.207   0.50337857 
    1160    592.54734   -20219.906   -1583.6735   -1601.9792    18.305669     2924.207   0.49105754 
    1170    531.58367   -11569.796   -1583.7615   -1600.1838    16.422307     2924.207   0.47623377 
    1180    438.10055    5498.4375   -1583.8364   -1597.3707    13.534317     2924.207   0.46653626 
    1190    528.38498    24726.087   -1583.9196   -1600.2431     16.32349     2924.207   0.46433039 
    1200    597.15053    31558.319   -1584.0104   -1602.4583    18.447876     2924.207   0.47442776 
    1210    510.06562    17587.146   -1584.0992   -1599.8567    15.757546     2924.207   0.49303047 
    1220    429.36454   -1374.7729   -1584.1691   -1597.4335    13.264434     2924.207   0.50426867 
    1230    525.53613   -9703.8267   -1584.2407   -1600.4762     16.23548     2924.207     0.496051 
    1240    599.99265   -9645.9042   -1584.3378   -1602.8735    18.535678     2924.207   0.47888271 
    1250    460.88143   -3032.1421   -1584.4175   -1598.6556    14.238091     2924.207   0.46904415 
    1260    454.80546    9862.9505   -1584.4904   -1598.5408    14.050385     2924.207   0.46673186 
    1270    593.42727    20802.674   -1584.5792   -1602.9121    18.332852     2924.207   0.47191986 
    1280    541.31846    18834.363    -1584.662    -1601.385    16.723046     2924.207   0.48641738 
    1290    437.68632    7760.1931   -1584.7339   -1598.2555     13.52152     2924.207   0.49962759 
    1300    436.83464   -255.44008   -1584.7936   -1598.2888    13.495209     2924.207   0.49747216 
    1310    597.95353   -2738.4763   -1584.8935   -1603.3662    18.472683     2924.207   0.48119938 
    1320    533.07361   -2913.0982   -1584.9839   -1601.4523    16.468336     2924.207   0.46767007 
    1330    413.02859    1046.5924    -1585.049   -1597.8088    12.759764     2924.207   0.46297527 
    1340    530.02706    9187.4589   -1585.1298    -1601.504    16.374219     2924.207   0.46497255 
    1350    563.45317    13940.122   -1585.2153   -1602.6222    17.406857     2924.207   0.47601423 
    1360    452.27402    11033.386   -1585.2877   -1599.2599     13.97218     2924.207   0.48974678 
    1370      431.474     5802.568   -1585.3599   -1598.6895    13.329602     2924.207   0.49269766 
    1380    523.58692    5785.0861   -1585.4355   -1601.6107    16.175262     2924.207   0.48036212 
    1390    572.19758    4256.7824   -1585.5272   -1603.2042       17.677     2924.207   0.46548075 
    1400    410.71442    916.55051   -1585.5892   -1598.2775    12.688272     2924.207   0.46020816 
    1410    432.81863    -414.2393   -1585.6605   -1599.0316    13.371141     2924.207   0.46144844 
    1420     542.7368    3980.0031   -1585.7492   -1602.5161    16.766863     2924.207    0.4676932 
    1430    511.36946    7574.4265   -1585.8362   -1601.6341    15.797826     2924.207   0.47889369 
    1440    430.69903    8106.5589   -1585.9086   -1599.2143     13.30566     2924.207   0.48562738 
    1450    442.48075    13178.468    -1585.967   -1599.6366    13.669635     2924.207   0.47862775 
    1460     550.4353      13718.5   -1586.0518   -1603.0565    17.004694     2924.207   0.46281406 
    1470    488.35291    6294.4165   -1586.1402   -1601.2269    15.086772     2924.207   0.45400723 
    1480    399.08254   -2295.9298   -1586.2077   -1598.5366    12.328926     2924.207   0.45566764 
    1490    504.02833   -5437.1903   -1586.2777   -1601.8488    15.571035     2924.207    0.4621351 
    1500     533.6522   -2246.9324   -1586.3575   -1602.8437    16.486211     2924.207    0.4725552 
    1510    463.21518    4789.9965   -1586.4363   -1600.7465    14.310187     2924.207   0.48181024 
    1520    404.05751    14040.688   -1586.4982   -1598.9808    12.482619     2924.207   0.48008146 
    1530    512.67138    20729.599   -1586.5811   -1602.4192    15.838046     2924.207   0.46575142 
    1540    553.98069    16410.031   -1586.6737   -1603.7879    17.114222     2924.207    0.4523917 
    1550    428.49612    2074.8979   -1586.7356   -1599.9732    13.237606     2924.207   0.45086598 
    1560    468.27446   -10219.361   -1586.8008   -1601.2673    14.466485     2924.207   0.45719237 
    1570    509.84821   -11226.531   -1586.8701   -1602.6209     15.75083     2924.207   0.46789457 
    1580    499.34063   -4102.2594   -1586.9534   -1602.3796    15.426217     2924.207   0.47839263 
    1590    401.22686    10242.778   -1587.0163   -1599.4115    12.395172     2924.207   0.48072708 
    1600    465.26864    24105.115   -1587.0831   -1601.4567    14.373625     2924.207   0.46917036 
    1610    535.25131    27051.543   -1587.1676   -1603.7032    16.535612     2924.207   0.45432134 
    1620    455.84793    13105.641   -1587.2366   -1601.3192     14.08259     2924.207   0.44997723 
    1630    420.24926   -7402.3191   -1587.3077   -1600.2905    12.982834     2924.207   0.45610577 
    1640    487.17629   -17782.811   -1587.3766   -1602.4271    15.050422     2924.207   0.46675709 
    1650    498.83757   -14658.739   -1587.4462   -1602.8569    15.410676     2924.207   0.47752281 
    1660    411.64914    254.32538   -1587.5063   -1600.2235    12.717149     2924.207   0.48217717 
    1670    417.77246     21030.81   -1587.5736     -1600.48    12.906317     2924.207   0.47427283 
    1680    481.86626    34640.702   -1587.6462   -1602.5326    14.886378     2924.207   0.45847922 
    1690    513.17078    27095.014   -1587.7305   -1603.5839    15.853474     2924.207   0.44815402 
    1700    397.90839    3014.7035   -1587.7992   -1600.0919    12.292654     2924.207   0.45216281 
    1710    427.55191   -17622.261   -1587.8549   -1601.0634    13.208436     2924.207   0.46297891 
    1720    496.52488   -24156.252   -1587.9317   -1603.2709     15.33923     2924.207   0.47418008 
    1730    470.67636   -12781.212   -1588.0058   -1602.5465    14.540687     2924.207   0.48106349 
    1740    402.39158      11415.3    -1588.071   -1600.5021    12.431153     2924.207   0.47718431 
    1750    460.24258    34922.292   -1588.1453   -1602.3636    14.218354     2924.207   0.46152699 
    1760    510.99566    39836.324   -1588.2184   -1604.0047    15.786278     2924.207   0.44640641 
    1770    426.30459    19246.518   -1588.2792   -1601.4491    13.169902     2924.207   0.44439631 
    1780    417.34299   -11302.225   -1588.3421   -1601.2352     12.89305     2924.207   0.45230245 
    1790    465.93608   -28329.211   -1588.4039   -1602.7981    14.394245     2924.207      0.46317 
    1800    474.70608   -25556.336   -1588.4765   -1603.1417    14.665178     2924.207   0.47074488 
    1810    415.19215    -3388.153   -1588.5387   -1601.3653    12.826604     2924.207    0.4696089 
    1820     412.7308     28497.25   -1588.6103   -1601.3609    12.750565     2924.207   0.45613526 
    1830     486.6152    46920.611   -1588.6806   -1603.7137    15.033088     2924.207   0.43757502 
    1840    457.98887    35876.177   -1588.7483    -1602.897     14.14873     2924.207   0.42806247 
    1850     399.8357    3185.7359   -1588.7994   -1601.1516    12.352194     2924.207   0.43229895 
    1860    427.83314   -25268.353   -1588.8598   -1602.0769    13.217124     2924.207   0.44350644 
    1870    460.72464   -34801.748   -1588.9319   -1603.1651    14.233247     2924.207   0.45319997 
    1880    425.84292   -20199.461   -1589.0002   -1602.1558     13.15564     2924.207   0.45443655 
    1890    402.54738    12263.555   -1589.0646   -1601.5006    12.435966     2924.207   0.44302095 
    1900    445.61428    44206.975   -1589.1336      -1602.9     13.76644     2924.207   0.42281955 
    1910    452.40905    49999.634   -1589.1828   -1603.1591    13.976352     2924.207   0.40708378 
    1920    419.74756    22932.939   -1589.2472   -1602.2145    12.967335     2924.207   0.40552198 
    1930    400.70172   -14371.405   -1589.3167   -1601.6956    12.378948     2924.207   0.41555227 
    1940    449.02911   -36982.885   -1589.3882   -1603.2601    13.871935     2924.207   0.42698506 
    1950    446.68849   -34294.777   -1589.4576   -1603.2572    13.799626     2924.207   0.43221026 
    1960    414.24958   -6335.6401   -1589.5132   -1602.3107    12.797485     2924.207   0.42471091 
    1970    434.47017    32841.694   -1589.5746   -1602.9967    13.422163     2924.207   0.40566309 
    1980    454.12208    55690.764   -1589.6343   -1603.6636    14.029273     2924.207   0.38653368 
    1990    440.05278    41776.813   -1589.7073    -1603.302    13.594627     2924.207   0.37941743 
    2000    402.61662    3663.4195   -1589.7604   -1602.1985    12.438106     2924.207   0.38586446 
    2010    424.21495   -31392.101   -1589.8178   -1602.9231    13.105346     2924.207   0.39790399 
    2020    438.55941   -43203.391   -1589.8835    -1603.432    13.548492     2924.207   0.40619243 
    2030     413.0835    -25150.24   -1589.9392   -1602.7007    12.761461     2924.207   0.40387679 
    2040    405.38096    14458.947   -1589.9984   -1602.5219    12.523505     2924.207   0.38897381 
    2050    446.57316    51597.774   -1590.0691   -1603.8651    13.796063     2924.207   0.36830806 
    2060    429.36554    56542.148   -1590.1383   -1603.4027    13.264465     2924.207   0.35545153 
    2070    408.50504    25664.574   -1590.1884   -1602.8084    12.620018     2924.207   0.35688718 
    2080    411.03274   -17686.863     -1590.24   -1602.9381    12.698106     2924.207   0.36872232 
    2090    422.08043   -43806.697   -1590.3018   -1603.3412    13.039404     2924.207   0.38115074 
    2100    399.77877   -40302.806     -1590.36   -1602.7104    12.350435     2924.207   0.38402914 
    2110    401.93756   -7303.6828   -1590.4181   -1602.8352    12.417127     2924.207     0.372471 
    2120    417.68006    37037.202   -1590.4813   -1603.3848    12.903463     2924.207   0.35183589 
    2130    423.58493     62541.18   -1590.5408   -1603.6267    13.085883     2924.207    0.3347077 
    2140    395.91811    46240.702   -1590.5978    -1602.829    12.231167     2924.207   0.33033647 
    2150    405.52153    2985.7438   -1590.6565   -1603.1844    12.527848     2924.207   0.33863925 
    2160    441.62759   -35810.247   -1590.7253   -1604.3686    13.643278     2924.207   0.35219215 
    2170    403.91533   -48265.914   -1590.7789   -1603.2571    12.478227     2924.207    0.3609902 
    2180    384.88612   -27991.385    -1590.834   -1602.7243    11.890354     2924.207   0.35634562 
    2190    436.19063    16123.062   -1590.8931   -1604.3684    13.475313     2924.207   0.33752749 
    2200    434.38123    55898.424   -1590.9525   -1604.3719    13.419415     2924.207   0.31709288 
    2210    391.93784    60519.902   -1591.0037   -1603.1119    12.108204     2924.207   0.30742008 
    2220    393.55302    26505.206   -1591.0582   -1603.2163    12.158102     2924.207   0.31183438 
    2230    419.31433   -19364.858   -1591.1108   -1604.0648    12.953951     2924.207   0.32469783 
    2240    400.77942    -47688.51   -1591.1658   -1603.5471    12.381349     2924.207   0.33702626 
    2250    366.16972   -43633.659   -1591.2216   -1602.5338    11.312145     2924.207   0.33865437 
    2260     387.7061   -7876.7601   -1591.2752   -1603.2526    11.977472     2924.207   0.32491692 
    2270    426.85132    39836.527    -1591.332   -1604.5188    13.186792     2924.207   0.30359518 
    2280    395.50482    64898.818   -1591.3906    -1603.609    12.218399     2924.207   0.28928975 
    2290    376.07701    48009.392   -1591.4463   -1603.0645    11.618213     2924.207   0.28820064 
    2300    425.32374    2431.7478   -1591.5096   -1604.6492    13.139601     2924.207   0.29878293 
    2310    412.19647   -38048.622   -1591.5627   -1604.2967    12.734057     2924.207   0.31397616 
    2320    360.14989   -51167.699   -1591.6054   -1602.7316    11.126173     2924.207   0.32199266 
    2330    377.11786   -29075.884   -1591.6555   -1603.3059    11.650368     2924.207   0.31402346 
    2340    416.54825    16954.683    -1591.708   -1604.5765    12.868498     2924.207   0.29459804 
    2350    389.85204    57557.978   -1591.7616   -1603.8053    12.043767     2924.207     0.277097 
    2360    367.16104    62033.547   -1591.8201   -1603.1629     11.34277     2924.207   0.27088992 
    2370     387.0404    26516.388   -1591.8834   -1603.8403    11.956907     2924.207    0.2772697 
    2380    427.31153   -20506.964   -1591.9342   -1605.1352     13.20101     2924.207   0.29075813 
    2390    367.21126   -48994.108   -1591.9784   -1603.3227    11.344321     2924.207    0.3027822 
    2400    348.53817   -43755.815   -1592.0254   -1602.7929    10.767451     2924.207   0.30249175 
    2410    387.67452   -6749.3292    -1592.079   -1604.0555    11.976497     2924.207   0.28737327 
    2420    412.07672    40733.552   -1592.1374   -1604.8677    12.730358     2924.207   0.26731082 
    2430    388.08508    65009.395    -1592.196   -1604.1852     11.98918     2924.207   0.25594348 
    2440    339.39319    46742.351   -1592.2349   -1602.7199    10.484933     2924.207   0.25830047 
    2450     418.6365    2466.7847   -1592.2969   -1605.2299    12.933011     2924.207   0.26939234 
    2460     403.9389   -38413.314   -1592.3479   -1604.8268    12.478955     2924.207   0.28355136 
    2470    355.26424   -50506.473   -1592.3961   -1603.3714     10.97524     2924.207   0.28993571 
    2480    336.46879   -28604.956   -1592.4379   -1602.8325    10.394589     2924.207   0.28126337 
    2490    430.34198    17138.607    -1592.498   -1605.7927     13.29463     2924.207   0.26082715 
    2500    405.08421    56855.952   -1592.5526   -1605.0669    12.514337     2924.207   0.24443841 
    2510    329.89657    60821.898   -1592.5904    -1602.782    10.191552     2924.207   0.24058131 
    2520    394.18463    26115.504   -1592.6504    -1604.828    12.177615     2924.207   0.24765019 
    2530    402.49643   -20198.269   -1592.6923   -1605.1267    12.434393     2924.207    0.2611652 
    2540    352.35435   -47794.178   -1592.7416    -1603.627    10.885345     2924.207   0.27153905 
    2550    324.65567   -43180.128   -1592.7857   -1602.8153    10.029644     2924.207    0.2685099 
    2560    407.65284   -6764.5739   -1592.8411   -1605.4348     12.59369     2924.207   0.25079353 
    2570     407.8697    38959.142   -1592.8918   -1605.4922     12.60039     2924.207   0.23170017 
    2580    348.71691    62577.588   -1592.9414   -1603.7144    10.772972     2924.207   0.22314548 
    2590    366.00426    45888.436   -1593.0003   -1604.3074    11.307034     2924.207   0.22598859 
    2600    413.52236    3237.2637   -1593.0436   -1605.8187    12.775019     2924.207   0.23626441 
    2610    382.77033    -36517.33   -1593.0814   -1604.9064    11.824991     2924.207   0.24794506 
    2620    321.18698   -49104.955   -1593.1207   -1603.0432    9.9224856     2924.207   0.25100787 
    2630    353.58676   -26909.841   -1593.1693   -1604.0928    10.923418     2924.207   0.23911874 
    2640    414.73687    15977.576   -1593.2312   -1606.0437    12.812538     2924.207   0.21934199 
    2650     395.8803    53348.743   -1593.2868   -1605.5168    12.229999     2924.207   0.20500594 
    2660    333.56093    57188.285   -1593.3282    -1603.633    10.304756     2924.207   0.20343426 
    2670    363.49317    26164.605   -1593.3594   -1604.5888    11.229458     2924.207   0.21113727 
    2680    393.72948   -17623.021   -1593.4024    -1605.566    12.163554     2924.207   0.22228443 
    2690    350.90421   -44758.082   -1593.4527   -1604.2933    10.840545     2924.207   0.22979209 
    2700    311.84824   -40089.429   -1593.4924   -1603.1264    9.6339823     2924.207   0.22526181 
    2710    377.40072    -7306.919   -1593.5452   -1605.2043    11.659106     2924.207   0.20850128 
    2720    413.67612    35075.887   -1593.6085   -1606.3883    12.779769     2924.207   0.19155917 
    2730    353.52898    57521.443   -1593.6498   -1604.5714    10.921633     2924.207   0.18557307 
    2740    332.15988    43373.003   -1593.6814   -1603.9429    10.261473     2924.207   0.18966107 
    2750    379.89909    4448.6049   -1593.7215   -1605.4578    11.736289     2924.207    0.1990131 
    2760    370.34484   -31489.235   -1593.7692   -1605.2104    11.441128     2924.207   0.20837378 
    2770    317.83505   -43998.872   -1593.8134   -1603.6324    9.8189336     2924.207    0.2099208 
    2780    332.85876   -25062.579   -1593.8499    -1604.133    10.283064     2924.207   0.19837715 
    2790    391.69401    13956.863   -1593.9021   -1606.0027    12.100672     2924.207   0.18143464 
    2800    366.13075    46993.349   -1593.9592   -1605.2702    11.310941     2924.207   0.17131348 
    2810     338.3352    52163.396   -1594.0037   -1604.4559    10.452249     2924.207   0.17200713 
    2820    376.07314     25555.16    -1594.041   -1605.6591    11.618093     2924.207   0.18003461 
    2830     388.5555   -13530.158   -1594.0824   -1606.0861    12.003713     2924.207   0.19070105 
    2840    326.89869   -39299.357   -1594.1221   -1604.2211    10.098938     2924.207   0.19689114 
    2850    325.21021   -35988.899   -1594.1626   -1604.2093    10.046776     2924.207   0.19157057 
    2860    378.41667   -6675.2772   -1594.2066   -1605.8971    11.690492     2924.207   0.17637477 
    2870    393.78659    30710.973   -1594.2556    -1606.421    12.165318     2924.207   0.16256121 
    2880    317.23926    50641.612   -1594.2916   -1604.0921    9.8005278     2924.207   0.15957524 
    2890    345.90308    40056.448   -1594.3377   -1605.0238    10.686044     2924.207   0.16487727 
    2900    369.21465    6760.9962   -1594.3698    -1605.776    11.406213     2924.207   0.17448943 
    2910    354.91907   -26530.515   -1594.4127   -1605.3773    10.964577     2924.207   0.18267807 
    2920     313.8693   -37989.617    -1594.452   -1604.1484    9.6964192     2924.207   0.18279762 
    2930    331.91172   -23020.257   -1594.4912    -1604.745    10.253807     2924.207   0.17272022 
    2940    396.44479    10689.169   -1594.5403   -1606.7878    12.247438     2924.207   0.15913214 
    2950     337.9925    40182.532   -1594.5814   -1605.0231    10.441661     2924.207   0.15281885 
    2960    325.15941    46652.383   -1594.6195   -1604.6647    10.045207     2924.207   0.15496226 
    2970    341.58511    24973.982   -1594.6534    -1605.206    10.552649     2924.207   0.16282524 
    2980    378.65597   -9131.1636   -1594.7032   -1606.4011    11.697885     2924.207   0.17110501 
    2990    335.99398    -33018.69   -1594.7432   -1605.1231    10.379921     2924.207   0.17512618 
    3000    320.29257   -31952.565   -1594.7759   -1604.6707    9.8948544     2924.207   0.16966512 
    3010    357.97179   -7296.4248    -1594.812   -1605.8709    11.058885     2924.207   0.15709202 
    3020    344.56055    25112.838   -1594.8531   -1605.4976    10.644569     2924.207   0.14797006 
    3030    332.11123    43860.419   -1594.8971    -1605.157     10.25997     2924.207   0.14719906 
    3040    330.20148    37076.477   -1594.9329   -1605.1339    10.200972     2924.207   0.15305304 
    3050    365.76776     8919.598   -1594.9722    -1606.272    11.299727     2924.207   0.16141561 
    3060    351.27372   -21219.616   -1595.0193   -1605.8713     10.85196     2924.207   0.16816934 
    3070    299.84902   -32720.269   -1595.0468   -1604.3101    9.2632882     2924.207   0.16806792 
    3080    344.34724    -20316.25   -1595.0836   -1605.7215     10.63798     2924.207   0.15901338 
    3090    362.90903    7154.9868   -1595.1263   -1606.3377    11.211412     2924.207   0.14881874 
    3100    339.52552     32833.61   -1595.1717   -1605.6607    10.489021     2924.207   0.14470874 
    3110    308.42118    40368.253   -1595.1988   -1604.7269    9.5281092     2924.207   0.14752483 
    3120      367.638    24862.594   -1595.2391   -1606.5966    11.357505     2924.207   0.15343543 
    3130    356.68493   -4062.3463   -1595.2793   -1606.2985     11.01913     2924.207   0.16013586 
    3140    316.00011   -26065.101   -1595.3134   -1605.0757    9.7622465     2924.207   0.16291598 
    3150    306.04897   -27435.077    -1595.344   -1604.7988    9.4548243     2924.207   0.15803908 
    3160    370.29606   -9058.6451   -1595.3883   -1606.8279    11.439621     2924.207   0.14849082 
    3170    358.41835     17416.45    -1595.429   -1606.5017    11.072681     2924.207   0.14288455 
    3180    309.88913    36356.849   -1595.4585    -1605.032     9.573459     2924.207   0.14375698 
    3190     335.8289    34191.169   -1595.4905   -1605.8653    10.374821     2924.207   0.14825454 
    3200    339.49851    12860.313   -1595.5272   -1606.0154    10.488187     2924.207   0.15441708 
    3210    329.03614    -13214.32   -1595.5673   -1605.7322    10.164971     2924.207   0.15843144 
    3220    312.17152   -26332.917   -1595.6027   -1605.2467    9.6439693     2924.207   0.15588356 
    3230    349.79395   -19177.438   -1595.6339   -1606.4401    10.806246     2924.207   0.14725834 
    3240    328.16096    1695.6409   -1595.6654   -1605.8033    10.137934     2924.207   0.14023054 
    3250    314.92585    25325.624   -1595.7004   -1605.4295    9.7290593     2924.207   0.13771413 
    3260    324.35118    35467.961   -1595.7406   -1605.7609    10.020238     2924.207   0.13969989 
    3270    339.53651    25884.015   -1595.7754   -1606.2648    10.489361     2924.207   0.14404545 
    3280    334.52022    2094.7267   -1595.8109   -1606.1453    10.334391     2924.207   0.14816745 
    3290    306.95852   -18947.421   -1595.8401    -1605.323    9.4829233     2924.207    0.1488586 
    3300    317.43975   -23457.408   -1595.8686   -1605.6753    9.8067215     2924.207   0.14384797 
    3310    355.49658   -11197.214   -1595.9128   -1606.8952    10.982418     2924.207   0.13653106 
    3320    314.00566    10401.123    -1595.941   -1605.6416    9.7006318     2924.207   0.13238112 
    3330    299.88583    29110.068   -1595.9737   -1605.2381    9.2644253     2924.207   0.13213957 
    3340    346.42517    32503.814   -1596.0147   -1606.7169    10.702173     2924.207    0.1333512 
    3350    340.33554    16718.484   -1596.0443   -1606.5584    10.514045     2924.207   0.13608418 
    3360    317.40616   -6116.0058    -1596.076   -1605.8817     9.805684     2924.207   0.13773423 
    3370    297.24859   -21076.521   -1596.1031    -1605.286    9.1829525     2924.207   0.13483354 
    3380    345.37295   -19814.993    -1596.142   -1606.8117    10.669667     2924.207   0.12795589 
    3390    331.94838   -4035.7837   -1596.1751   -1606.4301    10.254939     2924.207   0.12324007 
    3400    301.46617    16959.162   -1596.2043   -1605.5175     9.313247     2924.207   0.12156173 
    3410    342.29948    31525.647    -1596.241   -1606.8158    10.574718     2924.207   0.12154896 
    3420    335.38941    27763.454   -1596.2745   -1606.6357    10.361244     2924.207   0.12424387 
    3430    316.18987    8287.4675    -1596.303   -1606.0711     9.768109     2924.207   0.12734976 
    3440    286.86195   -11981.047   -1596.3254   -1605.1874    8.8620764     2924.207   0.12642307 
    3450    342.44571   -20827.467   -1596.3565   -1606.9357    10.579235     2924.207   0.12079835 
    3460    314.35847    -14955.86   -1596.3922   -1606.1038     9.711531     2924.207   0.11578609 
    3470    296.43565    2905.6753    -1596.424   -1605.5818    9.1578384     2924.207   0.11295659 
    3480    327.57217    22901.149   -1596.4579   -1606.5776    10.119744     2924.207    0.1114857 
    3490    341.04455    31601.703   -1596.4892   -1607.0252    10.535949     2924.207   0.11213234 
    3500    316.27925    21328.846   -1596.5208   -1606.2917    9.7708702     2924.207   0.11424936 
    3510    266.79876    1109.8777   -1596.5356   -1604.7778    8.2422605     2924.207   0.11551519 
    3520    323.78417   -15543.468   -1596.5666   -1606.5693    10.002721     2924.207   0.11238569 
    3530    326.48662   -20369.714   -1596.6001   -1606.6864    10.086208     2924.207   0.10875993 
    3540    293.83901   -9513.3844    -1596.633   -1605.7106    9.0776197     2924.207   0.10690373 
    3550    296.35186     9947.261   -1596.6625   -1605.8177    9.1552496     2924.207   0.10573715 
    3560    335.99301    28004.076   -1596.6964   -1607.0763    10.379891     2924.207   0.10511331 
    3570    319.84145     29771.97   -1596.7256   -1606.6065    9.8809177     2924.207   0.10666135 
    3580    286.17065    14362.865   -1596.7533    -1605.594      8.84072     2924.207   0.10834374 
    3590    312.86729   -5860.6872   -1596.7819   -1606.4473    9.6654639     2924.207   0.10646813 
    3600    337.66465   -18761.696   -1596.8131   -1607.2446    10.431533     2924.207   0.10304554 
    3610    324.60838   -18813.292   -1596.8443   -1606.8725    10.028183     2924.207   0.10123213 
    3620    269.23362   -3727.4828   -1596.8626   -1605.1801    8.3174813     2924.207   0.10072355 
    3630    326.20972    18366.115   -1596.8959   -1606.9735    10.077654     2924.207  0.099060627 
    3640    342.73171    31008.199   -1596.9295   -1607.5176    10.588071     2924.207   0.09949445 
    3650    299.20404    25076.201   -1596.9579   -1606.2013    9.2433627     2924.207   0.10234699 
    3660    282.86954    6539.2348   -1596.9765   -1605.7152    8.7387381     2924.207    0.1037066 
    3670    340.27611   -11922.668   -1597.0074   -1607.5196    10.512209     2924.207   0.10191795 
    3680    321.81551   -20685.749    -1597.033   -1606.9749    9.9419028     2924.207   0.10105486 
    3690    255.29533     -14530.6    -1597.053   -1604.9399    7.8868831     2924.207   0.10140352 
    3700    303.10971    4750.4622   -1597.0841   -1606.4481    9.3640211     2924.207   0.10001538 
    3710    341.80256    25063.749   -1597.1165   -1607.6759    10.559366     2924.207  0.098894581 
    3720    312.38592    30747.604    -1597.148   -1606.7986    9.6505929     2924.207   0.10083567 
    3730    261.44247    18926.111    -1597.164   -1605.2407    8.0767879     2924.207   0.10322455 
    3740    311.44744   -184.56768   -1597.1869   -1606.8085    9.6216001     2924.207   0.10287372 
    3750    336.76531   -16792.057   -1597.2191   -1607.6229    10.403749     2924.207   0.10288705 
    3760    278.57837   -21935.195   -1597.2465   -1605.8527    8.6061701     2924.207   0.10508164 
    3770    272.21384   -8538.5252   -1597.2672   -1605.6768    8.4095496     2924.207   0.10551905 
    3780    339.49768    13876.778   -1597.3002   -1607.7884    10.488161     2924.207   0.10456543 
    3790    333.53689    29877.614   -1597.3292   -1607.6332    10.304013     2924.207   0.10625014 
    3800    265.35301     27865.22   -1597.3517   -1605.5493    8.1975968     2924.207   0.10994733 
    3810    272.51537     12555.48   -1597.3662    -1605.785     8.418865     2924.207    0.1110594 
    3820    357.09593   -7458.4622   -1597.4024   -1608.4342    11.031827     2924.207   0.11038293 
    3830    303.04471   -21621.265    -1597.428     -1606.79    9.3620132     2924.207   0.11296272 
    3840    266.13597   -19048.246   -1597.4551   -1605.6769     8.221785     2924.207    0.1154652 
    3850    323.84289   -476.62796   -1597.4809   -1607.4854    10.004535     2924.207   0.11472293 
    3860    346.59373    22348.721     -1597.51   -1608.2174    10.707381     2924.207   0.11462086 
    3870    294.68644    31395.541   -1597.5312    -1606.635    9.1037997     2924.207   0.11744953 
    3880     265.9095    23576.607   -1597.5486   -1605.7634    8.2147888     2924.207   0.12023066 
    3890      334.463    4102.5584   -1597.5763   -1607.9089    10.332624     2924.207   0.12109321 
    3900    341.41859   -15702.502   -1597.6044   -1608.1519    10.547504     2924.207   0.12390615 
    3910    256.50519   -23358.847   -1597.6197    -1605.544    7.9242595     2924.207   0.12834031 
    3920    286.63996   -12737.399    -1597.638   -1606.4932    8.8552184     2924.207   0.12924261 
    3930    323.05633    10260.985   -1597.6608    -1607.641    9.9802357     2924.207   0.12860067 
    3940    301.25658    28812.344   -1597.6887   -1606.9955    9.3067722     2924.207    0.1296712 
    3950    255.17467    30894.408   -1597.7118   -1605.5949    7.8831557     2924.207   0.13166818 
    3960     308.8677    17222.273   -1597.7371    -1607.279    9.5419039     2924.207   0.13201331 
    3970     344.3039   -4366.9939   -1597.7621   -1608.3988     10.63664     2924.207   0.13359911 
    3980    269.14299   -21797.195   -1597.7778   -1606.0925    8.3146815     2924.207   0.13845216 
    3990    251.40973    -21711.43   -1597.7974   -1605.5642    7.7668445     2924.207   0.14136213 
    4000     303.6399   -2977.8997   -1597.8129   -1607.1933    9.3804005     2924.207   0.14061064 
    4010    329.67458    19413.735   -1597.8463    -1608.031    10.184694     2924.207   0.14048966 
    4020    268.11392    31320.094   -1597.8727   -1606.1556      8.28289     2924.207   0.14303083 
    4030    277.40122    26973.049   -1597.8984   -1606.4682    8.5698043     2924.207   0.14404556 
    4040    336.98208    9066.6273   -1597.9195     -1608.33    10.410446     2924.207   0.14419301 
    4050    314.39465   -13401.711   -1597.9385   -1607.6512    9.7126489     2924.207   0.14794071 
    4060    228.60628   -24901.715   -1597.9431   -1605.0055    7.0623737     2924.207   0.15231419 
    4070    286.51673   -15190.022   -1597.9674   -1606.8188    8.8514115     2924.207   0.15224018 
    4080    334.57132    6708.4296   -1597.9934   -1608.3293     10.33597     2924.207   0.15069178 
    4090    273.72803    27079.424   -1598.0131   -1606.4695     8.456328     2924.207   0.15132488 
    4100    255.87717    32425.499   -1598.0418   -1605.9467    7.9048581     2924.207   0.15211765 
    4110    321.51302    20953.243   -1598.0657   -1607.9983    9.9325579     2924.207   0.15191382 
    4120     322.3845    -2024.526   -1598.0833   -1608.0428    9.9594806     2924.207    0.1546558 
    4130    266.67319   -21519.235   -1598.0991   -1606.3375    8.2383814     2924.207   0.15991537 
    4140     259.8556   -23224.704   -1598.1105   -1606.1383    8.0277644     2924.207   0.16237664 
    4150    323.72174   -5879.5585   -1598.1379   -1608.1387    10.000792     2924.207   0.16123517 
    4160    301.89155    17415.158   -1598.1609   -1607.4873    9.3263884     2924.207   0.16070454 
    4170    252.72834    31754.641   -1598.1757   -1605.9833    7.8075809     2924.207   0.16078307 
    4180    274.96055    30505.471   -1598.1933   -1606.6877    8.4944044     2924.207   0.15957871 
    4190    328.02891     12038.51   -1598.2172   -1608.3511    10.133854     2924.207   0.16006652 
    4200    285.48701   -12437.642   -1598.2319   -1607.0515    8.8196001     2924.207   0.16435918 
    4210    235.67345   -25312.639   -1598.2444   -1605.5251    7.2807011     2924.207   0.16868643 
    4220    295.02916   -17589.765   -1598.2703   -1607.3846    9.1143874     2924.207   0.16864103 
    4230    317.70717    4759.6683   -1598.2962   -1608.1112    9.8149831     2924.207   0.16714612 
    4240    278.96358    25356.436   -1598.3167   -1606.9347    8.6180705     2924.207   0.16667708 
    4250    261.84038     33787.38   -1598.3296   -1606.4186    8.0890806     2924.207   0.16617286 
    4260    312.21287    23863.424   -1598.3478    -1607.993    9.6452468     2924.207   0.16584531 
    4270    314.17944   -157.09336   -1598.3669   -1608.0729    9.7060003     2924.207    0.1692171 
    4280    250.20757   -20745.144   -1598.3817   -1606.1114    7.7297061     2924.207   0.17461473 
    4290    265.90907   -23983.454   -1598.3968   -1606.6116    8.2147752     2924.207   0.17619579 
    4300    321.18502   -8263.0301   -1598.4211   -1608.3435    9.9224249     2924.207    0.1742009 
    4310    290.80913      14817.9   -1598.4379   -1607.4219    8.9840172     2924.207   0.17258809 
    4320    252.76293    31956.512   -1598.4467   -1606.2553    7.8086493     2924.207   0.17145506 
    4330    277.78153    31839.829   -1598.4638   -1607.0453    8.5815533     2924.207   0.17038959 
    4340    322.21526    13543.565    -1598.491   -1608.4452    9.9542522     2924.207   0.17197622 
    4350    260.02326   -11422.563   -1598.5016   -1606.5345    8.0329441     2924.207   0.17725569 
    4360    260.83128   -24794.289   -1598.5151    -1606.573    8.0579063     2924.207   0.18078134 
    4370    296.61992   -18327.063   -1598.5329   -1607.6965     9.163531     2924.207    0.1808706 
    4380    299.70094    2577.4005   -1598.5516   -1607.8103    9.2587136     2924.207   0.17984758 
    4390    256.12162    24249.097   -1598.5625    -1606.475    7.9124101     2924.207   0.17879149 
    4400    274.35072     33834.57   -1598.5836   -1607.0592    8.4755647     2924.207   0.17721072 
    4410    307.09225    24931.033   -1598.6064   -1608.0935    9.4870546     2924.207   0.17723402 
    4420    287.56666    1653.4449   -1598.6171   -1607.5009    8.8838469     2924.207   0.18043603 
    4430    270.43483   -19593.528   -1598.6308   -1606.9854    8.3545904     2924.207   0.18451204 
    4440    262.61717       -23312   -1598.6385   -1606.7515    8.1130781     2924.207    0.1864131 
    4450    302.12908   -9263.7468   -1598.6602    -1607.994    9.3337264     2924.207   0.18535802 
    4460    275.51807    12962.595   -1598.6782   -1607.1898    8.5116278     2924.207   0.18418656 
    4470    268.30379    30805.372   -1598.6958   -1606.9846    8.2887559     2924.207   0.18256426 
    4480    287.81151    31064.051   -1598.7106    -1607.602    8.8914111     2924.207    0.1816132 
    4490    312.85667    14059.864   -1598.7297   -1608.3948    9.6651356     2924.207   0.18355123 
    4500    266.19315   -9516.6804   -1598.7334   -1606.9569    8.2235514     2924.207   0.18831555 
    4510    246.00562   -22775.564   -1598.7366   -1606.3365    7.5998947     2924.207   0.19171641 
    4520    280.65353    -17939.31    -1598.754   -1607.4243    8.6702784     2924.207   0.19187856 
    4530    294.04526    951.85284    -1598.777    -1607.861    9.0839916     2924.207    0.1903276 
    4540    257.85203    21610.784    -1598.794   -1606.7599    7.9658679     2924.207   0.18847849 
    4550    296.86403    32478.091   -1598.8188   -1607.9899    9.1710724     2924.207   0.18586499 
    4560    311.53549    24895.786   -1598.8308   -1608.4551    9.6243203     2924.207   0.18573764 
    4570    283.25048    2833.6063   -1598.8384   -1607.5889    8.7505067     2924.207   0.18928617 
    4580    254.66299   -16935.319   -1598.8427   -1606.7101    7.8673482     2924.207   0.19364494 
    4590    287.55544   -22314.298   -1598.8573   -1607.7408    8.8835004     2924.207   0.19520299 
    4600    290.78281   -10518.742   -1598.8705   -1607.8537     8.983204     2924.207   0.19494746 
    4610    272.47711    10415.885   -1598.8873    -1607.305     8.417683     2924.207   0.19348306 
    4620    277.27162    27685.577   -1598.9004   -1607.4662    8.5658007     2924.207   0.19106033 
    4630    295.40141    30631.418    -1598.912   -1608.0379    9.1258873     2924.207   0.18984123 
    4640    280.06251    15417.156   -1598.9237   -1607.5757    8.6520201     2924.207   0.19165117 
    4650    264.01742   -6703.1482   -1598.9309   -1607.0872    8.1563363     2924.207   0.19475681 
    4660    277.33321     -20846.5   -1598.9418   -1607.5095    8.5677033     2924.207   0.19702157 
    4670     289.9015   -18048.237   -1598.9585   -1607.9144    8.9559778     2924.207   0.19774683 
    4680    274.01194   -1438.9042     -1598.97   -1607.4351    8.4650989     2924.207   0.19716195 
    4690    269.52577    18685.993   -1598.9834   -1607.3099    8.3265066     2924.207   0.19503863 
    4700    285.96473    30517.219   -1598.9928   -1607.8271    8.8343584     2924.207    0.1927165 
    4710    278.31304    24896.145   -1598.9983   -1607.5962    8.5979734     2924.207   0.19269866 
    4720    273.08299    5077.2895   -1599.0097   -1607.4461    8.4364006     2924.207   0.19522911 
    4730    264.45405   -14016.485   -1599.0235   -1607.1934     8.169825     2924.207   0.19847881 
    4740    282.01342   -20417.688   -1599.0328   -1607.7451    8.7122898     2924.207   0.20046502 
    4750    277.73315   -11901.154   -1599.0428   -1607.6228    8.5800588     2924.207   0.20100377 
    4760    262.92914    7142.6199   -1599.0535   -1607.1762    8.1227157     2924.207   0.19981341 
    4770    258.87209    24879.486   -1599.0603   -1607.0577    7.9973808     2924.207   0.19721352 
    4780    295.49305    29555.282   -1599.0747   -1608.2034    9.1287185     2924.207   0.19488419 
    4790    270.71799    16830.429   -1599.0833   -1607.4466    8.3633381     2924.207    0.1961804 
    4800    269.21676   -3653.0375   -1599.0973   -1607.4142    8.3169604     2924.207   0.19926464 
    4810    275.32709   -17966.621   -1599.1054   -1607.6112    8.5057278     2924.207   0.20230089 
    4820    279.03177   -17633.956   -1599.1178    -1607.738    8.6201771     2924.207   0.20438147 
    4830    278.67804   -4261.6999   -1599.1309   -1607.7401    8.6092495     2924.207   0.20478006 
    4840    266.84294    14872.491   -1599.1341   -1607.3777    8.2436255     2924.207   0.20312281 
    4850    300.00008    27527.163   -1599.1497   -1608.4177    9.2679548     2924.207   0.20095861 
    4860    279.97421    24647.243    -1599.158   -1607.8073    8.6492922     2924.207   0.20109567 
    4870    263.96175    8225.0327   -1599.1627   -1607.3173    8.1546164     2924.207   0.20327631 
    4880    267.04652   -10188.667   -1599.1653   -1607.4152    8.2499149     2924.207   0.20642808 
    4890    282.49369   -18559.448   -1599.1752   -1607.9024     8.727127     2924.207    0.2096364 
    4900    263.69562   -13451.493   -1599.1822   -1607.3286    8.1463949     2924.207   0.21191717 
    4910     263.9646    3271.2681   -1599.1914   -1607.3461    8.1547044     2924.207   0.21162694 
    4920    273.85985    21388.383      -1599.2   -1607.6604    8.4604003     2924.207   0.20952264 
    4930    281.51256    28349.962   -1599.2089   -1607.9058    8.6968166     2924.207   0.20833088 
    4940    274.00852    18690.256    -1599.222    -1607.687    8.4649929     2924.207   0.20981167 
    4950    262.98322    397.62703   -1599.2287   -1607.3531    8.1243864     2924.207   0.21353709 
    4960    277.93627   -14837.111   -1599.2312   -1607.8176    8.5863337     2924.207   0.21757623 
    4970     285.4766   -18494.339   -1599.2425   -1608.0618    8.8192784     2924.207   0.22147662 
    4980    262.56025   -7543.0189   -1599.2473   -1607.3586    8.1113198     2924.207   0.22368947 
    4990    280.38714    11123.937   -1599.2599   -1607.9219     8.662049     2924.207   0.22275993 
    5000    282.70308    25776.865   -1599.2703   -1608.0039    8.7335958     2924.207   0.22079191 
Loop time of 307.061 on 1 procs for 5000 steps with 240 atoms

Pair  time (%) = 304.42 (99.14)
Bond  time (%) = 0.00299358 (0.000974917)
Neigh time (%) = 0.129955 (0.0423221)
Comm  time (%) = 1.35457 (0.441142)
Outpt time (%) = 0.820584 (0.267238)
Other time (%) = 0.332526 (0.108293)

Nlocal:    240 ave 240 max 240 min
Histogram: 1 0 0 0 0 0 0 0 0 0
Nghost:    5943 ave 5943 max 5943 min
Histogram: 1 0 0 0 0 0 0 0 0 0
Neighs:    91168 ave 91168 max 91168 min
Histogram: 1 0 0 0 0 0 0 0 0 0
FullNghs:  182336 ave 182336 max 182336 min
Histogram: 1 0 0 0 0 0 0 0 0 0

Total # of neighbors = 182336
Ave neighs/atom = 759.733
Ave special neighs/atom = 0
Neighbor list builds = 4
Dangerous builds = 0
unfix 			1
uncompute 		myDis
