	reset_timestep  	0
	fix 			1 all nve
	compute   		myKE all ke/atom
	compute   		myPE all pe/atom
	compute   		myStress all stress/atom virial
	compute   		flux all heat/flux myKE myPE myStress
	variable  		Jx equal c_flux[1]/vol
	variable  		Jy equal c_flux[2]/vol
	variable  		Jz equal c_flux[3]/vol
	fix       		JJ all ave/correlate $s $p $d c_flux[1] c_flux[2] c_flux[3] type auto file J0Jt_${iseed}.dat ave running
	fix       		JJ all ave/correlate 10 $p $d c_flux[1] c_flux[2] c_flux[3] type auto file J0Jt_${iseed}.dat ave running
	fix       		JJ all ave/correlate 10 100000 $d c_flux[1] c_flux[2] c_flux[3] type auto file J0Jt_${iseed}.dat ave running
	fix       		JJ all ave/correlate 10 100000 1000000 c_flux[1] c_flux[2] c_flux[3] type auto file J0Jt_${iseed}.dat ave running
	fix       		JJ all ave/correlate 10 100000 1000000 c_flux[1] c_flux[2] c_flux[3] type auto file J0Jt_9.dat ave running
	compute 		myDis all msd
	thermo_style 		custom step temp press vol c_myDis[4] v_Jx v_Jy v_Jz
	thermo			1000
	timestep		${dt}
	timestep		0.0010000000000000000208
	run			1000000
Memory usage per processor = 7.90665 Mbytes
Step Temp Press Volume myDis[4] Jx Jy Jz 
       0    361.01943    14694.119     3048.625 2.2560368e-31 -0.00046024678 -0.0080993865 -0.0057234633 
    1000    382.29958    8954.2211     3048.625     6.112492 -0.0011819087 0.0085353246  -0.00535213 
    2000    354.75715    5936.1806     3048.625    18.898731 -0.017936792  0.010680211 0.0081341182 
    3000    329.67855    15356.472     3048.625    27.003838  0.019061626 -0.0090825898 -0.0024870912 
    4000    369.39772    15247.124     3048.625    25.346974 -0.017382327 -0.056829635   0.02328167 
    5000    380.76378    5318.7239     3048.625    24.847465 0.0065996556 -0.017630364  0.036450883 
    6000    383.18777    4795.3562     3048.625    31.771887 -0.018542652 -0.055906548 -0.050811732 
    7000    392.58444    8116.0217     3048.625    31.143679   0.03623937   0.01871718 0.0085755311 
    8000    356.70803    9451.5127     3048.625    27.754241  0.034101229  0.044125941  0.023091722 
    9000    339.18945    13738.295     3048.625    29.889159  0.036063987 -0.026299028  0.042371015 
   10000     322.2232    11688.078     3048.625     34.40664 -0.037106436 -0.022427852  0.043797243 
   11000    358.19788     19666.54     3048.625    33.247241  0.015179738 -0.023162455 -0.0038496816 
   12000    375.75588    10254.961     3048.625     28.79544 -0.010880749 -0.005879667 -0.001727819 
   13000    356.01469    13683.032     3048.625    28.200577  0.026901455  0.029460861  0.031940808 
   14000    339.78512    11645.186     3048.625    33.401944  0.034357814 -0.0088812071 -0.0072314622 
   15000    323.26361    12171.961     3048.625    30.984454 -0.038078814 -0.018574335 0.0047639298 
   16000    362.14089    6986.5494     3048.625    22.275359  0.011668294  0.019030248  0.040611575 
   17000    414.01185    4940.9445     3048.625    23.280269 -0.020366303  0.015958653 -0.0045012002 
   18000    342.50444    18566.582     3048.625     32.38485 0.0036912667  0.029756301 -0.008728646 
   19000    348.21818    15095.304     3048.625      33.2468 -0.011838325 0.0074440484  0.035486517 
   20000    327.18709    10305.447     3048.625    26.071415 -0.011976087  0.018607515 -0.041263977 
   21000    374.81592    9903.9731     3048.625    21.108121 0.0027672122 -0.011637138  0.033942784 
   22000     373.4178    8956.0764     3048.625    24.972845 -0.017297106  0.014015338 -0.023877945 
   23000    373.70434    10403.506     3048.625    28.832929 -0.018485297  0.055878898   0.04430036 
   24000    370.65378    11188.691     3048.625    30.843974  0.034733889 -0.022698685  0.012483316 
   25000     339.3521    3680.9196     3048.625    28.038016  0.016622466  0.047419921 0.0084453446 
   26000    395.51783    15871.245     3048.625    20.445503  0.014933183  0.050217496  0.011906554 
   27000    370.73784    4828.9741     3048.625    17.863642 0.0074083201     0.040373 -0.016126843 
   28000    349.61712    9850.0795     3048.625    23.469989 0.0027743374  0.052255504 -0.0094861943 
   29000    372.85751    9379.2865     3048.625    28.384417 -0.0081239483 0.0044594728 0.0096298521 
   30000    308.76196    19047.156     3048.625    26.073398 -0.0013013045 -0.031301741  0.048249621 
   31000    359.10282    2937.5941     3048.625    21.933349 -0.013537333 -0.025072106  0.029169086 
   32000     316.5445    18400.851     3048.625    20.348184  0.030809632 -0.011525819 -0.059779974 
   33000    340.61654    639.20351     3048.625    24.311168 -0.032133788  0.011042858  0.010025145 
   34000    322.62846    17523.276     3048.625    27.933922  0.018316389  0.030177743   0.01861371 
   35000    353.75031    7556.0761     3048.625     28.13805  0.031729791 0.0090272044  0.004276031 
   36000    371.02568    9231.6222     3048.625    24.359519 -0.028081435  -0.01395448 -0.015189944 
   37000    323.45071     15155.36     3048.625    20.339682 0.0090596914 -0.0010932426  0.039999329 
   38000    352.81926    7837.1132     3048.625    19.300442 0.0022250333 -0.037035361 -0.015768444 
   39000     331.6236    6959.4331     3048.625    26.410853 -0.0056887875 -0.029317468 0.00034404222 
   40000    300.23536    18046.741     3048.625    29.192397 -0.075616042 -0.032617618 -0.010485887 
   41000    370.75729    4369.9437     3048.625    24.490444 0.00084112016  0.013135552 -0.002712989 
   42000    359.08357    7845.4086     3048.625      22.2041 -0.0088694024  0.049733634  0.034683304 
   43000    345.72257    18448.653     3048.625    28.779733 -0.010611339 -0.0022701788 -0.044932378 
   44000    392.93113    3876.3305     3048.625    30.873663 -0.0064455517 0.0093324715  0.011456483 
   45000     337.1214      14300.3     3048.625    25.211389  0.005466195  0.016381023  0.012867964 
   46000    359.42502    5186.2596     3048.625    23.582069  0.011205319 0.0099801926  0.020620218 
   47000    356.73662    15975.311     3048.625    30.031391 -0.019346301 0.0014461283  0.019979645 
   48000    382.23424    3201.8778     3048.625    30.850429  -0.01510481 -0.036540612 -0.032616066 
   49000    365.68324      8002.57     3048.625    23.895331 0.0012677863  0.021760185 0.0055500138 
   50000    329.99094    11495.327     3048.625    23.737617 -0.0019966933   0.08075152 -0.018116406 
   51000     361.7995    1797.4982     3048.625    22.792357 0.00033937598 -0.002281277 -0.017352305 
   52000    333.86702    14052.333     3048.625     17.71492 -0.047297634 -0.0051394781 -0.019676933 
   53000    364.48518    13265.009     3048.625    21.276512 -0.011330915 0.00024854265 -0.0077583737 
   54000    360.94801     10358.63     3048.625    31.547276  0.021224996  0.011459708 -0.014482889 
   55000    338.65338    9159.8072     3048.625    35.453807 -0.0049979122  0.027819803 -0.0069457163 
   56000    372.42822    9976.0778     3048.625    28.891278 0.0087214753  0.022801967   0.01043468 
   57000    336.38951    13460.283     3048.625    21.952286    0.0283346  0.028816845 -0.020760753 
   58000     319.3408    20311.492     3048.625    25.509693   -0.0180946   0.04400214 -0.0044447536 
   59000    344.97194    12089.457     3048.625    33.635128 -0.029954069  0.022673262 -0.047157606 
   60000    337.39021    13684.204     3048.625     34.14797  0.035789016 0.0078987967 -0.019560619 
   61000    349.64306    16184.606     3048.625    28.906625 -0.0092857939 -0.015986468 -0.018537513 
   62000    341.75745    13878.186     3048.625    25.221622 -0.011175277  0.025911108 0.0025602601 
   63000    354.08338     6815.398     3048.625     25.39489   0.05954789 0.0016930981 0.0062371429 
   64000    343.48612    7870.3273     3048.625    27.919212 0.0016346746 -0.045144157  0.010316522 
   65000    362.40337     7564.872     3048.625     26.07056 -0.0034718277  0.030075342  0.035262253 
   66000    343.43742    19019.924     3048.625    28.033925 -0.024127879 -0.024282429  0.030984255 
   67000    353.31694    7023.0246     3048.625     33.22569  0.012336186   0.04235352  0.039725356 
   68000    335.70514     3420.918     3048.625    30.640973   0.03146327 -0.017196678 -0.030871775 
   69000    384.70809    12737.388     3048.625    20.986105 -0.035515224  0.016353234 -0.0011348416 
   70000    366.92561    5058.5491     3048.625    17.252861 -0.0066941746 -0.007343692 0.0080056776 
   71000    378.37667    348.57038     3048.625    20.355485  0.060991139 -0.0057244851 -0.022548881 
   72000    337.88369    23607.208     3048.625    24.692236 0.0013150176 -0.011247537 0.0088080753 
   73000    325.96401    13287.553     3048.625    24.336414  0.019962365 -0.057709424  0.036869202 
   74000     319.7489    21252.149     3048.625    20.511391 -5.1628271e-05 -0.0069259128 0.0074062334 
   75000    371.50425    13448.752     3048.625    17.657053 0.0097034239 -0.0022081234 -0.013460896 
   76000     346.2618    1275.4885     3048.625     20.38408 0.0094773142  0.027133424  0.019798203 
   77000    369.97653    13102.096     3048.625    24.863506 0.0011079863 -0.0025789075 -0.043534057 
   78000    368.76943    9458.8938     3048.625    26.046613  0.008186886    0.0216997  -0.01731001 
   79000    365.35611     4085.861     3048.625    27.939991  0.034455012 -0.003359249 -0.017152051 
   80000    345.23346    19178.322     3048.625    31.095105 -0.0016914496  0.017358645 -0.054076209 
   81000    360.74339    6869.0704     3048.625    28.302975  0.025525797 -0.023476388  0.013149375 
   82000    301.86219    11636.359     3048.625    19.200332 -0.0093018554 0.00088081861 -0.00016843828 
   83000    307.70002    9285.4591     3048.625    16.823565 -0.035425943 -0.024487645 -0.022377726 
   84000    352.92565   -1429.4382     3048.625    21.965642 -0.021802025 0.00042480259   0.02383284 
   85000    362.12714    14591.834     3048.625    27.943772 0.0045255162  0.052494236  0.041264886 
   86000    310.32429    3654.1865     3048.625     28.21038 -0.016171709 0.0057007053  0.015422793 
   87000    339.49108    16711.773     3048.625    23.066435  0.011759349 -0.023146805 -0.011084624 
   88000    329.26056    2053.0007     3048.625    17.750892 -0.019865767 -0.0074486771 -0.012912802 
   89000    372.65035    9147.8062     3048.625    16.861904 -0.0076166846 -0.0065803918 -0.003383002 
   90000    372.77012    8725.0847     3048.625    21.929154 -0.018859785  0.033443915 -0.017809069 
   91000    375.73617    9723.9399     3048.625    25.947057 -0.044797308 -0.010474384  0.019559162 
   92000    359.57606    2471.0984     3048.625    29.985467 -0.023498425  0.025002286 0.0099245847 
   93000    351.76635    21276.696     3048.625    28.487474  -0.03992104 -0.015781862 -0.057726963 
   94000    319.21184    11794.744     3048.625    28.077125  0.018773497  0.036247916  0.038673648 
   95000    360.90116    7513.7061     3048.625    29.571917  0.065701904 0.0063763688 -0.0072547012 
   96000    351.92453     6576.972     3048.625    31.574639 -0.022524236  0.006856262  0.039134951 
   97000    342.78586    10030.645     3048.625    31.063755 -0.011499982 -0.020378743 0.0097533114 
   98000    345.25285    12179.359     3048.625    31.209355  0.039966842 -0.032998101 -0.0012781495 
   99000    369.44544     9821.737     3048.625    31.153185  0.017069999  0.011176931  0.028197718 
  100000    341.83218    13114.418     3048.625    29.167966   0.01667438  -0.01359985 -0.038924146 
  101000    342.25267    11976.737     3048.625    28.044442 -0.012399923 -0.048215542 -0.014573141 
  102000    342.52185    7374.3334     3048.625    31.756335 -0.033820875 -0.031268784 -0.013347764 
  103000    353.04178    9244.6062     3048.625    31.186963  0.012038588  -0.03733552  0.025720412 
  104000    334.84514    9773.3325     3048.625    27.933338  0.023083189 -0.0096222712 -0.0049298083 
  105000    348.65845    5405.9972     3048.625    29.786812  0.030351949 -0.015959785  0.003994313 
  106000    349.68942    10229.763     3048.625    34.268395 -0.012996214  0.037031937 -0.0014854181 
  107000    379.87771   -598.14157     3048.625    33.966468 -0.0021230847  0.029347967 -0.027730463 
  108000    352.02127    6093.3908     3048.625    28.361566 0.0016298398  0.014690373 -0.0010253979 
  109000    331.85477    18555.026     3048.625    23.143288  0.033050117 -0.046558175 -0.056031419 
  110000    359.13589    9320.0065     3048.625    23.259064  -0.02797592 -0.0088236557  0.028953556 
  111000    343.59969    11220.089     3048.625    28.439015  0.020249781 -0.035890836 -0.027099552 
  112000      365.518    6664.6363     3048.625    31.441923 0.0051538099 -0.0082324371  -0.01623588 
  113000    377.97722    4121.1203     3048.625    29.076289 -0.0018435745  -0.03189918 -0.0052763977 
  114000    364.01447    7695.9388     3048.625    25.483704 -0.014308161  0.011948385 -0.017224442 
  115000    355.31624    10541.102     3048.625    26.222785 -0.041881695  0.028079559  0.028977291 
  116000    305.74686    13839.388     3048.625    28.546088 -0.013726026 -0.016941662  0.020378306 
  117000    324.97998    14791.454     3048.625    29.358401 -0.030616346   -0.0238408  0.027922459 
  118000    329.89006    10028.403     3048.625    31.318444 -0.012908277 -0.019143185  0.031896148 
  119000    333.56373    1211.2939     3048.625    33.378464 0.0070077956 -0.0065588743 -0.074144111 
  120000    323.04298    16232.256     3048.625    33.294511 0.00096871722 0.00098434769  0.020061932 
  121000     343.3808    13218.787     3048.625    31.557678  0.010620088 0.0095582764  0.018627957 
  122000    358.88514    6684.3347     3048.625    28.309131  0.017649615 0.0046288879  0.029327621 
  123000    359.07868    4553.6399     3048.625    25.151774 -0.043560572 0.0072252583 -0.0028072703 
  124000    366.37525    15251.572     3048.625    26.904479 -0.0047450172  0.043063831 -0.0026425396 
  125000    338.31537    11026.231     3048.625    30.541675  0.024699683 -0.045743999   0.02261247 
  126000    337.04434    2452.5447     3048.625     30.96116  0.041177598 -0.002805591 -0.021825565 
  127000    352.16127    13240.897     3048.625    28.562329  0.022732943  0.020524914 -0.0037715429 
  128000    332.60588    12255.786     3048.625    25.943821 -0.0039455735 0.0036665401  -0.00873695 
  129000    363.07881    6976.1716     3048.625    28.638876 0.0094179702 -0.0063869227  0.034869087 
  130000    375.68788    8177.9232     3048.625    32.451944 -0.001071134  0.052523307 -0.017667684 
  131000    362.68916    5569.1875     3048.625    32.260309  0.048742564  0.027842277 -0.0011999775 
  132000    351.77663    4161.2037     3048.625    31.300342  0.044305475 -0.0055323399 -0.019427675 
  133000     353.3596    3399.8122     3048.625    30.533469 -0.064020745  0.020090715 -0.0039786221 
  134000    361.34056    5321.0931     3048.625    29.936571 -0.004431617 -0.046668223 -0.0027320242 
  135000    351.73517    6947.1122     3048.625    29.728268  0.040910876  0.026487933 -0.022685419 
  136000    348.81171    9988.7018     3048.625    26.851008  0.033687311  0.038482219 -0.034271046 
  137000    346.83503    5812.3953     3048.625    25.409037  0.041712433 -0.010759157 -0.024809231 
  138000    371.59891    715.70532     3048.625    31.948286 0.0064415913 -0.0015300514 0.00023634146 
  139000    348.61599    7224.4329     3048.625    35.714826 -0.0018799535  0.011642308 0.0030464714 
  140000    365.56585     10234.06     3048.625     28.75355  0.019876633 0.0037379968 0.0056141465 
  141000    368.16884    4758.6798     3048.625    23.286772  0.055043547 -0.0094221832 -0.027431978 
  142000    340.44857    6192.1846     3048.625    25.692282  0.017642463 -0.0081610021 0.0029451891 
  143000    356.16674     13448.15     3048.625    29.628016  0.025971279  0.074423135 -0.025193606 
  144000    372.28191    588.64437     3048.625    29.834724  0.043753087  0.051014726 -0.036924309 
  145000    383.68031   -585.07575     3048.625    28.475656 0.0053232652 -0.024828568 -0.011587322 
  146000    366.19186    6173.1377     3048.625     26.33564   0.01451093 -0.035886209 -0.025848573 
  147000    355.62246    207.42011     3048.625    24.995577 0.0059590198 -0.014284618 -0.020147541 
  148000    354.84405    9161.3021     3048.625    26.406761  0.032431283  0.032749883 0.00017892195 
  149000    381.78875    8813.2568     3048.625    26.766874  0.025551866 -0.016503105  0.038788472 
  150000    361.89631     3479.322     3048.625    22.476764 -0.037725664 -0.013714343 0.0014435561 
  151000    347.16566    3869.4213     3048.625    18.598126 -0.0012565346 0.0015868167 -0.033131567 
  152000    345.13877    11750.602     3048.625    23.041821  0.053276936  0.020253079 -0.012881783 
  153000     356.3221    5537.5049     3048.625    30.087424 -0.010123944   0.02310216 -0.0080984366 
  154000    359.79433    6781.7347     3048.625    31.793183 -0.032998809   0.01009883 0.0072941211 
  155000    370.39256     5268.757     3048.625    27.862822  0.008152051  0.049251547  0.011589223 
  156000    365.86816    6001.1899     3048.625    23.765756  0.035822132 -0.011257628  0.051706414 
  157000     343.7325    8014.7195     3048.625    21.534707  0.051633472 -0.041250106  0.024166996 
  158000    347.41596    12982.285     3048.625    19.065468 0.00062091377  0.059708656 0.0068809324 
  159000    368.19826    551.46889     3048.625    21.188407  0.021359692 -0.030090564  0.013728211 
  160000    362.57099    5572.0152     3048.625    30.009683  0.012017909 0.0013743582 0.00094403306 
  161000    343.63346    19827.386     3048.625    35.388741  0.011160601  0.021214864 0.0078122915 
  162000    380.95617   -962.12492     3048.625    28.931824  0.014803538  0.021071979 -0.0038482685 
  163000    346.79427    7221.2473     3048.625    17.419287 -0.008212153 0.0057733834  -0.01099703 
  164000    349.77561    10222.816     3048.625    14.231413  0.009654567 -0.013390547 -0.0092335265 
  165000    354.06604   -1209.7617     3048.625    19.576954   0.01342387  -0.06338357 0.0059349079 
  166000    348.28245    8323.1163     3048.625    26.968909  0.035580665 -0.0065728042 -0.014923102 
  167000    364.23106    3942.0955     3048.625    26.494326 -0.018610212 -0.045756794  0.010272507 
  168000    360.69474    7783.8389     3048.625    21.181414 0.0047789038 -0.049881394 0.00079996117 
  169000    336.89519    6761.4107     3048.625    21.166668 -0.00048455733 -0.0061789391  0.019905327 
  170000    355.21731    6406.4977     3048.625    24.087905 -0.0085701465  0.033036091 -0.058513731 
  171000    343.41972    2162.7382     3048.625    27.747633 0.0034930101  0.015595393 -0.029202994 
  172000    349.00453     18038.23     3048.625    31.852432 0.0080797404  0.010895841 0.0029399203 
  173000      343.869    2918.8065     3048.625    31.568637  0.012792115 -0.028171338  0.025201944 
  174000    349.22782     8473.465     3048.625    26.844107 0.0035848336 -0.0097792674  0.010605517 
  175000    344.05793     11250.75     3048.625    23.854192 -0.025431155 -0.017714113  0.045459662 
  176000    350.60513    7981.1609     3048.625    26.965972  0.013245766  0.014681863 -0.013959387 
  177000    352.19739    11001.801     3048.625    30.693829 0.0068100364  0.020387305  0.012471541 
  178000    351.29539    7561.9247     3048.625    31.246528 -0.024326374 -0.020293004 -0.0054533588 
  179000    338.03774    10814.203     3048.625    30.032138 -0.014982307  0.028614778  0.054542327 
  180000    350.54085     6529.275     3048.625    31.483337 0.0022600826 0.0011054567 -0.031354859 
  181000    370.62239    4817.0421     3048.625    31.113606 -0.037672052 -0.042060147  0.017961456 
  182000    355.25172   -266.02399     3048.625    28.497955  -0.01798124 -0.001916304 -0.00043456119 
  183000    339.33758    9909.3836     3048.625    26.901816  0.049537974  0.060115973 -0.045238145 
  184000     354.2822    5755.5231     3048.625    29.387727  0.026615717 0.0011501706 0.00030482392 
  185000    356.06135    9262.8624     3048.625    33.039359 -0.0081660088  0.027632384 -0.013706368 
  186000    361.32534    1108.2401     3048.625     33.17926  0.030745742 -0.016007075 0.0040958089 
  187000    353.59759    848.20959     3048.625    29.197821  0.011765733 -0.0074404046 -0.016211745 
  188000    348.22513    14663.736     3048.625    26.253104 -0.026823836 -0.0037341991 0.0081148762 
  189000    322.85307    7013.3289     3048.625     30.33169   0.03291673 0.0071174456 -0.037306703 
  190000    363.63327    2476.0063     3048.625    35.162043 0.0065213842 -0.0088204763 -0.033507695 
  191000    345.27349    1529.6513     3048.625    32.675087  0.032168454  0.019425958 -0.022674119 
  192000    355.32045    8024.1197     3048.625    30.311042  0.017952869 -0.017543573  -0.01361494 
  193000    347.09471    8401.0861     3048.625    33.119994 0.0036763656  -0.01743256 -0.0030830216 
  194000    360.40414    5733.6274     3048.625    35.284401 -0.0088639225 -0.013964327 -0.062024407 
  195000    355.42252    505.65383     3048.625    33.122452 0.0089201006 -0.0028186052  -0.04110247 
  196000    333.19802    17976.117     3048.625    29.419592  0.016873442  0.023631457 0.0086949831 
  197000    341.55811    2207.0592     3048.625    27.334466  0.038194438 0.0020404095 -0.038072165 
  198000    329.51888    13717.757     3048.625    25.921549  0.019820453 -0.0054787119  0.018010962 
  199000    350.56994    8209.0916     3048.625    27.617599 -0.0018405668  0.023448524 0.0040272741 
  200000    346.23212    5843.3223     3048.625    31.833971 -0.019490577 -0.0065133605 -0.026924385 
  201000     329.0708    9688.0814     3048.625    34.545087 -0.0017317582  0.026779866 -0.011263312 
  202000    330.68096    9862.2959     3048.625    33.481869 -0.0085649408  -0.01454668 0.0042300224 
  203000    338.72524    5693.5709     3048.625    29.245153 -0.0029844643 -0.017523594  0.024735797 
  204000    315.92487    7692.0625     3048.625    24.999243 -0.010422128  0.012437389  0.018143438 
  205000    359.96817    13749.531     3048.625    24.461683  0.016729624 0.0097107983  0.052102241 
  206000    333.41566    11568.142     3048.625    27.659849 -0.00056665741  0.045089974  0.048878456 
  207000    301.97598    8932.3802     3048.625    32.793837 -0.011019658 -0.0042925662  0.018087571 
  208000    332.46313    17468.521     3048.625    34.914356 -0.020963113  0.025020274 0.0064903605 
  209000    333.88566    8200.3892     3048.625    33.157574  0.043247739 -0.020966984 0.0065683588 
  210000    359.25263     12895.51     3048.625    27.882124  0.029163768 0.0017035542 -0.049449445 
  211000    320.38272    8145.0731     3048.625    23.246735 -0.0020803466 -0.014898741  0.014536283 
  212000    336.14197    1624.6568     3048.625    23.119058   0.01536128 -0.019799356 0.0063689115 
  213000    355.84898    11157.337     3048.625    27.027359 -0.036263686  0.018203929  0.012550755 
  214000     333.4858    18980.981     3048.625    30.002865 -0.013996811 -0.042638722  0.027184863 
  215000    316.54474    5355.1782     3048.625    30.312756  0.021758775  0.038716065  -0.01325165 
  216000    329.05987    9352.8436     3048.625    27.417811 0.0019706225  -0.01175501 -0.022159177 
  217000    328.44616    6317.6218     3048.625    23.599737 0.0099912839 -0.001114401 -0.015043939 
  218000    350.24442    8252.4512     3048.625    18.712053 -0.022060121   0.02168178  0.049919407 
  219000    334.32741    10762.025     3048.625    15.870643  0.038231634 -0.00056612091  0.024491929 
  220000    307.29194    10490.811     3048.625    18.611914 -0.050823367  0.011214137 -0.029268224 
  221000    342.01399    437.67231     3048.625     23.55746 -0.012819044 0.0034719895  0.013239821 
  222000     323.7425    12806.115     3048.625    26.404668 0.0050702083  0.013897159 -0.022939791 
  223000    320.63967    14463.618     3048.625    24.341851  0.021162728 -0.046521846 -0.020996668 
  224000    307.30423    719.27809     3048.625     21.11265  0.036487097 -0.0043230599  0.018452981 
  225000    344.71021    20490.994     3048.625    22.689971  -0.01309384 -0.042218935  0.014823732 
  226000    327.12733    13743.811     3048.625    29.394885 -0.0025441267 -0.017561023  0.021010414 
  227000    327.10398    5983.2382     3048.625    33.003314 -0.0065798466 -0.014264984 -0.018236199 
  228000    319.97311     11881.33     3048.625    29.345503 -0.0011282763  0.011623239 -0.035566583 
  229000    340.54482    11575.966     3048.625    21.991895 -0.020639053  0.003805454 -0.022769346 
  230000    323.15489    12521.225     3048.625    20.288788 -0.018405599 0.0015601224 -0.034946992 
  231000    333.11674    10333.023     3048.625    23.171922 0.0081328851  0.043069578 -0.029457428 
  232000    339.72589    13145.104     3048.625    24.982671  -0.02917911  0.043777981 -0.0066436304 
  233000    329.04538    12463.027     3048.625    24.408978 -0.070837395 0.0045492803  0.010643326 
  234000    336.15322    11161.544     3048.625    23.331378 -0.017880276  0.014068579 -0.0066616114 
  235000    332.06686    6244.4898     3048.625    24.486636 -0.041399379 -0.017771006 -0.039661184 
  236000    325.19422    15914.657     3048.625    28.685137 -0.001250855  -0.04992593  0.019581638 
  237000     308.9586    12585.565     3048.625     32.50746 -0.0016484912  0.038303025 -0.026397735 
  238000    317.92919    2765.5574     3048.625    34.331552 -0.028928453  -0.01743906  -0.02200844 
  239000    340.40908     9340.113     3048.625    32.850256 -0.037887217  0.012837625 -0.00014962524 
  240000    328.03947    3007.6223     3048.625    30.132865 -0.046619983  0.038914175   0.01268268 
  241000    337.44987    6846.4671     3048.625    27.718392  0.042816187 0.0034786968 -0.0090014508 
  242000    326.84809    15395.536     3048.625     28.46211 -0.0014737196  0.013503022  0.014327886 
  243000    340.09793    3713.7254     3048.625     29.15642 -0.00090846758  0.033116136  0.019031372 
  244000     357.7712    12139.818     3048.625    30.080596  0.014062492 -0.042544047  0.011680779 
  245000    342.58287    3520.0421     3048.625    29.699366 -0.0079986977  0.027996743 0.0094273176 
  246000    365.78151    10479.796     3048.625    30.316928  0.040018069 -0.041400221 0.0039477648 
  247000    360.44682    3209.7991     3048.625     31.36302  0.020340351  0.012409193 -0.0075410496 
  248000    340.35622     9089.289     3048.625      31.6672 -0.013915214 0.0010614511 0.0072512521 
  249000    336.32501    15015.452     3048.625    31.390444  0.012293034  0.010916508 -4.7607733e-06 
  250000     332.7056   -893.36389     3048.625    31.327147  0.039483682 -0.038822859 -0.041388345 
  251000    342.92069    12282.759     3048.625    32.517684  0.014032326 -0.0077711011 -0.021805206 
  252000    331.80019    2775.8414     3048.625    31.666334 -0.010130707  0.052900952 -0.038185638 
  253000    317.88045    11911.432     3048.625    28.998418 -0.0083627735  0.011220563 -0.022029635 
  254000    317.48289    8538.4103     3048.625    28.689439 -0.013566381  -0.03255862 -0.012039997 
  255000    344.93868    10411.106     3048.625    28.737292  0.012031272 0.0060296714 -0.013938118 
  256000     335.5278     3722.227     3048.625    26.986446 0.0010437587  0.010005255  0.059302141 
  257000    316.70785    10544.417     3048.625    24.809761 -0.011755482 -0.017308713   0.04897644 
  258000    340.80162    5339.4156     3048.625    25.745446  -0.06212047  0.040032099 -0.00047030574 
  259000    314.91327    4252.0728     3048.625    30.516245  0.012088167 -0.029938496 0.0076657825 
  260000    337.99834    8518.4662     3048.625    34.216376 -0.035120206  0.030674502  -0.04708403 
  261000    332.68214    11123.332     3048.625     34.73942 -0.011260176 0.0094174098 -0.022298879 
  262000    312.15213    11139.224     3048.625    32.713345 -0.0067484199  0.044957622 0.0043244959 
  263000    340.41011    12954.788     3048.625    29.475508  0.024525897 0.0023749084  0.042118301 
  264000    344.61628    8270.5574     3048.625    28.162061 -0.013885051  0.035110326  -0.01099081 
  265000    344.04374    6635.2254     3048.625    28.276791 -0.0010941521  0.016495826  0.025161798 
  266000    348.16607    2149.0252     3048.625    29.664479 -0.0070761341 -0.013299672 0.0062372683 
  267000    316.91553    23632.446     3048.625    29.551267 -0.027212656 0.0060810235 -0.021117856 
  268000    320.37547    8526.6868     3048.625    30.069459 -0.033050101 -0.020344926 -0.034636685 
  269000    331.14761    11040.606     3048.625    27.920512 -0.012552983 -0.0020281158  0.013540683 
  270000    351.01082    5167.6405     3048.625    26.042693  0.036815269 -0.0060748793 -0.014307619 
  271000    344.13974    2983.7574     3048.625    27.483945  0.034636504  0.011201536 -0.012477431 
  272000    317.55486    9717.5212     3048.625    32.254716  0.051897135 -0.019764263  0.026070567 
  273000    324.04363    5622.9616     3048.625    35.255317 0.0056665124 -0.018738731  0.017090216 
  274000    309.93183    9055.4853     3048.625    31.499333  0.039730741  -0.02369121 -0.021452917 
  275000    332.50642    3238.9538     3048.625     24.89414 -0.013028901 -0.014861253  0.016113307 
  276000    340.58804    5594.8892     3048.625    23.385336  0.010257576 -0.004812978 -0.018505636 
  277000    346.04625    14698.173     3048.625    28.544689 0.0049210511 0.0024246212 -0.035588514 
  278000    346.45597    9192.3017     3048.625    32.803157  0.011170967 0.0060244844 -0.018024061 
  279000    338.38648    5181.4216     3048.625    34.687065 0.0068134191 -0.059439594 -0.040000612 
  280000    320.68504     12200.26     3048.625    34.435032 0.0028395571  0.014268047 0.0052868298 
  281000    336.70599    7891.4021     3048.625    33.809133 -0.014789648 0.0055002218  0.008862274 
  282000    337.78351    6487.0683     3048.625    31.411835  0.018418848  0.013884987 -0.021609077 
  283000    338.80733    2375.1041     3048.625    30.889537 -0.013105295  0.040747573 -0.009897201 
  284000    321.97986     13119.75     3048.625    31.275825  0.031155843  0.014395757  0.022604735 
  285000    333.58092    6225.1933     3048.625    30.726254 -0.010804761   0.01842429 0.0019942021 
  286000    342.61605   -4204.5454     3048.625     30.02869  0.027496484 0.0037050342 -0.024047293 
  287000    358.70387    7562.2851     3048.625    29.503874 -0.010437193 0.0050274546 -0.029504646 
  288000    335.23673     7204.588     3048.625    28.808752 -0.026063733 -0.041497424 -0.012754595 
  289000    328.19605    3823.8596     3048.625    28.310624  0.022411931   0.04594692 0.0058055828 
  290000    313.53189    13980.643     3048.625    28.263158 0.00060294365  0.013929889  0.010082605 
  291000    335.53875    4824.1492     3048.625     29.14888 -0.0067636593 -0.0073839224 -0.009596195 
  292000    348.43873    4832.9212     3048.625    30.506664 -0.0039890978  0.024977886 -0.014365842 
  293000    350.15546     5627.234     3048.625    33.619558 -0.023300365  0.028807969 0.0059866441 
  294000    357.73817    7162.7309     3048.625    34.334803  0.031206746 -0.023329251  0.066459564 
  295000     344.7243    5602.9483     3048.625    30.522611 -0.0056741723 -0.018601651 0.0031179975 
  296000    340.79351    5655.0257     3048.625    25.998548 0.0080076123 0.0067698425  0.012723256 
  297000    341.89888    5640.8196     3048.625    24.771111 -0.030885702  0.027979695 0.0063129898 
  298000    344.33212     9752.714     3048.625    28.029962  0.028800555 -0.051177219 -0.037344529 
  299000    329.62819    2843.1717     3048.625    31.770462  0.015218142 0.0042875549 -0.0080098095 
  300000    317.51924    6952.9796     3048.625    32.380492  0.066375613 -0.024950006   0.01631031 
  301000    321.11692    4509.4131     3048.625    29.276981  0.024231986 -0.045287579 -0.0068600528 
  302000    336.79624     10366.03     3048.625    24.399629  0.029198334 0.0048337271 -0.0064938947 
  303000    340.69381    6557.3604     3048.625    22.536118 0.0066994073 -0.012284142  0.015789289 
  304000     334.2526    5399.8461     3048.625    26.383178 -0.029900636 -0.032077672  0.016915892 
  305000     333.0944    11835.627     3048.625    28.959346   0.02607288 -0.0023724725 -0.028100215 
  306000     337.7807   -3281.7003     3048.625     28.77673 -0.00080803032 -0.019039175 -0.035687421 
  307000    330.71364    5722.7852     3048.625    27.987951  0.001031442  0.025050419 -0.031695858 
  308000    337.52724    12788.119     3048.625    27.538436  -0.04721608 -0.010125426  0.018270041 
  309000    346.64273    9826.7007     3048.625     29.22146 -0.0078312646 -0.018565411  0.050024696 
  310000    322.74094     5172.913     3048.625    28.258026 -0.019133325  0.010651164 -0.033778926 
  311000    322.95423    1705.8139     3048.625    23.390854  0.028895105  0.017503349 0.0086728858 
  312000    310.30524    9440.8716     3048.625     22.70725 -0.016536946 0.0085861893 -0.012722669 
  313000    298.46636    11825.381     3048.625    23.787807 -0.027386619 -0.021406076 -0.010713764 
  314000    338.28476    7483.1718     3048.625    23.470286  0.027405825 -0.037897883  0.038132018 
  315000    315.67294    11920.481     3048.625    22.022594  0.010513217 -0.006052425   0.02319852 
  316000    334.26461    6844.7098     3048.625    21.753414  0.025558099  0.011450921 -0.015062019 
  317000    302.62691    2881.8315     3048.625    25.393227  0.033250824 0.00070062471  0.027166237 
  318000    324.02666    8039.8012     3048.625    29.696435  0.012207799 -0.0028520304 -0.001439234 
  319000     318.2037    8587.1528     3048.625    26.516753  0.030224377  0.031438026 -0.020857719 
  320000    331.86756    6662.0961     3048.625    23.181051 -0.0076930655  0.034400555 -0.038487713 
  321000    340.75415    11325.515     3048.625    21.359169 -0.0099017483   0.04187687  0.034602961 
  322000    331.59704     5502.904     3048.625    21.400793 -0.018159025 -0.030811054  0.056518206 
  323000    337.99707    10092.181     3048.625    25.952439 -0.024279367 -0.022821203 -0.024856054 
  324000    303.12747    8336.7734     3048.625    30.561833 0.0057865634 -0.00071108328 -0.031580837 
  325000    316.46284    15435.731     3048.625    30.249773 -0.035778371 -0.0074446669 -0.034091219 
  326000    322.51617    2987.7651     3048.625    26.930175 -0.040552057  0.010340067 -0.026596295 
  327000    331.13104    1031.9203     3048.625    25.674271 -0.0066392976 -0.026765345 -0.042611213 
  328000    332.40308     17833.45     3048.625    28.427197 -0.022827629 -0.041990057 -0.013887628 
  329000    321.91586    2747.9598     3048.625    32.091854   0.02471061 0.00059144668 -0.0061288894 
  330000    317.08167    15524.883     3048.625    33.295079  0.016992842 -0.019490486  0.035986563 
  331000    324.05452    16284.146     3048.625    31.811364 0.0028213698 -0.011122159  0.047089075 
  332000    324.24408    8333.3741     3048.625    30.085725  -0.03131577  0.041271804 -0.0023299803 
  333000    322.43988    3482.3852     3048.625    30.294507   0.02440467 0.0021434504 0.0046357201 
  334000     326.6334    7702.5691     3048.625    33.889217 -0.0080717165  0.022754126 -0.0089950599 
  335000    339.32386    12315.669     3048.625    35.773806  0.045648153 -0.026614311 -0.011116048 
  336000    337.23256   -1060.0663     3048.625    32.174362  0.012929413 -0.00021074802  0.057163309 
  337000    325.14877    13482.366     3048.625    27.572019  0.026131512 -0.0033632569 -0.022400936 
  338000     317.8168    7944.3058     3048.625    25.747367 -0.0092032491 -0.034568095  0.030134907 
  339000    337.50009    19704.924     3048.625    28.724973  0.072594238 -0.037970646 -0.019806606 
  340000      331.712    4752.1688     3048.625    30.425727 -0.019437707  0.034580505 -0.001896415 
  341000    328.40553    6003.1307     3048.625    29.522507  0.033868147  0.031833481 -0.018360704 
  342000    329.82457    7236.8338     3048.625    27.201682 0.0079247698  0.010228749  0.040501933 
  343000     318.6474    12563.305     3048.625    25.525009 -0.022162045 -0.067306656 0.00037492078 
  344000    331.54539    13821.564     3048.625    25.643501 -0.040723089  0.017166898  0.010068459 
  345000    314.78737    4430.1301     3048.625    27.244676 -0.0076956175  0.011827653 -0.017744772 
  346000    339.29099    5897.4751     3048.625    28.317351  0.004524773 -0.016086919  0.035131229 
  347000    332.17828    18764.158     3048.625    30.941008 0.00041858236  0.024491572 0.0060602193 
  348000    335.43836    10298.379     3048.625    32.216315 -0.034941566 -0.045590466 0.00019552194 
  349000    317.59253    -2614.315     3048.625    30.200078 0.0052714996 -0.024847121 0.00023981767 
  350000    336.22375    5590.7693     3048.625    25.466121  0.010160632 -0.0020276449 0.0098510939 
  351000    320.59369    16592.458     3048.625    22.086421  0.028001438  0.041408872 -0.038074913 
  352000    328.74111    1277.5742     3048.625    19.480465 -0.026797586    0.0274228  -0.01053533 
  353000    337.05097    1253.4251     3048.625    17.788312 -0.0083460601 -0.0031529222  0.010402182 
  354000    330.40999    14112.381     3048.625    21.029865 -0.028872903 -0.0093310173   -0.0313473 
  355000    339.36478    5148.7128     3048.625    26.757997 -0.022665445  0.059829169 -0.010320461 
  356000    311.62939    4313.6743     3048.625    30.019283 -0.016920871  0.023283343 0.0025990549 
  357000    314.90378    13523.919     3048.625    30.482297  0.047202062  0.047282184   0.01196677 
  358000    326.33204    398.89499     3048.625    27.237776 0.00014438641  0.049187606 0.0058531249 
  359000    330.34105    7735.6939     3048.625    23.992923 0.0026274384 -0.0074305495 -0.023031441 
  360000     341.6779    8699.9859     3048.625    22.675795 -0.0099770832 -0.016074064 -0.031539572 
  361000    343.45596     5156.611     3048.625    22.542758 -0.020123842  -0.01205435 -0.028689051 
  362000    309.37641    5777.2985     3048.625     25.95144  0.026574221  0.017078485 -0.0059019588 
  363000    304.37945    15727.486     3048.625    29.855322  0.015349642  0.040558691 0.0033132888 
  364000    336.04169    6012.0206     3048.625    30.942458 0.0032307472 -0.0090708319 0.0098265522 
  365000    337.88118    6828.1281     3048.625    29.605564 -0.026013551  0.049974988  0.018387288 
  366000    326.29886    16745.214     3048.625    27.094258 -0.049424143  0.021312442  0.014822673 
  367000    321.19697   -722.20928     3048.625    24.346603 -0.0034273007 -0.0055586812 0.00022905306 
  368000    331.64671    1272.7257     3048.625    23.908933 -0.033219718 -0.049759229 -0.012629206 
  369000    299.88719    20364.468     3048.625    25.636271 -0.015845087 -0.0077450771  0.028217089 
  370000    320.03599    359.83173     3048.625    26.867001 0.0045803661 -0.033420348 -0.023064452 
  371000    313.29731     9115.304     3048.625    23.246469  -0.01180755 -0.010846821 0.0032043436 
  372000    310.96928    14291.205     3048.625    17.982588   0.02529554  0.037919481 0.0050373554 
  373000    304.81127    7109.8109     3048.625    13.698847  0.023287843 -0.0077468108 -0.027916062 
  374000    323.30609    8517.2142     3048.625    16.687362  0.039699488 -0.043519924  -0.01226899 
  375000    329.82396    14681.286     3048.625    25.849479 -0.0078722946 -0.022830764 -0.037443726 
  376000    313.37731    15029.591     3048.625    31.033111 -0.0042744212  -0.04961881 -0.0027277739 
  377000    324.80667    3637.0084     3048.625    30.979915 -0.0093863131 -0.014123322 0.0027275413 
  378000    325.40612    1790.4116     3048.625    25.522903  0.046236394  0.027464513   0.02049149 
  379000    330.96799    10166.813     3048.625    24.506707  0.014139811  0.025291371  0.036661833 
  380000    346.30513    9997.9123     3048.625    29.660114  -0.02661463 -0.0047431133  0.009004691 
  381000    339.33501    3845.9275     3048.625    29.259679  0.027409578 -0.019512463 0.0044734183 
  382000    328.40602   -1498.2748     3048.625    25.993506 -0.00061038208 -0.0025107377 -0.010627564 
  383000     344.6809    13734.368     3048.625    28.778639 0.0034728831 -0.00097859712 -0.0032623002 
  384000    343.05301    6487.2822     3048.625    32.957266 -0.0090214845  0.031557448 -0.013501267 
  385000    346.06584    5872.1709     3048.625    31.317016 -0.015509484 0.0031251585 0.0014853019 
  386000     366.1988    9555.6189     3048.625    29.600957 0.0081824111 -0.0086537363  0.020357766 
  387000    345.03507    8894.7623     3048.625    31.954354  0.013264588 -0.026780986  0.021356711 
  388000    357.36074    6399.9398     3048.625    31.963523  0.068676977 -0.012061753 0.0052061685 
  389000    336.98566    6424.1007     3048.625    26.783298  0.024132366 -0.047385014  0.011402077 
  390000    331.03379    6832.5983     3048.625    24.110334 0.0019069846 -0.031239251 -0.007287996 
  391000    341.25451    115.94746     3048.625    24.634405 -0.045107284  -0.03982439 0.0004016217 
  392000     324.1997    1992.5585     3048.625    25.455862 -0.059118467  0.013582168  0.018212039 
  393000    307.50146    8637.9051     3048.625    26.017932  0.024786965  0.039805725  0.025843643 
  394000    348.57681    4225.3153     3048.625    27.376842  0.045042541 -0.033247296  0.024392113 
  395000    352.33057    2674.0269     3048.625    30.248386 -0.027303972 -0.027426317  0.012623992 
  396000     354.5462    7492.6006     3048.625    30.695465  0.018140384 -0.028440844 -0.012564075 
  397000    328.78132    1756.8679     3048.625    26.723762 -0.012173203  0.023992032 -0.017186139 
  398000    340.68025    4387.8971     3048.625    22.623073  0.016010829 -0.034005894 0.0099823884 
  399000    344.60598    5764.7608     3048.625    25.855958 -0.0058568681 0.0061064959  -0.03008215 
  400000    344.93359    12975.224     3048.625    29.638391  -0.03285039 -0.024025482 0.0084904299 
  401000    335.25766    2084.4783     3048.625    28.757174 -0.018401806  0.020897801  0.033259537 
  402000    335.27173    1412.2868     3048.625    27.134207 -0.001516509 0.0044309885 -0.0016374309 
  403000    340.87478    11307.185     3048.625    28.683108   -0.0114098  0.038128785 0.0060530467 
  404000    346.56576    3628.3004     3048.625    32.376522   0.05245345  0.022001044 0.0063901584 
  405000     327.6915    -3398.085     3048.625    33.828896  -0.03185239 -0.0043918832  -0.00497191 
  406000      327.998    12468.313     3048.625    32.412841 -0.023607571  0.018562743 -0.021657603 
  407000    342.81345    9196.5559     3048.625    31.430275 0.0058363957 -0.010508154 -0.024041476 
  408000    325.97969   -2909.1805     3048.625    31.672749 -0.032782282 -0.018420453 -0.011524456 
  409000    363.09555    7592.0144     3048.625    32.143401 0.00053743137 -0.011603989 0.0010148429 
  410000    333.12469    20045.725     3048.625    33.700532 -0.020404771 -0.012381672 0.0012046006 
  411000    335.55368    3836.1736     3048.625     34.64109 -0.027276892 -0.022978892 -0.0023303292 
  412000    317.81544    1025.7549     3048.625    33.027249 -0.0026613394 -0.026468002 -0.028647256 
  413000    350.00658    9318.8059     3048.625    33.353523  0.028560561  0.016843721  0.015850588 
  414000    357.46923    6256.6844     3048.625    33.641417 -0.0053918603 -0.0012938874  -0.01508624 
  415000    346.04536    3943.1732     3048.625     33.74674 -0.019547066  0.022523071 -0.014665114 
  416000    324.20734    5949.1459     3048.625    34.100643  0.029614748  0.015461269 0.00077765482 
  417000    347.87682    6971.2475     3048.625    35.351092  -0.02761786  0.030010921  0.058992066 
  418000    344.72934    8730.4202     3048.625    36.051511 0.0065931879 -0.0012993483  0.053677603 
  419000    330.57602    4921.6758     3048.625    33.828993   -0.0119228 -0.032567064 0.0084398415 
  420000    315.11434    13899.345     3048.625    28.944874 -0.019641716  -0.01185305 -0.018284466 
  421000    324.03242    8299.1017     3048.625    26.758803 -0.0068225979 -0.017203387 -0.034579574 
  422000    332.62378    10872.868     3048.625    28.470928  0.046041929  0.012299728 -0.044013254 
  423000    343.71786    3929.7536     3048.625    31.968816  0.020922846  0.012665293  0.030777184 
  424000    338.33743    10878.097     3048.625    33.688359 -0.005846106 0.0045060915  0.010242424 
  425000    337.38397    7680.2206     3048.625     31.83966  0.026115592 -0.0015192129  -0.01818155 
  426000    333.42792    5361.4355     3048.625     29.40609 -0.0092404922  0.033320892 -0.023500237 
  427000    332.69058    13321.565     3048.625    29.855625 -0.070437811  0.050475123  0.010096256 
  428000    315.48788   -3238.7953     3048.625    31.665381 -0.035854497 -0.00021720708 -0.040034922 
  429000    335.99847   -1906.2548     3048.625    31.542286  -0.04403806 -0.0050406808  0.011688028 
  430000    354.76564    12196.507     3048.625    31.034285 0.0093767366 -0.026540507  0.027174927 
  431000    319.53188    4541.8853     3048.625    31.585032  0.010692861 -0.012085323 -0.023444888 
  432000    307.06047     10916.56     3048.625     31.67273 -0.067388037 -0.014481833 -0.0032117307 
  433000    324.85735    10025.438     3048.625    32.096877  0.015896863  0.013800385  0.018556717 
  434000    334.82974   -1766.2979     3048.625     33.90896  0.011956381   0.01379082  0.036294039 
  435000    339.40372    11265.917     3048.625    34.088116 0.0085375547 0.0031960791 -0.014735156 
  436000    334.12481    4324.3032     3048.625    32.603595 -0.0086965877  0.029664456 -0.0033399186 
  437000    307.25476    12058.355     3048.625    30.362654  0.032777287 0.00096361028 -0.013689173 
  438000    330.40582    11809.689     3048.625    31.235064   0.02619556  0.026937182 0.0051649034 
  439000    305.14571    4450.8455     3048.625    30.569473 -0.019532849 -0.0052549264 -0.015004748 
  440000    305.39406    12792.804     3048.625    29.037709 0.0096283332  0.035652773  0.002009916 
  441000    313.51026    4218.0725     3048.625    28.381633 -0.0064385506   0.03778343 0.0019352598 
  442000    324.56382    11657.724     3048.625     30.78862  0.050660825  0.014680517   0.01754448 
  443000    301.41526    6891.2335     3048.625     34.70944  0.023907792  0.014382287   0.03592145 
  444000    324.44682    2949.2185     3048.625    35.948559 0.0029201784 -0.0055962817 -0.024949549 
  445000    323.49699    8879.4211     3048.625     32.85657 -0.022871661 0.00021134722 0.0015335023 
  446000    326.10026    5547.0378     3048.625    27.585658 -0.046549008 -0.031348655 -0.012718273 
  447000    342.60806    9556.3207     3048.625    21.626221 0.0020893812  0.033651137 -0.012163608 
  448000     348.7527    7880.6937     3048.625    20.128974  0.021868505  0.025317622 0.0073809671 
  449000    354.77792    7821.7667     3048.625    25.544614 -0.019600433 0.0099327823 -0.023907455 
  450000    334.25561   -1138.7045     3048.625    32.052744 0.0078589005 -0.0021470609 -0.033949108 
  451000    327.20893    2636.4283     3048.625    33.691583  0.040051444  0.020820114 0.00069517009 
  452000    312.22718    11402.965     3048.625    31.604478  0.014205502  0.010884086 -0.0055892092 
  453000    334.60856    15302.812     3048.625    30.964698    0.0299836 -0.004964987  0.017472984 
  454000    307.90373    655.12376     3048.625     29.86335 0.0050731291 0.0062121764  -0.01722248 
  455000    330.82864   -4620.4486     3048.625    29.272615 -0.018939489  0.042172883  0.065888825 
  456000    334.45665    8337.7913     3048.625    29.397063 -0.0022473753  0.017147907 0.0076934072 
  457000    320.23697    10092.662     3048.625    30.018194 -0.022761074 0.0022197569  0.019055654 
  458000    324.24913   -1458.4254     3048.625    29.218479 0.0056550804 -0.010811263 0.0043308619 
  459000    321.45101    8734.8577     3048.625    25.989492  0.026509634   0.01737935 -0.019617926 
  460000    323.99778    14151.709     3048.625    23.016875 -0.011227012  0.055194472 -0.014816057 
  461000    327.62493    546.49159     3048.625    26.254504 -0.020321733 0.0075228968 -0.012618932 
  462000    310.49301    4436.2635     3048.625     33.80802 -0.027264767 -0.011735785 0.00078853922 
  463000     313.0718    11635.626     3048.625    35.491335  0.004040247 -0.029264213 -0.0061410775 
  464000    323.96593    9098.2189     3048.625    30.438501 -0.047337166 -0.0058598513 -0.009684559 
  465000    326.22291    2589.3236     3048.625    24.180071 -0.025300057 -0.0044045963 -0.028695649 
  466000    326.08051    7068.7711     3048.625    21.333377 -0.00047458443  0.011476221 -0.030922054 
  467000    319.18638    14187.298     3048.625    25.118651 -0.031117241 -0.049379363  0.006068531 
  468000    305.77406    3754.1782     3048.625    29.850235 -0.031787387 -0.00097141979 0.0041752873 
  469000    321.89331    10270.586     3048.625    30.434738 -0.010911851 -0.015240393 0.0060463449 
  470000    327.32224    11290.124     3048.625    25.175141   0.02469987  0.010104823  0.027327931 
  471000    340.49026    1184.6855     3048.625    19.368165 0.0049849191 -0.013639205 -0.00065538332 
  472000    322.54657    10611.064     3048.625    20.683484  0.018364047 -0.0071258288 -0.019269018 
  473000    305.52165    6629.8255     3048.625    26.688749  0.024032755 0.0075274556 0.0057669777 
  474000    302.47888    7619.7253     3048.625    31.362964  0.015998275  0.018431302  0.026099599 
  475000    309.07129    9946.9872     3048.625    28.231135 -0.044024645  0.023416029  0.015263402 
  476000    315.25151    9223.8619     3048.625    20.042348  0.031355029 -0.015550183  0.014994724 
  477000    338.18897   -85.785893     3048.625    17.052165  0.048895498 -0.016562321  0.061022246 
  478000    317.35535    10402.873     3048.625    18.824267 -0.010216013 -0.0034691225  0.021332541 
  479000    327.94635    9768.3784     3048.625    23.193091 -0.0051050486  0.030399038  0.029758245 
  480000    321.57171    8510.1133     3048.625    27.410196 -0.0070573351  0.039259807 -0.0034467683 
  481000    305.94952    9589.4752     3048.625    28.336829 0.0038854723 -0.019496476 -0.012545244 
  482000    314.40776     9032.947     3048.625     26.39171 0.0067811798 0.0096794059 -0.010864943 
  483000    318.22446    11630.024     3048.625    23.916205  0.014213548 -0.0057830387 0.0051057097 
  484000    316.25141    6266.5008     3048.625    22.133221 -0.013254733 -0.00065454423  0.038731981 
  485000    327.00747    4888.9549     3048.625    21.904118  0.017884381  0.011915606  0.033557289 
  486000     313.5316    10699.356     3048.625    25.210244  0.040559488  0.029686044   0.02778392 
  487000    348.21273    2952.8171     3048.625    25.329163 0.0063366787  0.012065462  -0.00216363 
  488000      331.944    6538.6329     3048.625    21.859602 -0.0092370855 -0.0094017987  -0.01722128 
  489000    315.28768    7199.1134     3048.625    19.428168 -0.033663694 0.0042537846 -0.0069598131 
  490000    339.42879    433.03738     3048.625    17.398196  0.025086779 -0.0011482029 -0.0077386092 
  491000    312.97573    10815.183     3048.625    20.698509  0.022215024  0.021000835  -0.01294662 
  492000    332.35939   -1377.3224     3048.625    27.482889  0.057470977  0.020600625   0.01554699 
  493000    323.32107     12368.44     3048.625     31.85517  0.034326534 -0.0059466367 -0.010024597 
  494000    290.32851    12117.599     3048.625    32.198187  0.015579239 0.0026363018   0.02751952 
  495000    300.49482    6677.9518     3048.625    30.054476 0.00061315285 -0.020863187 -0.015283853 
  496000    296.73386    7072.6339     3048.625    29.245456  0.022291396  0.015703464 -0.022332119 
  497000    299.72968    13578.635     3048.625     30.08051 -0.022847066 0.0073072039 -0.050054875 
  498000    296.50031    1150.1407     3048.625    29.197155 -0.0011849546 -0.003798039 -0.0064713538 
  499000    340.01199     9048.869     3048.625    24.692393 -0.010665778 -0.020909393 0.0054126888 
  500000    348.70625    1156.1081     3048.625    20.890371 -0.033378672  0.037262093  0.016130778 
  501000     321.9914     9655.033     3048.625    19.901144 -0.00098330079 -0.023360868 -0.025626983 
  502000    313.55782    14696.178     3048.625    22.143522 -0.0096616414 -0.034503889 -0.0022385577 
  503000    325.14464    7478.4677     3048.625     24.43035 -0.0059855649  -0.02516978  0.022480992 
  504000    325.29901    2777.1477     3048.625    21.555436 -0.0059463689  0.014565248 0.0046888131 
  505000    329.25388    9444.5794     3048.625     19.53646 -0.036405352  0.008552672  0.018319211 
  506000    315.82534   -1104.2728     3048.625    21.266212 -0.042706446  0.013216957 -0.023671427 
  507000    307.21658    15224.784     3048.625    23.134369 -0.0056209945  0.047686684  -0.01097764 
  508000    339.84647     882.6415     3048.625    22.915231 -0.028349451 0.0082882937 -0.028723308 
  509000    298.29806    13311.841     3048.625    24.272877 0.0059572478 -0.010625227  0.027742999 
  510000    318.54709    15752.013     3048.625    25.410805  0.012094078  0.019153504  0.038107091 
  511000    331.49598    1565.7984     3048.625    28.737316  0.037975417 -0.0019026256 0.00071476973 
  512000    316.53093    683.62119     3048.625    31.896122 0.00019714688 -0.00056814795  0.010991613 
  513000    323.40244    9594.0997     3048.625    34.706295 -0.0097833177 0.0059417714 -0.025998404 
  514000    319.94638    13234.673     3048.625       34.954   -0.0270781 0.0063630385 0.0016758021 
  515000    304.18349    4810.7135     3048.625    32.921739 0.0093224468  -0.00957772 -0.023920502 
  516000    342.94638    5916.3424     3048.625    29.252475   0.02148278  0.013131403 0.0098731235 
  517000    329.83706    13850.387     3048.625     26.72386 0.0046571933  0.025583464 -0.003997278 
  518000    331.50251   -4019.1735     3048.625    25.150569 -0.0010504532 -0.029756545  0.019047636 
  519000    323.23381    11588.449     3048.625    26.690945 -0.019103671  0.017021564 -0.020914923 
  520000    334.92669    2949.2871     3048.625    29.604551 -0.015158145  -0.01257788 -0.0064307552 
  521000    330.10716    3313.6523     3048.625    32.854873 -0.028254107   0.02768351 -0.012496542 
  522000    315.19228    12280.551     3048.625    31.741549   0.01272641  0.017942304  0.025272361 
  523000    315.63743    10988.766     3048.625    27.795459  0.054414149 -0.0019763445  0.018814592 
  524000    341.71364    10614.391     3048.625    24.796086 -0.025164643 -0.033854113 0.0028082849 
  525000    318.94966    2574.4974     3048.625    25.163805 0.0072974917 -0.034901848 -0.021770517 
  526000    335.30932     8010.277     3048.625    27.983225   -0.0114455 -0.0071230251 -0.029657701 
  527000    314.41535     15084.23     3048.625     31.64762 -0.020407811    0.0208683 -0.018544602 
  528000    329.69163    5208.1558     3048.625    31.599288  0.012047429 -0.059822853 0.0094786078 
  529000    319.73698    4868.7975     3048.625     25.95082 0.0056009959  0.033748885 0.0013094285 
  530000    315.57364     11263.47     3048.625    22.105396 0.0031929961  0.012202659  0.011830964 
  531000    307.02844     11965.97     3048.625    21.336958 0.0062159888 -0.0098189589 -0.045396583 
  532000    318.05382    2300.4816     3048.625    22.508934  0.011977057 0.0010992612 0.0045769285 
  533000    345.38949    5388.0663     3048.625    23.103628 0.0071782373 -0.021127719 -0.016062502 
  534000    333.01955    9783.3763     3048.625     22.69198 -0.020253945 0.0013005682 -0.027307615 
  535000    326.51929    7973.1436     3048.625    24.206452 -0.028889163  0.051351215 -0.0052194712 
  536000    338.91332     7810.801     3048.625    24.072367 -0.0021270803  0.010917965 -0.025197564 
  537000     339.5237    10546.367     3048.625    22.260727  0.021795139  0.055234449 0.0034736712 
  538000    317.72603   -7556.6702     3048.625    23.746282  0.022493593 -0.018530276  0.027522978 
  539000    340.77155    3779.4653     3048.625    29.612723 -0.0075505155 -0.013603752  0.033635494 
  540000    308.03661    7460.7382     3048.625    34.175981 -0.016663218   0.02504314  0.039123392 
  541000    312.10907    8458.2341     3048.625    34.563944 0.0087208385 -0.0058546784 -0.0082528916 
  542000    341.81489    4026.9458     3048.625    31.355938  0.022794958 0.0043155892  0.044900077 
  543000    326.71833    1973.3828     3048.625    25.281489 0.0032704527  -0.01733857  0.046277517 
  544000    344.93132    12472.801     3048.625     20.90183  0.028514474   0.01684117  0.038718677 
  545000    323.09871    5735.7191     3048.625    20.155585  0.030566388  0.011683539 0.0093872505 
  546000     328.8944      4939.57     3048.625    24.197147  0.020394322 -0.0028940782 -0.017079647 
  547000    336.47906   -444.20533     3048.625    28.910266 -0.029175991 -0.012120164  0.025340334 
  548000    330.23953    10183.475     3048.625    27.207851 -0.022561256 0.0021722385 -0.013651702 
  549000    332.06025    4350.5646     3048.625    23.733132 -0.042895445 -0.011901473 0.0054099855 
  550000     307.2053    4781.6568     3048.625    22.467159 -0.0047382543 0.0046262884 -0.017670334 
  551000    315.48935    5774.5395     3048.625    22.139315 -0.014511307  0.024968164 0.0022440738 
  552000    324.88472    7206.7149     3048.625    21.983784 0.00054704279 -0.024499107 -0.032784255 
  553000    343.25291    6489.0876     3048.625    21.926802 -0.026545807  0.046717156 0.0091127005 
  554000    333.19708   -717.48621     3048.625    22.883178 0.0040404895 -0.0037981975 -0.00040309824 
  555000    310.74158    7663.1575     3048.625    26.288398  -0.02813923 -0.019060561 0.0050592985 
  556000    331.14524    6549.8473     3048.625    31.692749 -0.022071946 -0.0045804206 -0.0016364625 
  557000    319.78275    9444.2134     3048.625    35.323152 -0.023300542 0.0044869743  0.023363514 
  558000    313.92869    7414.4924     3048.625    32.532948 -0.003627527     0.032108  0.012009351 
  559000    329.85021    9673.0248     3048.625    26.840157 -0.025720143  0.042858352 -0.024615653 
  560000     312.8106    9365.6579     3048.625     23.16503 -0.008109852  0.019995372  -0.01562431 
  561000    341.59927    8698.9819     3048.625    24.926232 0.0040019065  0.017412183 -0.035337706 
  562000    302.92083    6188.7444     3048.625    27.935941 3.4510513e-05 -0.0058263008  -0.01292346 
  563000    317.30756    5917.3187     3048.625    30.319683 -0.0012633544 -0.007291882 -0.0032572258 
  564000    334.06829    6709.4257     3048.625    30.467281   0.01322886 -0.011270531 0.0097046884 
  565000    316.94592    11068.514     3048.625    28.909728 -0.035007369 -0.013577872 -0.014735508 
  566000    309.44197    2485.6674     3048.625    30.850127 -0.0085292552 -0.013151725  0.014352902 
  567000    326.87713    3619.9508     3048.625    35.032486  0.032019541 -0.0010805163  0.029729993 
  568000    309.71168    22714.124     3048.625    36.323292 0.0085757077  -0.03175028 -0.0067983802 
  569000    331.53974    6632.6751     3048.625    33.506902  0.017099109 -0.017065265 0.0023604629 
  570000    326.54062   -5005.0027     3048.625    29.927006 0.0070099464 -0.027561156 -0.0045758693 
  571000    341.96384    10086.182     3048.625    27.295578 -0.0074724959 -0.019840466 -0.051987486 
  572000    318.21828    14688.695     3048.625    24.105023 -0.029588328  0.023308037  0.015259238 
  573000    338.68528    994.69616     3048.625    21.964358 -0.020100909 -0.053495167 -0.012417996 
  574000    334.40038   -982.96283     3048.625    20.819637 -0.029458661 -0.036121636 0.00046947981 
  575000    373.94622     11694.07     3048.625    21.105569  -0.01330417  0.022323592  0.027237184 
  576000    328.52949    13842.418     3048.625    22.950822 -0.026600958 -0.042453976 -0.030292522 
  577000    318.97724    3836.5432     3048.625    25.369028 -0.038192583 -0.011035522  0.041081421 
  578000    307.35043    6897.6114     3048.625     27.72561 -0.048647998   0.01210771 0.0010904087 
  579000    321.98663    11379.454     3048.625    26.624457 0.0097982419  0.013919578  0.016378877 
  580000    332.93729    836.32654     3048.625    21.812441   0.04532397  0.046609932  0.026563775 
  581000     337.4373    1924.5436     3048.625    16.739324  0.023445158 -0.0092068813 -0.041743153 
  582000    346.07499    10125.279     3048.625    16.035646 -0.011428092  0.015552403  0.035846729 
  583000    309.50881    5100.0695     3048.625    19.157228  0.034701812   0.02430806 -0.035572215 
  584000    320.68214    8132.7069     3048.625    23.638869 -0.0097599936 0.0071565451 -0.015382289 
  585000    322.13268    5427.4912     3048.625    25.408219 -0.033982521 -0.0069358502 -0.032911493 
  586000    311.94061    4621.9365     3048.625    22.853147  0.017769161 0.0016970341  0.036189524 
  587000    332.36487    10646.904     3048.625     18.74312  -0.01073514 -0.022516314  0.038166123 
  588000    331.25112    4305.3165     3048.625     17.75046   -0.0101482 0.0026258832 -0.014472107 
  589000    341.06312    14738.527     3048.625    20.295886 -0.021905376 -0.041504236 -0.026807544 
  590000    320.22508    2357.2899     3048.625     25.07496 -0.032705444 -0.014105765 -0.020465182 
  591000    327.38631     6023.227     3048.625    27.693089  0.023103981 -0.026345093 -0.011614175 
  592000    322.77454    15168.688     3048.625    27.632133 -0.011604377 0.0079872976   0.02388394 
  593000    326.22686    3194.3975     3048.625    23.505677 -0.014966676 -0.034304934  0.026269047 
  594000    316.32332      10773.2     3048.625    16.190849 0.0058219704 -0.043333108  0.022815058 
  595000    335.94474    2460.0393     3048.625    13.201903 0.0087822003  0.045959806 -0.040765177 
  596000    316.56758    8247.4273     3048.625    17.892838 -0.017238565  0.018226205 -0.013597346 
  597000    322.92433    14857.324     3048.625    24.798395 0.0082908766 0.00015695185 -0.0023039317 
  598000    308.97762   -101.42019     3048.625    30.310166 -0.010027417 -0.039496796  0.012238153 
  599000       308.28    12756.882     3048.625    31.851072 -0.011522435 -0.0053582372 -0.049977882 
  600000    333.62504    2254.1678     3048.625    28.871413 -0.011051161   0.03054463 -0.010614009 
  601000    332.19888    5607.8159     3048.625    26.517021 0.0024010798 0.0051327433  -0.03464069 
  602000    326.84951    3148.0572     3048.625    26.264235 -0.018859599  0.028490794  0.023225374 
  603000    325.19692    1963.1605     3048.625    27.990899 -0.0053440283  -0.03310516 0.0090607859 
  604000    323.34732    6082.7136     3048.625    30.497269  0.044876372  0.023425296 -0.012715666 
  605000    337.73926    10706.603     3048.625    34.466542 -0.014569134 0.0060697296 0.0042280721 
  606000    336.68788   -2593.5855     3048.625    35.816891  0.016409324  0.041690183 -0.013315719 
  607000    341.59762    3854.3995     3048.625    32.773829 -0.0031644103 -0.010297833  -0.01030379 
  608000    335.42698    14124.406     3048.625    29.329032 0.0058687833  0.018917587  0.013681164 
  609000    319.49643    5446.1857     3048.625    30.093917  0.034146418 -3.9608371e-07 -0.0094790926 
  610000     327.9679    4523.3865     3048.625    32.961503  0.050373462 -0.0016375149 -0.034293413 
  611000    338.76217    10059.893     3048.625    35.091423   0.01192888 -0.020926708 -0.039592069 
  612000    330.45721    13861.705     3048.625    32.793091  0.010206476 -0.015380138   0.02374295 
  613000    339.37116   -4226.7338     3048.625    28.507082 -0.017646243 -0.016243311 -0.0097762775 
  614000    318.06587    3380.3075     3048.625    27.456182   0.04085956  0.013561962   -0.0185702 
  615000    318.59884    4433.1805     3048.625    30.610549  0.016384559 0.00081886121 -0.062746649 
  616000    335.44817    6730.3928     3048.625    33.628498 -0.013358446  -0.02417276 -0.015490234 
  617000    342.85718    5132.2311     3048.625    32.276707   0.05743532  0.011224265 -0.012153928 
  618000    305.59291   -3824.8756     3048.625    28.597034  0.055964197 -0.019883948 0.0069133446 
  619000    315.39094    9645.4292     3048.625    28.235173  0.029462417 -0.011800202  0.019369951 
  620000    320.06489    7618.7759     3048.625    29.549873 0.0067227666 -0.0043637103   0.01628579 
  621000    328.60796    4559.8945     3048.625    28.854874 -0.029743379 -0.017858313 0.0095841687 
  622000    328.41411    1710.8853     3048.625    27.833261 -0.0043919634  0.023980604  0.017490907 
  623000    335.04981    720.98949     3048.625    29.950219 0.0090286355  0.018787922 -0.0061881623 
  624000    326.27707    4469.1151     3048.625     31.62315  0.048307473  0.015192847 -0.0021454465 
  625000    336.65507     8435.429     3048.625    28.533554  0.017095174 -0.040797885  0.012351583 
  626000    337.87227    4189.4974     3048.625    25.546101 0.0012141298  0.034354222 -0.0090290205 
  627000    333.53542   -1589.2048     3048.625    26.516317 -0.026289912 -0.004175341  0.015259895 
  628000    340.35709    2824.7884     3048.625    30.017587 0.0043955183 -0.023677734  0.024735821 
  629000    331.33791    13338.521     3048.625    33.823533 -0.046012871 -0.014925019  0.029044972 
  630000    307.50719    3599.0707     3048.625    33.407045 -0.025728518 -0.0051824958 -0.029776961 
  631000    329.49371   -979.19286     3048.625     28.13837 -0.0057080304 0.0025041298  0.030593095 
  632000    316.00667    11067.944     3048.625    23.837665 -0.0038800755 -0.026936136 -0.046467009 
  633000    329.60761    4486.3853     3048.625    24.049365   0.02097868 -0.021415234 -0.013452438 
  634000    348.36749    97.183077     3048.625    27.392274 -0.0051803142 -0.0092899907  0.046071913 
  635000     336.0593   -3981.1207     3048.625    29.174376 -0.028065265  0.056472666 -0.0031472558 
  636000    334.21929    3958.9184     3048.625    29.223092 -0.013893534 -0.024402887  0.017923446 
  637000    322.90683    13540.432     3048.625     30.47145 -0.032990453 -0.0056427869 0.0033648626 
  638000    318.99951    1526.1175     3048.625    32.418433 -0.042943875 0.0014603305 0.0049095429 
  639000    330.31314    1338.2407     3048.625    31.768751 -0.014663283 0.0052372374  0.027104374 
  640000     323.9392    7543.4083     3048.625    29.519763 -0.022581257 -0.0089356329  0.034321395 
  641000    324.66779    873.64295     3048.625    29.402355 0.0028381458 -0.012394907  0.025479651 
  642000    320.62362    3710.2146     3048.625    32.115624 -0.042444351 0.0073468758 -0.0082501377 
  643000    328.69107     11178.58     3048.625    33.412525  0.017546911 -0.026508975 0.0032105614 
  644000    318.98304     5287.524     3048.625    27.970719  0.011530334  -0.02383974 -0.0094682033 
  645000    315.10308   -2424.2352     3048.625    25.424511  0.025805112 -0.0096275441  0.011009242 
  646000     318.4364    7878.0621     3048.625    27.912233  0.046794912 0.0024265079   0.01427003 
  647000    313.30777    12345.348     3048.625    32.654136 0.0087715183  0.020828332 -0.011741044 
  648000    314.66372    7823.9229     3048.625    31.003814 -0.0069430156 -0.0041369181  -0.04152981 
  649000     331.0343    3019.5016     3048.625    27.685837  0.025824691 0.0098682216  0.010415588 
  650000    327.04396    -1106.969     3048.625    27.022942  0.027573417 -0.011006405  0.013742703 
  651000    320.01226    15322.598     3048.625    26.694642 0.0016936795 -0.022746135 -0.037504577 
  652000    319.12614    5360.1924     3048.625    24.818767  0.039983149 -0.032130939  0.017223903 
  653000     327.2443    2348.9277     3048.625       21.958  0.023189277 -0.016978829 -0.012182461 
  654000    318.57247    3848.6077     3048.625    22.352335  0.011760939  0.029596241  0.030997944 
  655000    326.16935    7433.3814     3048.625     26.38382  0.030260002  0.011500933 -0.013860942 
  656000    312.10189    8798.1243     3048.625    32.816608 -0.003800561  0.023137856 -0.0040567276 
  657000    329.98641    -1305.155     3048.625    34.041163 -0.027011594 -0.033982257 -0.0083721706 
  658000    330.79461    6251.5509     3048.625    28.567425   0.02176273 -0.010250627  0.023994562 
  659000    315.11787    5382.2242     3048.625    22.016051  0.016751185 -0.011499857 0.0043420916 
  660000    319.34864    1088.3619     3048.625    20.483763  0.030795811  0.028137338  0.010497069 
  661000    329.48323     4702.455     3048.625     21.60096 -0.026451196 -0.017695326  0.012751157 
  662000    326.32482      7489.39     3048.625    22.641206  0.015107857 -0.0068319234 -0.012931342 
  663000    327.81216    3505.2451     3048.625    25.088341 -0.015188513  0.032862227 -0.0050029643 
  664000    332.81399    6359.4111     3048.625    27.952038 -0.027871578 -0.015059662 -0.0087354612 
  665000    309.60247    6315.0478     3048.625    31.226839  0.016958308   0.01120805  0.013539265 
  666000    316.29587    6297.9339     3048.625    31.795184   0.00530884 -0.021608143 -0.032317373 
  667000    311.29266    13822.073     3048.625     30.76714  0.003108617  0.031208921 -0.0021708082 
  668000    314.87227    6119.0141     3048.625    29.042369  -0.02430651 -0.046657699 -0.026292408 
  669000    329.05781   -4546.1321     3048.625    27.237451 0.00074029029  0.017305877 -0.0024486211 
  670000    315.80519    10712.189     3048.625    27.181286  0.022553554  -0.01644518 -0.025708445 
  671000    303.24926    6948.4251     3048.625    29.039462 -0.0060660059 0.0053154612  -0.02905129 
  672000    321.85036    11864.503     3048.625    30.682266  0.015390755 -0.034928366 0.0065783928 
  673000    334.15746    2180.7591     3048.625    31.670748  0.026221231  -0.02561419 -0.006695908 
  674000    304.60744    5162.5127     3048.625    31.121079  0.031859214 -0.012459201  0.014020763 
  675000    317.49781    438.63208     3048.625    29.437726 -0.013827831  0.041712154  0.088283327 
  676000    316.91667    121.28921     3048.625    29.340846  -0.01403193  0.013823859 -0.037570072 
  677000    333.46563    8737.2015     3048.625    29.983943 -0.029122477 -0.017109673  0.014488061 
  678000      328.744    6685.1084     3048.625    30.131159   0.01177945 -0.032956801  0.019291644 
  679000    314.56013    431.90915     3048.625    29.681084 -0.024298847 -0.011527205 0.0058868857 
  680000    308.85666    12586.753     3048.625    28.518851 0.0055177381 -0.005732164 -0.0022504107 
  681000    306.55721     17416.27     3048.625    27.237566 -0.041452497 -0.022300017 -0.018210452 
  682000     335.4343   -35.392255     3048.625    27.754903 0.0088402423 -0.0050711616    0.0245461 
  683000    316.65092    3684.8572     3048.625    28.233255  0.014268626 -0.047421154 -0.016187906 
  684000    318.53732    8266.2664     3048.625    27.973138 -0.0020446066 -0.027158214 0.0055254504 
  685000    317.80924    13437.535     3048.625    26.926461 -0.0096710971 -0.055013308 -0.0060949425 
  686000    346.01165    1645.0976     3048.625    27.545956 -0.035332125 -0.016950054   0.01232832 
  687000    323.53467    5248.2036     3048.625    30.215015  0.038454328 -0.021748389 -0.0031889833 
  688000    351.09036    5887.8186     3048.625    31.312899 -0.0080569008  0.003526439  0.012106036 
  689000    331.63567    248.48583     3048.625    28.188082  0.024801746 -0.012462532 0.0029946924 
  690000     319.2503    3014.5161     3048.625    25.748231  0.010513186 -0.0081008132 -0.012420917 
  691000    340.47906    1962.1592     3048.625    26.922281  0.038597256  0.038008946  0.010945681 
  692000    337.78534    5543.1154     3048.625    30.950273  0.018061187  0.013428205  0.021686135 
  693000    334.46854    2205.1565     3048.625    34.623089 -0.036365672 -0.0016125882 -0.0024603951 
  694000    326.33755    5751.6459     3048.625    35.015076 -0.027007855 -0.0009279183 -0.057660597 
  695000    344.16657    10999.501     3048.625    32.177302 -0.0092469561  0.015098513  0.012033505 
  696000    337.37576    9876.9534     3048.625    29.026685  -0.02636104  0.020400984 -0.026789149 
  697000    339.95577    -3494.872     3048.625    29.166712 -0.025102239 -0.020528839  0.013724178 
  698000    314.23252    3542.9719     3048.625    29.497526 -0.018253643 -0.020086955 0.0025178381 
  699000    331.40121    10098.253     3048.625    29.689984  0.022608124 -0.013423877 -0.0093236567 
  700000    341.92137    7178.6608     3048.625    30.028788 0.0053528783 -0.014209531 -0.022667824 
  701000    333.12131    282.64258     3048.625    30.878757 -0.003905464  0.014211008 0.0077668651 
  702000    315.55552    4687.5332     3048.625    31.336099 -0.014055083 -0.023105657 -0.010253197 
  703000    349.54754     6970.839     3048.625    30.738532  0.021810152 -0.049853059  0.019179369 
  704000    301.72283   -2100.4697     3048.625    32.090083 0.0075785494 -0.054309507 0.0024862644 
  705000    331.16383    5407.0695     3048.625    33.470203  0.021270511 -0.008592163 -0.0013135389 
  706000    331.02006    7792.5909     3048.625    32.867157  0.032163656   0.02382269  0.022566115 
  707000    345.07212    9815.1921     3048.625    28.793353 -0.017993422  0.031080036 0.0060629846 
  708000    334.72753    3506.6873     3048.625    25.281282 -0.0085286568 -0.027405671  0.017424657 
  709000    323.50659    3237.5295     3048.625    25.273336 -0.052847281 -0.0095600453  0.035263007 
  710000    331.98615      4603.61     3048.625    26.730085 -0.0092707731  0.032861653 -0.079042469 
  711000     328.3147    7158.0995     3048.625    26.939319 -0.00052554809 -0.015212852 -0.0087301984 
  712000    329.55416    12100.646     3048.625    23.340941 0.0022532339    0.0490469 -0.0076982159 
  713000    308.70542    2665.4436     3048.625    21.795857 -0.0018115837 0.0085521815  -0.05082657 
  714000    319.45068   -276.36943     3048.625    27.058528  0.020667867 0.0059396529  0.003082846 
  715000    320.30557    11594.311     3048.625    33.243038  0.027552116 0.0082801255 -0.036564699 
  716000    289.45681    6353.2072     3048.625    34.306158 -0.012319568 -0.00079677705  0.012023506 
  717000    322.52139   -1450.4389     3048.625    27.917609  0.022527211  0.050514195  0.056347347 
  718000    333.17464    3746.9389     3048.625    20.614892   0.02387215 0.0021985213 -0.018746631 
  719000    315.21235    11913.415     3048.625    18.470011 -0.0074848036  0.026146982  0.031785465 
  720000    322.87914    5277.8323     3048.625    20.085595    0.0102625  0.014749824  0.027750968 
  721000    304.92819    4127.9797     3048.625    19.093378 -0.0057181085  0.041217876  0.029335399 
  722000    314.80355    9002.6818     3048.625    14.238881  -0.01307743  0.010663193 -0.018065265 
  723000    313.23089    12674.238     3048.625    10.332601 0.0082702131  0.015135524 -0.035161636 
  724000    325.24711    4585.5614     3048.625    11.144361 -0.010933041 0.0084553883 -0.004696583 
  725000    328.68303   -1871.3643     3048.625    15.574676  0.016196648 -0.021732817  0.036273359 
  726000    327.78164    4445.3111     3048.625    20.418373 0.0011929691  0.038098931 -0.015783008 
  727000    302.28838     11546.18     3048.625    25.219374 -0.0035346829 0.0076609878  0.038869704 
  728000     316.5934     2233.873     3048.625    29.218658 -0.010972147 -0.043055211  0.019316869 
  729000    313.82188    293.54284     3048.625    30.009646 -0.027227967  -0.01805067 0.0053714294 
  730000    324.04329    10396.021     3048.625    28.598685 -0.039456909 0.0091180075  0.038605669 
  731000     309.8542    7592.8711     3048.625    25.287043 -0.051310081 -0.024035643 0.0052800193 
  732000    330.06045   -3312.1862     3048.625    23.419243 -0.015530516 -0.0031298792 -0.041649544 
  733000    318.86993    8265.1246     3048.625     22.57564 -0.0011476895 -0.034999487  0.032144669 
  734000    306.29658    4141.0005     3048.625    24.352278 -0.00081167827 -0.024232897 -0.029552689 
  735000    304.25979    2891.8357     3048.625      28.8355 -0.038509422  0.002479441  0.031898247 
  736000    296.74212    11204.446     3048.625    33.673323 -0.012371573 -0.016917778 0.0045353196 
  737000    332.12598    11062.091     3048.625    34.376013  0.011951038 -0.023656875  0.003450762 
  738000    329.49863     5270.744     3048.625    31.445949 0.0047477633 -0.013477158   0.01895503 
  739000    326.91404   -3341.4896     3048.625    26.236161 -0.0011149826  0.013758966 -0.020631571 
  740000    331.30467    7500.9015     3048.625    22.254445  0.012965249 -0.014862268 -0.0037984123 
  741000    335.74332    12283.224     3048.625    21.878091 0.0045483381 0.0088031292 0.0047841075 
  742000    317.79764    1252.5914     3048.625    22.929094  -0.02669563 -0.0049482325 0.0093774031 
  743000    334.28213   -2452.4262     3048.625     27.79023 -0.025203563  0.018400698 -0.019725098 
  744000    348.98079    11375.708     3048.625    33.318712 -0.031984478 -0.0097050175  0.033706498 
  745000     313.0176    9376.0788     3048.625    36.333767 -0.055898358  0.012717278 -0.021717252 
  746000    341.75078   -182.07004     3048.625    35.871849 -0.0073793282 -0.040115374 0.0049629133 
  747000    299.46169    9355.4388     3048.625    31.687344 -0.0074932461  0.018160544 -0.033746783 
  748000    314.05793    9328.5099     3048.625    26.626148 -0.0022369248 -0.049720606 -0.011001384 
  749000     303.6066     6257.995     3048.625    25.139014 -0.0042355919 -0.054406372 -0.021584539 
  750000    308.37646   -3120.2017     3048.625    25.631879 -0.0072913232 -0.027241913  -0.01602268 
  751000     326.8668    5005.6457     3048.625     27.91183 -0.016299294 -0.019629708 -0.028942614 
  752000    318.19917    15204.004     3048.625    29.148431 -0.057862019  -0.03154056  0.021334944 
  753000    327.26486    1912.9753     3048.625    28.817414 -0.017364071  0.028168643 -6.0204816e-05 
  754000    331.65657   -2957.7641     3048.625    27.865573 -0.027114325  0.022064924 -0.010089429 
  755000    327.00804    6424.8974     3048.625    28.421199 -0.0069725364 -0.0012671198  0.035327883 
  756000    309.28085    16658.711     3048.625    30.939126 -0.054342463 -0.041294862  0.020310818 
  757000      340.039    10551.213     3048.625    32.792188  0.054015721 0.0069506872 0.0077765325 
  758000    326.27658    -3235.526     3048.625    34.344656 -0.0059816496 0.0095994321   0.02351653 
  759000    320.37187    6139.1973     3048.625    33.354959 -0.043983569  0.016158241 -0.018814507 
  760000    339.96765    9858.1377     3048.625    31.401962 -0.029546383  0.009187902 0.00093971818 
  761000    342.63187    525.39811     3048.625     29.67566 -0.011034518  0.030232282  0.029662002 
  762000    314.25489    3065.8554     3048.625    29.972128  0.016309871 -0.0065943744 0.0084292063 
  763000     326.7292    6013.9351     3048.625    30.550689  0.013362462   0.06281259  0.020229414 
  764000     316.3258    6945.5208     3048.625    32.455417 -0.0021097477 -0.0030607585 -0.035667395 
  765000    314.19319    1450.2903     3048.625    32.265515 -0.015375692 -0.019223854 -0.018732415 
  766000    307.96184    5523.2216     3048.625    29.968974 0.0028623255 -0.0082341054 -0.014952775 
  767000    313.95457    3576.7072     3048.625    27.863061 -0.032827302  0.055340955 -0.027154185 
  768000    308.53175   -131.93899     3048.625    27.655411 0.00010883859  0.016706325 0.0057259648 
  769000    302.21145    9427.6303     3048.625    27.451257 0.0051671753 0.0074987344 -0.010645371 
  770000    330.28874    7016.2858     3048.625    27.610576 0.0038680423  0.010730548 -0.0035401787 
  771000    310.63332   -1861.9861     3048.625    27.719032 -0.0037297193   0.01974637 -0.032540998 
  772000    303.49088   -885.12674     3048.625    26.644352 -0.0023652918  0.010330012 -0.026769132 
  773000    322.79744    11431.168     3048.625    25.124535  0.015078842   0.01413993  0.011556717 
  774000      331.376    12766.688     3048.625    24.676565  0.011401888 0.00013783464  0.012600009 
  775000    333.66815     3021.187     3048.625    24.595456 -0.016357263 -0.0039571481  0.021296731 
  776000    311.55008    5856.4175     3048.625    23.623907  0.011754197 -0.035793532 -0.0072669464 
  777000    310.38633    13724.748     3048.625    21.580828 -0.010156988 -0.044970364  0.010705789 
  778000     337.1031    11669.184     3048.625    19.167221 0.0048031677 -0.015200067  0.041919271 
  779000    307.16321   -45.802472     3048.625    16.298418  0.035535609  0.028405381 0.0029851457 
  780000    322.19442    6388.4511     3048.625    16.280538 0.0070400633 -0.0043662674  0.024063745 
  781000     300.0513    9965.7053     3048.625    19.006353 0.0075842332  0.024775326 0.0091808102 
  782000    305.08197     4483.257     3048.625    22.098406  -0.01707712 -0.0053019499 -0.019302226 
  783000    321.08953    2509.0647     3048.625    23.483111  0.041234986 -0.0036154732 -0.0048500162 
  784000    289.76117    14527.924     3048.625    26.197128  -0.05284459 0.0040364988  0.010955023 
  785000    301.87151    5864.1098     3048.625    29.733815 -0.028458746  0.036142609 -0.020931507 
  786000    299.29863    2793.3854     3048.625    33.483895 -0.040533993 0.0013501956 -0.042133248 
  787000    327.36824    3967.4319     3048.625    34.398855 0.0089765241  0.022073093 -0.017844866 
  788000    327.77672    12518.546     3048.625    31.663711 -0.044710416 0.0059207025 -0.0049996266 
  789000    309.08223    2612.2013     3048.625    30.460769  -0.03484672  0.014453282 0.0011483977 
  790000    318.63145    2190.1926     3048.625    28.807176 -0.043165976  0.016709703  0.026977122 
  791000    325.10633    9469.5087     3048.625    27.027742  0.044854356 -0.033121721  0.024482399 
  792000    326.97915    4023.3613     3048.625    26.508492 -0.038962576 -0.018637535 -0.013901187 
  793000    310.05279   -2185.3085     3048.625    27.674234  0.033750409 0.0020550612 -0.027164489 
  794000    326.88267    7060.4902     3048.625    29.286148 0.00085473769 0.0080443313 0.0032746062 
  795000    312.16533    13436.409     3048.625    31.418901 0.0074841846 -0.015821044 -0.0089815921 
  796000    301.11171     114.5605     3048.625    31.880925  0.016487477  0.019329108 -0.011465153 
  797000    328.96119   -1035.5139     3048.625    30.193787 -1.7621353e-05  0.034854595  0.036589874 
  798000    315.29193    8229.5113     3048.625     26.51745 0.0041921478   0.01232388 -0.0082313934 
  799000    302.99965   -443.78213     3048.625    24.742714  0.012095403  0.078215581 -0.042648867 
  800000    308.02024    13738.604     3048.625    25.176032  0.020862009  0.010063695  -0.05097155 
  801000    298.83511    10613.413     3048.625    26.227776 0.0010385135  0.017027728 0.0022752873 
  802000     310.7434   -3367.0018     3048.625    28.417319 -0.017528737  0.025105308  0.012333007 
  803000    335.74763     496.9525     3048.625    30.928423 -0.0061307202  0.018624935 -0.037377103 
  804000    309.76654    5107.3787     3048.625    32.766712  0.020752115  0.048396422 -0.027020269 
  805000    341.02119    1881.0173     3048.625    32.978396 -0.023727699 -0.015540632 -0.00030506431 
  806000    333.67117     9775.324     3048.625    30.638954 0.0048839697  0.041935377 0.0021004692 
  807000    313.38798    2769.5728     3048.625    26.933919 0.0031424178  0.052223908 0.00032499771 
  808000    338.31639   -1266.1961     3048.625    26.187822  0.051869127  0.022886256 -3.7704653e-05 
  809000    320.66527     12391.58     3048.625    26.822468 0.00081841071  0.074001891 -0.0026031321 
  810000    316.23885    11189.496     3048.625    27.788107 -0.018895644  -0.02016152 -0.0058309719 
  811000    329.85228    2160.7863     3048.625    28.824373 -0.00043539865 -0.0030131011 0.0021230899 
  812000    326.29137    8084.0134     3048.625    29.209057  0.017233763 0.0056430588  0.029317631 
  813000    329.57711    3431.2405     3048.625    29.436899 -0.012157409 -0.037525059 -0.014652493 
  814000    326.06409    2681.0057     3048.625    28.006622 -0.023647644 -0.010579028  0.017756237 
  815000    306.53044    4858.6109     3048.625    25.633656 -0.016428147 -0.046015766 -0.016625593 
  816000    310.67372    8530.3355     3048.625     24.88447  0.047867264 -0.0062450738 -0.0087077148 
  817000    314.09058    3881.0881     3048.625    24.990257   0.01633701  0.013926461 -0.015099925 
  818000    320.80289    9780.4667     3048.625     25.23374 -0.010848958  0.014142882 -0.015520549 
  819000     320.7207    4798.8744     3048.625    27.616285  0.015701258 -0.0086992874  0.037067398 
  820000    323.65978    3682.1834     3048.625    28.035197  0.015368026 0.0026022257   0.01176545 
  821000    304.83761    7020.6385     3048.625    27.927284 -0.018718279 -0.035440864 -0.044132212 
  822000    311.25694    8153.3284     3048.625    28.921115 -0.034320106 -0.026668503 -0.020108651 
  823000    311.55891    6448.1477     3048.625    30.562272 -0.0007280172 -0.011264867 -0.014964748 
  824000     325.4351    1345.2261     3048.625    29.953932 5.3118758e-05  0.021622851 -0.017409982 
  825000    329.53033    5439.3739     3048.625    28.895747 0.0093871579 -0.020048124 -0.011634545 
  826000    339.46812    13067.619     3048.625    28.125373 -0.0034207911 -0.0069974539  0.032823773 
  827000    329.78064    5326.8442     3048.625    26.678189 -0.026584781 0.0055553844 -0.0017183673 
  828000    322.74125     -4714.01     3048.625    25.217667  -0.01142583  0.021583807 -0.021236637 
  829000    340.72056    8303.0571     3048.625    23.208286   0.03240975  0.008312604 0.0012252185 
  830000     320.2645    9360.8064     3048.625    22.130907  0.018100696 -0.046689961  0.027334922 
  831000    326.14985    2817.7439     3048.625    21.665441  0.016217889 -0.0031204455  0.028142426 
  832000    335.33332   -2533.8901     3048.625     21.61428 -0.025456499 -0.0060175234  0.026552289 
  833000    319.73832    8363.7207     3048.625    23.066985  0.033046934 -0.037623267  0.025511219 
  834000    332.21434    11694.186     3048.625    24.786369 -0.035077682  0.018289276   0.03678553 
  835000    320.61996    2749.3425     3048.625    27.893189 0.0013941544 -0.010693627  0.036057272 
  836000    318.74971   -3.5140831     3048.625    31.613542 -0.038995429 -0.073451989 -0.0057476194 
  837000    293.54233    6899.6004     3048.625    33.879983 -0.033781852  0.070996087  0.013317312 
  838000     310.0866    9583.4095     3048.625    32.065227  0.034210779 -0.0066655808 -0.006975572 
  839000    307.98882    3215.8257     3048.625    26.039147 0.0062661094  0.027470921 -0.024195131 
  840000    332.38888    2012.4701     3048.625    21.781996  0.010390582 0.0053410246 0.0093576369 
  841000    323.46373    5940.1934     3048.625    22.175633 -0.046140864 -0.025953451  0.010290541 
  842000    325.30519      16578.6     3048.625    25.179267 -0.014112745  -0.01754094 -0.0053130642 
  843000    328.01335    8408.1641     3048.625    28.387926 -0.012605512 -0.0069458514  0.016696534 
  844000    314.81243    1969.5937     3048.625     29.76504 -0.021923288 -0.0021688911 0.0077514895 
  845000    310.35113    1869.4012     3048.625     28.35845 -0.056883896  0.014302964 0.0089916168 
  846000    328.85662    4106.0779     3048.625    26.473284 -0.032648495 -0.022633629  0.012077379 
  847000     335.3516     7536.494     3048.625     23.80725 -0.00060176868 -0.020996757  0.011539017 
  848000      318.304    10715.946     3048.625     21.79029 -0.020669196 -0.063584895 -0.018711074 
  849000    310.62205   -2165.2648     3048.625    23.354621   -0.0542975  0.012344301  0.021155766 
  850000    312.29117    7158.6749     3048.625    27.637159 -0.027661354  0.042180985  0.022526177 
  851000    306.62043    7711.5812     3048.625    31.955473 -0.0023372069  0.025250037  0.020082094 
  852000    310.93841    2681.8946     3048.625    32.064538 -0.0018279125 -0.023159112 -0.0017098783 
  853000    323.05126    8174.0826     3048.625      28.3025 -0.007732137  0.019015256 -0.0034156802 
  854000    317.12793    9175.9153     3048.625    22.897245 0.0094643127 -0.0042715743 -0.025561307 
  855000    331.90937    6382.3709     3048.625    18.710298 0.0063043744   0.05122873 -0.012261467 
  856000     321.9845   -3332.8623     3048.625    17.809253 -0.046223175  0.040592544 -0.0023955046 
  857000    298.41189    4946.6817     3048.625    19.032283 -0.021279822  0.030292256 -0.069090097 
  858000    313.98826    6820.9827     3048.625    21.958957  0.030356173 -0.00016190824  -0.01170566 
  859000    328.21047    6748.1656     3048.625    24.503708 -0.017853644 -0.0090585715  0.014877694 
  860000    313.00001    4152.9406     3048.625    26.120504 -0.015929497 -0.0094356244 -0.033012126 
  861000    329.13568    10109.647     3048.625    27.406535  0.040318946 -0.011367246  0.015331268 
  862000    315.28713    4126.4623     3048.625       28.742 0.0055738678 -0.0041170304   0.03066097 
  863000    313.78547    1446.4003     3048.625     29.25992  0.030610485  0.016995921  0.035672757 
  864000    327.36427    10804.449     3048.625    29.394471  0.034719545 -0.019277853 -0.010673411 
  865000     328.6379    9254.6439     3048.625    30.920313  0.040697549 -0.044579987  0.008375533 
  866000    311.15385    3242.1606     3048.625    32.269924  0.021318087 -0.037275227 -0.027341776 
  867000     309.6149    6715.2634     3048.625    33.255662 0.0097569937 0.0059756931 0.0018213917 
  868000    315.89935    5958.3304     3048.625    32.373101  0.027274818    0.0810063 -0.031469731 
  869000    318.97745   -1186.5361     3048.625    30.949882 -0.00044422297  0.044551452  0.020725547 
  870000    320.99593    2993.7189     3048.625    29.818077 -0.0049398195  0.019845649 -0.034945121 
  871000    323.02712    10133.073     3048.625    29.695992 -0.028519657  0.013365986  0.019384219 
  872000    337.79374    4194.1198     3048.625    31.281775  -0.01147724 -0.0044270659   0.03018569 
  873000     322.6319   -2813.6295     3048.625    32.769768  0.036131285 0.0084539963  0.028597851 
  874000    328.24702    2822.4429     3048.625    31.239315 0.00015945336 0.0097225254 -0.032688858 
  875000    311.94624    12106.671     3048.625    27.478877  -0.01072983 -0.025417891  0.027139716 
  876000    335.57591    5594.9051     3048.625    25.271867  0.037243753 -0.028597399 -0.0071882738 
  877000    325.30155   -2281.2575     3048.625    27.537271 -0.0099728232 -0.00014787448 0.0081911795 
  878000    307.99097    5653.2805     3048.625    29.966088 7.6759802e-05  0.049830561  0.057760404 
  879000    309.03769    12123.997     3048.625    31.296487 0.0021064039  0.009720339 -0.013318872 
  880000    304.71214    10385.798     3048.625     31.44304  0.033782749 -0.0097934061 -0.0018847164 
  881000    312.60975     2396.168     3048.625    30.730899 -0.0060588611 -0.010695168   0.01318453 
  882000    343.38998    -2089.108     3048.625    30.821435 -0.0025721221  0.023202719 0.0062820552 
  883000    327.62849    6547.2907     3048.625    30.682137 -0.060325172 -0.023226211 0.0090962458 
  884000    327.41009    5545.4313     3048.625    30.660385 -0.0018695955 -0.026967359 -0.032544237 
  885000    314.34578    10007.911     3048.625    28.990846 -0.023461734 -0.0038597252 -0.023457495 
  886000    302.13742    6242.3619     3048.625    26.873755 -0.00059226804  0.013914252   0.03873512 
  887000    323.56157    5318.4014     3048.625    26.932199 -0.0070193545 -0.0054883596 -0.013157714 
  888000    321.41158     2821.691     3048.625    26.871475  0.028241081  0.049801164   0.03245501 
  889000     328.1022    8679.6461     3048.625     24.54624 -0.0025346162   -0.0085393 -0.039337696 
  890000    331.00137    114.77381     3048.625    23.173647  0.040831607 0.00070643051 -0.015642457 
  891000    323.35574   -1756.9851     3048.625    22.226354  0.010512911  0.010070333 -0.0091397457 
  892000    329.10441    9129.1861     3048.625    21.070315  0.016357712 -0.0055979184  0.036589502 
  893000    334.01772    9611.3843     3048.625     20.12059  0.024003352 -0.010502928 0.0016068729 
  894000    308.52407   -470.67648     3048.625    19.786471 -0.014392748 -0.013263458 -0.0024332215 
  895000    339.57549    11269.565     3048.625    21.493012 -0.021546337 -0.011119658 -0.0081898258 
  896000    328.02571     704.9163     3048.625    23.532921 -0.025915609 -0.0029776161  0.021514109 
  897000    303.46428    1800.9811     3048.625    24.312799 0.0056987926 -0.0014215437 -0.0047672193 
  898000    310.85011    8968.1322     3048.625    23.903052 -0.021611477 -0.014741027  0.020937723 
  899000    304.68204    8219.7189     3048.625    25.300722 0.0040470605 -0.023325791  0.011925534 
  900000    328.41083    5351.2878     3048.625    27.237398 0.0057652046 -0.011707315 0.0092986378 
  901000    321.03325    5031.3619     3048.625     28.83543 -0.002986318 0.0018847822 -0.049977557 
  902000    305.81253    7449.8304     3048.625    27.575575 -0.00050001362 -0.0025454771   0.01538183 
  903000    315.02181    4058.0615     3048.625    26.384048  0.010166815 0.00019968797 -0.016648915 
  904000    325.78315    2551.9871     3048.625    27.688043  0.011573637 -0.0090727092  0.014654783 
  905000    338.46574   -2048.4971     3048.625    29.130685 -0.0071539667  0.024475366 -0.00050958555 
  906000    337.90836    6097.9976     3048.625    29.386454 -0.015110369 -0.0014407731 -0.00052256401 
  907000    338.15948    13768.459     3048.625    29.668317 -0.023656231 0.0097883431 -0.0012513016 
  908000    326.42926     4349.652     3048.625    28.721144  0.025174452 -0.0017099941 -0.036515082 
  909000    310.54295   -7512.2069     3048.625    26.402463 -0.010475425  0.040694995 -0.021541369 
  910000    319.27395    4736.9407     3048.625    24.592653  0.010092632 -0.034183686 -0.039004471 
  911000     310.3413    15978.102     3048.625     23.06021 -0.021794514   0.01596634 -0.0022334686 
  912000    300.13482    6753.6896     3048.625    21.888673 0.0089244723  0.012056477 0.0040058998 
  913000    315.37424   -6561.8514     3048.625    21.015138  0.021586761 0.0018138805 -0.024869518 
  914000    312.07843     10947.51     3048.625     20.64449  0.010687281 -0.025748819 -0.013430628 
  915000     306.3143    14811.722     3048.625    22.374609  0.033772309 0.0038816329  0.016029921 
  916000    326.09926   -6141.2615     3048.625    25.270243 0.0029435611 -0.0077310342 0.0054039828 
  917000    330.92813    345.50494     3048.625    26.532441 -0.042205283 -0.019788925 -0.011398736 
  918000    328.34392    18958.648     3048.625    28.044358  0.047565132 -0.062587426 -0.045365718 
  919000     347.7401    2566.4776     3048.625    31.007821  0.050236834 -0.031768941 0.0091590726 
  920000    330.26254   -1335.4099     3048.625     33.07141  0.026865729  0.034201863   0.03864274 
  921000    335.29312    10097.493     3048.625    30.992249 0.0046322221 0.0021935737 -0.042606933 
  922000    327.61423    1810.4973     3048.625    26.863192 -0.010737273 -0.00059216291 -0.015231297 
  923000    343.06738   -729.46881     3048.625    22.824893 -0.026407994 -0.028610166 0.0049505412 
  924000    312.80238    4853.9553     3048.625    22.233011  0.054739029 -0.011895547  0.034801643 
  925000    319.42392    9097.5699     3048.625    27.168851  0.031183868 -0.021906965 -0.0056288283 
  926000    334.28041    1620.8872     3048.625    33.396301 0.0098669285 -0.044546635  0.026535112 
  927000    335.14213   -680.85982     3048.625    34.573053 -0.017245224 -0.0064680797  0.010743321 
  928000    304.59052    8751.8421     3048.625    30.052803 -0.016811256 -0.0043177369  -0.03110582 
  929000    321.39964    13351.831     3048.625    28.269479  0.025053138 -0.0023581102 -0.021367894 
  930000    327.04243    5186.1522     3048.625    32.898641   0.02439694 -0.0009257508 -0.0040778735 
  931000     329.3708    1629.2148     3048.625    35.444972 0.0063593758  0.026486962  0.015427029 
  932000    325.08788     11011.04     3048.625    31.068049  0.023138731 -0.0089872921  0.012082173 
  933000    333.17681    1754.0116     3048.625    23.361702  -0.01706013  -0.02566344  0.045417547 
  934000     295.0886    9782.5031     3048.625    19.823792 0.0041242886 -0.0062096104 -0.0053933399 
  935000    324.21993    6543.0659     3048.625    23.217914 -0.016731931  0.033736772 -0.0096367129 
  936000    328.08063    7755.5996     3048.625    29.024012 0.0064013748  0.041171021 0.0073079111 
  937000    305.12511   -753.28833     3048.625    33.410612 0.0012222044 0.0055682635  0.022867906 
  938000    332.70537   -70.521796     3048.625    32.547011 -0.026813198   0.02513984 0.00024051923 
  939000    333.34476    6067.2284     3048.625    26.845518 -0.0087390639  0.013458796 -0.014490626 
  940000     328.5333    4001.6582     3048.625    23.202668 -0.031471008 -0.008351964 -0.020962499 
  941000    320.20035     4768.801     3048.625    21.791364  0.014716955 0.0055229892 -0.020739391 
  942000    317.56774    2074.9236     3048.625    22.591952  0.013252727  0.009725787 -0.062225283 
  943000    304.82673    3427.7368     3048.625    25.952559 0.0036801612 -0.019082132 0.0073896562 
  944000    313.26046        12573     3048.625    29.216994 0.00042302389 -0.043145188 -0.018000043 
  945000    329.68994    9253.9279     3048.625    28.874291 -0.0022511873  0.029343179 -0.012717672 
  946000     325.0152   -4842.1722     3048.625    24.277863  0.011533041 0.0048043732 -0.032091032 
  947000    319.75828    1193.9173     3048.625    18.408487  0.035980774  0.036907477 -0.029178788 
  948000    315.52865    5871.8398     3048.625    15.697968 -0.0074934969  0.017134395  0.051228661 
  949000    338.88624    5855.9823     3048.625    17.310717  0.021122949 -0.038957953 -0.027402469 
  950000    320.87804    9685.2899     3048.625    21.764481 -0.053445714 -0.0028495918  0.039464589 
  951000    316.48084    3788.7109     3048.625    26.123169 -0.024632515  0.041019301  0.010270593 
  952000    337.18364   -3104.7985     3048.625    29.080318 -0.024983185 0.0057444577  0.041705164 
  953000    333.00185    2754.6875     3048.625    29.381491  0.027694653 -0.011512168  0.019688601 
  954000    307.20685    11626.871     3048.625    29.951464 -0.047896922  0.019805463 -0.00051306196 
  955000     301.1691    5960.2054     3048.625    30.299486 -0.014277788 0.0044357793  0.032582339 
  956000    328.98194    803.76793     3048.625    27.939095  0.032154571 -0.00086435374  0.013405606 
  957000    314.05988     7792.216     3048.625    21.507313 0.00086783697 -0.043643934 -0.0070091048 
  958000    324.90173    9532.5769     3048.625     15.21922 -0.025628114  0.029454098 -0.012418591 
  959000    322.46197     6259.904     3048.625    12.720084  -0.01904304 -0.0026662763  0.013013168 
  960000    301.48127    6171.1142     3048.625     16.18853 -0.047081012  0.012013847 -0.024424576 
  961000    321.78246    4528.6651     3048.625    23.602812 -0.012127055  0.042229565 -0.013698284 
  962000    338.65492    4134.9125     3048.625    28.837363  0.018195039  0.023428752  0.027608333 
  963000    323.65929     13097.34     3048.625    29.200108  -0.01418064  0.036335876 -0.016219218 
  964000    336.75032    3311.4598     3048.625       23.877 -0.0015331327  0.023172446 -0.012607626 
  965000     306.6564   -3468.5227     3048.625    18.189309 -0.010184654 9.8681398e-05 -0.021942505 
  966000    329.11931   -130.43148     3048.625    18.959725 -0.027417873  0.032604268 0.0024148596 
  967000    323.79754    10103.199     3048.625    25.052467  0.016626437 -0.0015166377 -0.0078770666 
  968000    313.00631    13327.963     3048.625    29.213258 -0.0092451272 -0.019409389   0.03376165 
  969000     313.1384   -143.42648     3048.625    28.097166 -0.0080280389  0.037089283 0.0051272536 
  970000    339.53554   -3.6414288     3048.625    23.891114  0.029329762 -0.0099547367 -0.0040482057 
  971000    316.35195    13124.639     3048.625    19.644754  -0.01210544  0.021748028 -0.011875361 
  972000     314.2906    6654.7555     3048.625    18.413323 -0.0011525812 -0.0090214518 0.0045149155 
  973000     314.4715   -1632.8831     3048.625    20.544339  0.012820423 -0.017020947  0.025080279 
  974000    317.58593    457.65641     3048.625    24.647233 -0.0094225006  0.020968927 0.0033192363 
  975000    314.77702    10729.009     3048.625    25.809528  0.016347272 -0.010685621  0.032833192 
  976000    327.08858    7540.9589     3048.625    22.987722  0.015974062 0.0038971907 0.00010915161 
  977000    309.05755    5924.1633     3048.625    18.761642  0.025132508 -0.039805148 -0.018003931 
  978000    330.18035   -4270.7731     3048.625    17.331117 0.0031222213  0.018897191 0.0072662392 
  979000    314.60862    1543.2545     3048.625    21.783103   0.02760745  0.012634078 -0.024016596 
  980000    315.47514    3835.8652     3048.625    27.983145   0.01986695 -0.016632378  0.019101703 
  981000    315.51625    4521.3255     3048.625    29.893765 -0.033747043 0.0073398423 -0.017747919 
  982000    331.09872    9230.5927     3048.625    26.925475 0.0042624128  0.016021615  0.024543373 
  983000    318.03596    1930.3476     3048.625    22.789926 -0.020783372 -0.020051329 0.0060586021 
  984000    325.52844    7281.5759     3048.625      19.2309 -0.012140881  0.012109389 -0.0027519121 
  985000    307.85057    8447.1718     3048.625    16.805387 -0.006924777 -0.035299835  0.010381821 
  986000    303.09398    3863.3383     3048.625    18.190438 0.0020262493  0.011824214 0.00085024201 
  987000    331.10143    1126.0693     3048.625    22.948078  0.033299688 -0.046114571 0.0046880735 
  988000    328.95572    2626.8959     3048.625    26.763244  0.065218907 -0.00069424323 -0.011329766 
  989000    325.44453    11735.569     3048.625    28.753732 -0.039227634 -0.031025744 -0.014622167 
  990000      337.702    10761.719     3048.625    29.315576  0.021190407 -0.040177414  0.017582332 
  991000    311.18984   -9921.0147     3048.625    28.450192 -0.014077344 -0.023195739  -0.03002292 
  992000    319.42237   -6235.6074     3048.625    25.618222  0.021207677  0.013457039 -0.060294013 
  993000    318.02211    11110.747     3048.625    22.789483 -0.0082608917  0.009732928 -0.0023643109 
  994000    292.02022    8911.6654     3048.625    21.703943 -0.039413933 -0.017276233 -0.0061218906 
  995000    301.31868    427.70744     3048.625    24.171412  0.016310837 0.0072034382 -0.017244522 
  996000    320.93987    11810.214     3048.625    27.789443 -0.024512548 0.0060840532 0.0031842473 
  997000    324.71517    10895.649     3048.625     29.41756  0.018769779  0.010885848  0.030449781 
  998000    312.36977    181.60136     3048.625    30.760262  0.033785383 -0.022382277  -0.01650706 
  999000    323.29531    7689.2323     3048.625    29.589749  0.035559286 -0.012766143 -0.086867753 
 1000000    319.98587    2928.1842     3048.625    25.733818  0.040816745  0.030178894 -0.028077256 
Loop time of 10920.5 on 1 procs for 1000000 steps with 240 atoms

Pair  time (%) = 10777.9 (98.6945)
Bond  time (%) = 0.280699 (0.00257039)
Neigh time (%) = 45.905 (0.420355)
Comm  time (%) = 30.2072 (0.27661)
Outpt time (%) = 0.212388 (0.00194485)
Other time (%) = 65.9649 (0.604046)

Nlocal:    240 ave 240 max 240 min
Histogram: 1 0 0 0 0 0 0 0 0 0
Nghost:    5820 ave 5820 max 5820 min
Histogram: 1 0 0 0 0 0 0 0 0 0
Neighs:    87879 ave 87879 max 87879 min
Histogram: 1 0 0 0 0 0 0 0 0 0
FullNghs:  175758 ave 175758 max 175758 min
Histogram: 1 0 0 0 0 0 0 0 0 0

Total # of neighbors = 175758
Ave neighs/atom = 732.325
Ave special neighs/atom = 0
Neighbor list builds = 6482
Dangerous builds = 0
#	run			10000
	unfix			1
	uncompute		myKE
	uncompute		myPE
	uncompute		myStress
	uncompute		flux
	uncompute		myDis
	unfix			JJ

	next seed
	next iseed
jump lmp.in.gk loop_seed
variable iseed loop 10
variable seed index 11111 22222 33333 44444 55555 66666 77777 88888 99999 11110
clear
###########################################################################
#x0
###########################################################################
units 			metal
atom_style		full
read_data		fort.26.nonbonded
  0 = max bonds/atom
  0 = max angles/atom
  0 = max dihedrals/atom
  triclinic box = (0 0 0) to (14.5 14.5 14.5) with tilt (0 0 0)
  1 by 1 by 1 MPI processor grid
  240 atoms
  0 bonds
  0 angles
  0 dihedrals
  0 = max # of 1-2 neighbors
  0 = max # of 1-3 neighbors
  0 = max # of 1-4 neighbors
  1 = max # of special neighbors
group         		C type = 1
60 atoms in group C
###########################################################################
#OLPS
###########################################################################

################################################################################
#### Pair potentials
################################################################################
pair_style hybrid/overlay tersoff lj/cut 12.0
pair_coeff * * tersoff C.4.tersoff 1 2 3 4
pair_coeff 1 2 lj/cut 0.0007000000 3.5500000000
pair_coeff 1 3 lj/cut 0.0007000000 3.5500000000
pair_coeff 1 4 lj/cut 0.0007000000 3.5500000000
pair_coeff 2 3 lj/cut 0.0007000000 3.5500000000
pair_coeff 2 4 lj/cut 0.0007000000 3.5500000000
pair_coeff 3 4 lj/cut 0.0007000000 3.5500000000
special_bonds lj 0.0 0.0 0.0 coul 0.0 0.0 0.0

#pair_style tersoff
#pair_coeff * * C.4.tersoff 1 2 3 4

#pair_style lj/cut 12.0
#pair_coeff 1 1 0.0700000000 3.5500000000
#special_bonds lj 0.0 0.0 0.0 coul 0.0 0.0 0.0
###########################################################################

#--------------------------------------------------------------------------
#variables
#--------------------------------------------------------------------------
variable   	dt 		equal 0.001
#--------------------------------------------------------------------------
#kappa parameters
#--------------------------------------------------------------------------
variable    	p 		equal 100000 	# correlation length
variable    	s 		equal 10  	# sample interval
variable    	d 		equal $p*$s 	# dump interval
variable    	d 		equal 100000*$s 	
variable    	d 		equal 100000*10 	

#--------------------------------------------------------------------------
variable 	T_run 		equal 300
#--------------------------------------------------------------------------

log 	log_heat_${iseed}.lammps
log 	log_heat_10.lammps
