	reset_timestep  	0
	fix 			1 all nve
	compute   		myKE all ke/atom
	compute   		myPE all pe/atom
	compute   		myStress all stress/atom virial
	compute   		flux all heat/flux myKE myPE myStress
	variable  		Jx equal c_flux[1]/vol
	variable  		Jy equal c_flux[2]/vol
	variable  		Jz equal c_flux[3]/vol
	fix       		JJ all ave/correlate $s $p $d c_flux[1] c_flux[2] c_flux[3] type auto file J0Jt_${iseed}.dat ave running
	fix       		JJ all ave/correlate 10 $p $d c_flux[1] c_flux[2] c_flux[3] type auto file J0Jt_${iseed}.dat ave running
	fix       		JJ all ave/correlate 10 100000 $d c_flux[1] c_flux[2] c_flux[3] type auto file J0Jt_${iseed}.dat ave running
	fix       		JJ all ave/correlate 10 100000 1000000 c_flux[1] c_flux[2] c_flux[3] type auto file J0Jt_${iseed}.dat ave running
	fix       		JJ all ave/correlate 10 100000 1000000 c_flux[1] c_flux[2] c_flux[3] type auto file J0Jt_8.dat ave running
	compute 		myDis all msd
	thermo_style 		custom step temp press vol c_myDis[4] v_Jx v_Jy v_Jz
	thermo			1000
	timestep		${dt}
	timestep		0.0010000000000000000208
	run			1000000
Memory usage per processor = 7.90665 Mbytes
Step Temp Press Volume myDis[4] Jx Jy Jz 
       0    272.76112      14103.9     3048.625  3.68367e-31 -0.015738277  0.010503923  0.018967586 
    1000    299.78545    2897.0152     3048.625    13.423941 -0.011313524 0.0099057727   0.02478267 
    2000    284.45471    4811.2573     3048.625    28.560639 0.00031773719 -0.010503027  -0.01511354 
    3000     303.6151    10710.204     3048.625    22.943619 0.0068012396 0.0056635457  0.017924546 
    4000    294.95678    4119.1769     3048.625    12.750943  0.010866252 -0.0046825374 -0.013367992 
    5000    288.79984    8226.8355     3048.625    17.281387 -0.015796982  0.022239485  0.013411541 
    6000    283.48018    7117.2624     3048.625     30.69833  0.028181315  0.015406192 -0.015357155 
    7000     250.2862    14008.668     3048.625    34.158667  0.014823231 -0.022587566 -0.015683704 
    8000    264.58313    13057.294     3048.625     25.07984 -0.010723377 -0.017467712 0.0066058578 
    9000    240.61164    20171.683     3048.625    15.854158 0.0065059345  0.014443279  0.010216695 
   10000    276.53285    8397.8504     3048.625    16.396567  0.015591582  0.016166758 -0.0030164748 
   11000    271.28883    6890.4737     3048.625    23.262987 -0.025743954 -0.0063764622 -0.019761343 
   12000    263.85801    13301.804     3048.625    20.026828 -0.00048410325 -0.0067577051 -0.011987249 
   13000    270.12836    7725.7948     3048.625    19.751774 0.0033173272 -0.0014642849  0.025125995 
   14000     264.0182    16618.272     3048.625      29.1445  0.010365459  0.031324391 -0.019284678 
   15000     262.7123    11894.828     3048.625    34.348681 0.0071486851  0.014141056 -0.028094241 
   16000    284.79833    12273.949     3048.625    28.484042 0.00022305492 -0.019854647  0.012868069 
   17000     250.0821    8575.2381     3048.625    21.982389  0.016402458 -0.030376667 -0.019461817 
   18000    257.90894    14672.743     3048.625    26.824936  0.024536282 -0.012445575  0.021347163 
   19000    289.51395    3510.7044     3048.625    32.039004 0.0016410892  0.006334795  0.025528426 
   20000     267.9305    9919.8527     3048.625    27.906752 -0.014917096 -0.018265423  0.011630628 
   21000    293.68912    5849.3885     3048.625    15.347244 0.0042093796 -0.035697015 -0.020804977 
   22000    275.49984    11835.007     3048.625    15.732283 -0.0057399346 -0.011710976 0.0086676861 
   23000    282.10455    12119.833     3048.625    25.471826  0.018456502 -0.039698497 -0.011457672 
   24000    258.57174    16606.928     3048.625    27.385525 -0.0034074511 -0.0089186534 -0.0027261345 
   25000    260.34161    8089.0365     3048.625    27.888612   0.01276669 -0.0012298145  0.017003963 
   26000    293.59371    5154.7785     3048.625    29.502261 0.00071932502  0.027411594 -0.014009206 
   27000    261.70033     15214.51     3048.625    22.044718  0.010373442 -0.073505473 -0.015319499 
   28000     269.3403    13677.228     3048.625    23.245817 -0.0078450537 -0.043476714 0.0010618072 
   29000    293.42481    3918.0394     3048.625    32.976975 -0.011979238 -0.0067944828 -0.0025838388 
   30000     301.0727    1391.1047     3048.625    21.481448 0.0026331925 0.0066397491  0.010431514 
   31000    296.22555    6606.7723     3048.625    26.438894  0.028305712 0.0010840977  -0.02523675 
   32000    300.94615    3999.0844     3048.625    34.652081 0.0016849196 -0.0043942891 0.0043952982 
   33000    287.91594    4225.8911     3048.625    23.700167 -0.0036874069 -0.0061041015 0.0084851218 
   34000    285.23554    11064.167     3048.625    27.374603  0.031598794  0.002734509  0.014478704 
   35000    287.01771    5041.2324     3048.625    27.453248 -0.018247209 0.0089741943  0.011038425 
   36000    292.81454    7218.8464     3048.625    21.140726 -0.015607787  0.049161322  0.002461687 
   37000    276.63695    13696.262     3048.625    26.839953 -0.0069938284 -0.0021478786 -0.015752669 
   38000    279.21094    3555.9766     3048.625    27.052491 -0.034078455 -0.002840666 -0.012408014 
   39000    253.21392     17131.95     3048.625    23.954918 -0.011740787  0.019058764 0.0028429646 
   40000    272.96828    13928.113     3048.625    24.606864 -0.0029339729 0.0064040134 -0.017200787 
   41000    278.02077      3996.79     3048.625    20.934213  -0.01391688 -0.037872838 -0.0025772323 
   42000    290.11009    5641.3337     3048.625    18.142672 -0.030652489 0.0027606196 -0.017651259 
   43000    288.91294    8128.7312     3048.625    28.817073 0.0073955174 -0.010585624 -0.013365712 
   44000    295.45072    8643.6161     3048.625    30.390183  0.010676412 0.0069565547  -0.01932417 
   45000    257.10515    7324.8323     3048.625    24.477952 -0.013441827 -0.006359753 -0.028479693 
   46000     280.4434    10235.523     3048.625    26.403448 -0.0095883574 -0.0033295332 -0.023505071 
   47000    279.97198    4572.1148     3048.625    30.833118 0.0018060359  0.012847695 -0.019376575 
   48000    248.45563    12700.841     3048.625    26.150945 0.0025275563 0.0042984128 -0.056573941 
   49000    273.51735    8989.2742     3048.625    21.354851  0.013267018 0.0054438103 -0.028778146 
   50000    296.66256    2647.5712     3048.625    26.648595 -0.033175844 -0.0020785002 -0.0023950304 
   51000    282.51981     9053.189     3048.625    31.986604 -0.022608231  0.026199067 -0.0071645673 
   52000    235.99274     14506.56     3048.625    21.796795  0.011361592  0.029655889 -0.019999722 
   53000    279.26121    7240.0031     3048.625    22.995737 -0.020955063 -0.0019633748  0.015420381 
   54000    283.75832    12632.984     3048.625    33.166998  0.013849263    0.0112537 0.0058120587 
   55000    284.36378    6276.6708     3048.625    29.321721 0.0025282686  0.033475118 -0.031605417 
   56000    253.66392    12117.458     3048.625    23.317242 0.0058406307 0.0046773503 -0.018024971 
   57000     294.7812    6919.3933     3048.625    31.629411 -0.0097084063 0.0018531042 -0.00051001735 
   58000    281.94783    8111.2704     3048.625    33.977934 -0.0014233994  0.013506211 0.0049571318 
   59000    264.45136    7044.3105     3048.625    24.948357 -0.0085549506 -0.0027532517 -0.028933935 
   60000    289.89943    11919.823     3048.625    26.031841 -0.030771145 -0.028076577 -0.015349213 
   61000    291.21347   -1163.4777     3048.625    25.813637 0.0066380352  0.037127639  0.012421298 
   62000    278.35391    7887.0131     3048.625    17.457556  0.011479446  0.027082169 -0.015721774 
   63000    283.57296    11325.199     3048.625    22.850637 -0.013257883   0.03221611  -0.01982399 
   64000    261.86778     6472.545     3048.625    34.463863 -0.039071855 -0.046928277 -0.055508448 
   65000    291.32965    8524.2062     3048.625    31.815592 -0.022601848  0.040680525 -0.0033996499 
   66000    286.94391    8966.7348     3048.625    19.591561 -0.020726596 -0.0030914427  0.011913577 
   67000     289.3265      5024.16     3048.625     18.08352  0.022973593  0.016006279 -0.018056095 
   68000     284.2966    10170.408     3048.625    33.090879  0.047659661  0.024039716  0.013346788 
   69000    277.48434    3182.3179     3048.625    32.297091 -0.0095793554 -0.0073539778 0.0028520045 
   70000    278.11325     10093.03     3048.625    18.756785 -0.023924994   0.00683224 0.0064943789 
   71000    286.04437   -836.49631     3048.625    18.197828 -0.025620742 -0.00030697214 -0.017038575 
   72000    272.13405    13645.357     3048.625    29.312455  0.021076541 -0.024888661  0.011351466 
   73000    297.06122    3982.4917     3048.625    34.307505  0.032215622 -0.022494404 -0.018744674 
   74000    291.45365     6186.675     3048.625    26.109492 0.0051215927 -0.030491741 -0.00036198241 
   75000    253.63018    11024.796     3048.625    19.468542 -0.036653004 -0.00052117087  0.011445017 
   76000    261.61295    17111.821     3048.625    24.055754 0.0025998075 0.0084360987 0.0037951001 
   77000    277.28238    6235.2986     3048.625     28.87658  0.013491481 -0.00048535541  0.018890019 
   78000    299.93422    979.93732     3048.625    26.052144 -0.026910005 -0.028654671 0.0095602708 
   79000    305.80997    3421.0748     3048.625    18.972804 -0.0029511149 -0.029787154 -0.026565116 
   80000    272.82636    13411.441     3048.625    24.251445 0.0092245972 -0.030945093 0.0035993407 
   81000    280.86384    5179.1247     3048.625    33.739932 -0.026847857 -0.037554537 -0.013787335 
   82000    289.04699    9015.6006     3048.625    27.173808 -0.00013213231  0.013174236  0.006853418 
   83000    267.55769    12768.735     3048.625    13.025659 -0.012650584  0.039309685  0.010179003 
   84000    252.77722    15333.612     3048.625    14.100472  -0.02025992 -0.0061762495 -0.022442891 
   85000    273.90518    5984.4889     3048.625    27.718813  0.024076165 -0.035635026 -0.0056950086 
   86000      265.658    16148.841     3048.625    31.513472  0.019220165  0.011961853 -0.012728963 
   87000    290.39757    10034.953     3048.625    22.869139 -0.016697981  0.012623469 0.0084149757 
   88000    272.33009    12525.751     3048.625    20.003074  0.044243044 -0.0018032457 0.0049719876 
   89000    270.55129    9869.9461     3048.625    25.602254 -0.031056998 -0.0071712885  0.012259606 
   90000    281.19487    9957.1175     3048.625    26.991397 -0.017973232  0.018825809  0.032936786 
   91000    273.11796    14512.908     3048.625    21.781844   -0.0379857 0.0045269134 -0.030142447 
   92000    248.51339    9405.4216     3048.625    18.200451  0.015682695 -0.021529403 -0.0011802857 
   93000    251.78689    12260.645     3048.625    25.358629 -0.0010473193  0.030169538 -0.014126503 
   94000    240.90086    16198.175     3048.625    27.823023  0.014154881 0.0017459155 0.0065652405 
   95000    263.58203    7658.1648     3048.625    23.581597 -0.015344495  0.032570575  0.010425085 
   96000    278.62331    7204.7307     3048.625    24.402136 0.0061390405  0.022670099   0.02821933 
   97000    287.33941    7561.0076     3048.625    23.389105  0.019445225 0.0087113149   0.04366229 
   98000    275.49291    15614.275     3048.625     23.70772 -0.020660472 0.0033201991  0.035307745 
   99000    267.09262    11119.384     3048.625    31.414283 0.0055419791 -0.036010752 -0.040975712 
  100000    271.00326     8083.043     3048.625    31.010745 0.0094074436   0.01468683 -0.0057503322 
  101000    277.77552    7545.1197     3048.625    21.883381  0.018814325  0.010721733 -0.0057645036 
  102000    284.53212    7417.0253     3048.625    24.483548 0.00027063172 0.0071044931 -0.0062117749 
  103000    285.47334    4070.6347     3048.625    31.810525 -0.045815935  0.024328143 -0.063253556 
  104000    283.14516    10787.916     3048.625    26.861186  0.022770116 0.0034651268 -0.013656014 
  105000      257.366    11660.752     3048.625    19.390753  0.032977252  0.016328317  0.010904245 
  106000    294.55316    3266.6995     3048.625    21.120827  0.010285234  -0.01323079 -0.00060426751 
  107000     269.7432     8669.023     3048.625    29.741287 0.0063063397 0.0065571717 -0.024448626 
  108000    244.26977    12603.382     3048.625     34.91428  0.029404846 -0.037468343 -0.016804121 
  109000     254.2911     12492.32     3048.625    26.050075  0.037497932 -0.010601263 -0.0030164635 
  110000    249.04479    12387.267     3048.625    19.814885  0.027601189 -0.019053204  0.027467725 
  111000    272.89144    8561.4286     3048.625    23.365056 0.0036995486  0.013459709 -0.016744104 
  112000    273.24349    13220.366     3048.625    30.917212 -0.048758932 -0.014821244  0.015670703 
  113000    289.54774    3575.0582     3048.625     32.28773 -0.028676886 -0.033407389 -0.0027833232 
  114000    270.53862     12108.92     3048.625    25.942145 -0.025370594  0.016555661 -0.012005052 
  115000    273.47092    11667.393     3048.625    21.367241  0.048927398 0.0093931855 0.0024264471 
  116000      279.666     4534.538     3048.625    23.451262  0.015147571  0.021672541 0.0081916239 
  117000    296.33027    8446.4391     3048.625     28.85152  0.020424519  0.026519347 0.0016270379 
  118000    279.11422    7206.9552     3048.625    31.713824 -0.027469988 -0.029668823 -0.047239985 
  119000    281.19771    10422.444     3048.625    30.914719 0.0081009651 -0.0050120215 -0.0067154549 
  120000    288.62874    5418.8259     3048.625    29.636859  0.032230922 0.0022902772 -0.037364785 
  121000    274.75919    10847.781     3048.625    27.700045 0.00061051159  0.031902874 -0.011440764 
  122000    290.18606      5187.35     3048.625     25.28836  0.011181502  0.011946672 -0.0081757995 
  123000    273.05554    8297.6274     3048.625    23.811906   0.03829703 -0.025404604 0.00062452883 
  124000    253.92518    9828.5242     3048.625    25.400371 0.0030799812  -0.01889231  0.011343569 
  125000    276.43331    8227.2101     3048.625    27.679032  0.019254631 -0.0094042999  0.014464072 
  126000    285.12042    5985.2913     3048.625    27.736827  0.017982463 -0.018418728  0.035469246 
  127000    254.99174    13694.672     3048.625    26.662621 0.0082825868  0.033576108 -0.0076503596 
  128000    248.16218    14795.842     3048.625      30.1103  0.021618257 0.0053509859 0.00070758099 
  129000    253.48271    11785.587     3048.625    30.454448  0.019667832 -0.042695517 -0.017177431 
  130000    283.19122    13974.771     3048.625    27.806023 -0.0077544654 0.0041017737 -0.010026894 
  131000    252.49742    4658.2156     3048.625    25.609965 0.00019009995  0.038641243  0.028111474 
  132000    249.22185    13275.693     3048.625    27.911887  0.015385185 -3.4961978e-05  0.037623265 
  133000    262.85312    7241.2098     3048.625    34.656145 -0.018522935  0.017602273 -0.0021675039 
  134000    258.38378    13769.658     3048.625    30.955459 -0.036070096 -0.0009872268 0.0081011725 
  135000    279.78982    4245.8069     3048.625    26.386901 0.0082482116 0.0022063184  -0.02463735 
  136000    279.37998    8786.3422     3048.625    27.237889 -0.011403134 0.0028390059  0.017624567 
  137000    283.59899    6545.0242     3048.625    26.585593 -0.032730241 -0.032493273 -0.015039914 
  138000    248.36871    18098.108     3048.625    22.495756 -0.016483296 -0.0061994022 -0.050446267 
  139000    263.05018    11850.158     3048.625    22.873435 0.0033157537 0.0098148776 -0.024513835 
  140000    274.87452    5729.7891     3048.625    29.878344  -0.02951524  0.028570584 -0.031002366 
  141000    263.54153    11994.899     3048.625    32.101009 -0.021229408  0.016934349  0.031810461 
  142000    270.60962    8675.2744     3048.625    28.229226 -0.018861107 0.0096369398  0.024420516 
  143000    264.71526    5872.1356     3048.625    30.645789  0.020529959 9.1189776e-05  0.033632868 
  144000    282.49243    12592.145     3048.625    32.486473 -0.020749886 0.0074740797  -0.01231408 
  145000    296.26094    6276.3744     3048.625     29.32713  0.011952321  0.015066628 0.0068503078 
  146000     293.8279   -894.15919     3048.625    27.459604  0.042390789 -0.015017792 -0.0041630644 
  147000    284.61403    17260.294     3048.625    29.359775  0.031880558  0.024524301 0.0011101375 
  148000    259.10911     931.4653     3048.625    32.946374  0.032031454  0.002530644 0.0022652709 
  149000     245.5741    13103.699     3048.625    30.761708 0.0063704477 0.00034579761 0.0020696667 
  150000    248.53187    8854.5355     3048.625    26.367001 -0.036605519 -0.0068443326 0.0058686844 
  151000     283.2026    6650.0728     3048.625    25.184923 -0.00077294023  0.050352331 -0.025031363 
  152000    290.65433    7190.0009     3048.625    30.104709  0.009586612 -0.038787395    0.0269259 
  153000    278.31926    6809.5593     3048.625    31.556198  0.024212975 -0.012916721 -0.014644515 
  154000    239.42938    16590.084     3048.625    23.152431 -0.0020885517 -0.019433365  0.033332454 
  155000    246.21844    12571.563     3048.625    20.134225  -0.01060236  0.017826144  0.028067965 
  156000    255.10205    15374.564     3048.625    24.609767 0.0011600209  0.013011881 0.0051449394 
  157000    270.92868    11215.467     3048.625    26.443176  0.014957189  0.036185831 -0.010666724 
  158000    239.94438    11777.301     3048.625    25.912784 0.0093098469 0.0044802584  0.024678353 
  159000    217.56301    20549.804     3048.625    25.897993  0.022977313 0.0001806117 -0.0010114926 
  160000    257.22123    8849.0963     3048.625    26.967094  -0.01322121 -0.0073811809 -0.0072153752 
  161000    276.26516    13695.171     3048.625    28.137088  0.016676533 -0.043495282  0.031201045 
  162000    262.78966    5239.1186     3048.625    29.778083 -0.00055194254 0.0066428808 -0.029569353 
  163000    245.28876    13848.572     3048.625    31.317299 -0.014991057  0.013723609 -0.007054693 
  164000    257.95664      10252.6     3048.625    30.978388  0.013798745 -0.029177879 -0.049322833 
  165000    262.38505    8869.0111     3048.625    29.585868 0.0019722771  0.025264906 -0.010398065 
  166000    263.46817    11821.623     3048.625    28.028379  0.036801357  0.037435867 -0.0060785731 
  167000    272.84983    12504.338     3048.625     26.53094  0.024983833  0.022901057   0.02851409 
  168000    256.53352    9103.7643     3048.625    24.283177  0.015861065  0.007335383  0.045607591 
  169000    266.66199    14136.824     3048.625    23.753681 -0.041736872 -0.024579278   0.03534055 
  170000    266.76912    3356.4806     3048.625    26.582458 -0.0060678985 -0.047608402 -0.025226248 
  171000    261.45273    14964.531     3048.625    29.893403  0.013324228 -0.019389997 -0.010880486 
  172000    259.59739    8550.8342     3048.625    28.821044  0.002684424 -0.0074587543 -0.025730912 
  173000    221.28071    14688.176     3048.625    30.255506  0.014131863   0.04178121 -0.0028115177 
  174000    244.03516    14108.759     3048.625    31.531101   -0.0329066 -0.023167547   0.01908944 
  175000    269.10812    9569.4116     3048.625    30.157705 -0.023317962 0.0074841684 -0.0013889657 
  176000    221.19785    20654.943     3048.625    25.799131 -0.030082235 -0.005257025  0.013197272 
  177000    231.46985    11982.321     3048.625    24.651348 -0.0039134971 -0.0066803675 -0.029429846 
  178000    239.37993    7785.4124     3048.625    27.089765 0.00030885666 -0.010527321 -0.0026818786 
  179000    298.39321    7542.3774     3048.625    31.100394  0.046706209  0.032779367 -0.0075765014 
  180000    278.39274    6662.6353     3048.625    34.253289 -0.0038736528  0.010745979  0.011682874 
  181000    241.95354    12543.694     3048.625     32.37471 -0.0035108206 0.00049563754 -0.0053548448 
  182000    255.12753    10586.719     3048.625     29.70934 -0.016768324 -0.0083146345   0.03015683 
  183000     247.5604    11422.043     3048.625    27.118858  0.002732497  0.013273974  0.026016974 
  184000     254.3108    6034.7574     3048.625    27.259045 -0.012154418 0.0017269582 0.0099687057 
  185000    253.59529    11938.939     3048.625     32.80832 0.0047003624  0.020646769 -0.015447556 
  186000    278.47473    2187.9567     3048.625     35.03815 -0.031844675 0.0052115305  0.022828077 
  187000    247.43957    14487.382     3048.625    28.681321  0.030173405  0.015532038  -0.00661577 
  188000    268.51933     6805.459     3048.625    21.270726 0.0059144599 -0.026035894 -0.027724799 
  189000    245.29228    7108.7478     3048.625    21.326489  0.021925966 0.00087700352 -0.040705102 
  190000    250.28292    14210.315     3048.625    23.115181  0.012785827  0.023230525 -0.011724396 
  191000    274.89274    4226.9006     3048.625    24.558421 0.0099130109 -0.0079906354 -0.024477141 
  192000    262.11101    13524.526     3048.625    24.143261  0.052931108 -0.0066125644 -0.019947444 
  193000    267.13607    6940.9982     3048.625    24.531131  0.011789004 -0.023520556 -0.038790659 
  194000    262.23333    9176.3262     3048.625    27.597906 0.0082151042 -0.029158041 -0.024398382 
  195000    283.19107    16227.103     3048.625    27.475451  0.026134769  0.015565407 0.0061872781 
  196000    243.10245    5084.5721     3048.625     26.61233 0.0073380382 -0.0024478544 -0.0098823188 
  197000    272.55358    16076.042     3048.625     27.42768 0.0098621482 -0.024335575 -0.011705632 
  198000    265.41278    11563.089     3048.625    28.036636  0.032387176 0.0087689831 -0.013041552 
  199000    258.30174    2950.3484     3048.625    29.349442 0.0043104453 -0.0056842854  0.031584664 
  200000    259.90238    15026.558     3048.625    24.770451  0.045467737 0.0006826923  0.025690292 
  201000    267.08245    9740.5223     3048.625    24.709318  0.031387751 -0.0034794809 -0.0088788109 
  202000    251.38605    5752.8014     3048.625    27.195585 -0.0010364511 0.0054668068  -0.03790595 
  203000    268.79167    16540.146     3048.625    30.345674   0.04406591  0.024928178  0.013535262 
  204000    241.09758    6808.3759     3048.625     29.57431 0.0031015619 -0.018289965 -0.014453645 
  205000    248.42894    12834.122     3048.625    26.138292  0.004136197 -0.023128728 -0.00045765843 
  206000    237.91745    13748.527     3048.625    23.178132 -0.018980483  0.019834229 -0.033353061 
  207000    267.69072    10997.144     3048.625    24.691273   0.03353767  0.024101821 -0.0012776987 
  208000    249.50542    7714.2429     3048.625    26.322091 -0.004862406 -0.00071402613 -0.021289116 
  209000    257.78253     14261.33     3048.625    26.855536 -0.018359848  0.017263649 0.0067233182 
  210000    235.08962    10276.147     3048.625    22.898302 -0.024131169 -0.016134339 -0.00032572505 
  211000    240.52661    15393.797     3048.625    17.956645 -0.0040240556 0.0076848958 -0.0052414773 
  212000    263.70056    3865.5441     3048.625    19.619984 -0.0087702495 -0.0069876306  0.015833298 
  213000    238.09331    9135.1426     3048.625    23.497257  0.009585482 -0.023724859  0.030868041 
  214000    278.34946    11806.888     3048.625    25.697647   0.02478904  0.011171034  0.012173182 
  215000    249.68168    6449.0891     3048.625    27.766257 0.0011090411 0.0018380367 0.0066337806 
  216000    240.86114    14644.279     3048.625    30.852677 4.4300533e-05 -0.0093422418 0.00020111751 
  217000    256.03999    8381.4207     3048.625     34.11694  0.015487294 -0.051877176 0.00085647785 
  218000    263.49369    12923.795     3048.625    31.006293 -0.014414323 -0.015317257 -0.014266007 
  219000    274.37563    10161.068     3048.625    25.071332  0.011085867 -0.002839891 -0.018346778 
  220000    281.22899    3413.2722     3048.625     26.51519 -0.004328053 0.0058864905 0.0072114992 
  221000    262.62771    8906.0472     3048.625    32.666708  0.023425139  -0.03142822  0.035107746 
  222000    253.77957    9815.5077     3048.625    32.620044  0.023434228  0.020206937  0.015487672 
  223000    272.73849    2576.4084     3048.625    27.544648 -0.018636262 -0.018010093 -0.035026302 
  224000    241.58645    18662.605     3048.625    23.794258 -0.017327061 -0.0078521179 -0.0038952092 
  225000    256.00722    2015.1951     3048.625    24.524177  0.044303781 -0.0023430976  0.013914726 
  226000     230.9924    10463.718     3048.625    29.140477 0.00022824364 -0.024506659  0.011327796 
  227000    271.40916    11701.104     3048.625     32.68966  0.021606907  0.054038611  0.019866617 
  228000    240.54799    4984.2969     3048.625    33.959685 -0.0037413798 0.0027171529  0.038323293 
  229000    261.61636    9260.5007     3048.625    33.488713   0.02072202  0.027285237 0.0016008101 
  230000    252.45992    10771.253     3048.625    32.874685 -0.0097827341 -0.038270403 -0.010645561 
  231000    275.15418    5396.9313     3048.625     33.38686 -0.00079944933 -0.015562538 -0.018039694 
  232000    243.70475    8933.5975     3048.625    32.377914 -0.015850522 -0.0037671235  0.033594464 
  233000    236.58723    9448.9356     3048.625    32.185006 0.0069861657 0.0029410965 0.0023846478 
  234000    233.84408    10904.411     3048.625    31.433951  0.018238768 -0.013576457 -0.010596899 
  235000    251.56081    12389.512     3048.625    28.203777 -0.0020944581  0.016229522 -0.021772518 
  236000    266.43273    10874.174     3048.625    23.120126 0.00054282783 -0.035830067 -0.020150782 
  237000    281.73493    3661.5013     3048.625    22.301346 -0.023997666 -0.018571055 -0.046469727 
  238000     235.6467    17473.613     3048.625    27.828324  0.020024774  0.018461742 -0.012027138 
  239000    261.56249    5573.0033     3048.625    31.019134 0.0090020535 -0.019909233 -0.010522713 
  240000    266.80482    11737.556     3048.625    28.204099 -0.0026030699  0.021744386  0.010809533 
  241000    259.85458    671.36459     3048.625    23.634334 -0.0089980613  0.015809005  0.010530403 
  242000    275.68702    8985.3058     3048.625    25.224338 -0.006404048 0.0083577304    -0.018073 
  243000    276.67344    7728.9384     3048.625    29.268606 -0.0031440998 -0.022202545  0.029407254 
  244000    252.71642    4111.7489     3048.625    25.522666 -0.022350509 0.0089788226  0.029851877 
  245000    244.53733    13784.447     3048.625    20.948596 -0.020273018 -0.0062922351 -0.030560415 
  246000    256.18478    10101.964     3048.625    23.586644  0.024279496 -0.0001107493 -0.0059770399 
  247000    254.09739    9843.3144     3048.625    27.736592 -0.011569393 -0.0043292214  0.024245708 
  248000     285.1229    4161.6286     3048.625    25.078918  0.034990758  0.026354813 -0.0050805022 
  249000    253.29158    4907.8322     3048.625    19.542944  0.037411081 0.0077180651 0.0092262236 
  250000    247.77938    11782.469     3048.625    20.428933 -0.0025967454  0.030410576  0.023791293 
  251000     232.7388    10984.297     3048.625    28.911274 -0.024031574 -0.016677193 -0.013766878 
  252000    258.47857     11549.36     3048.625    33.093847 0.0058294522 0.0014183099 -0.038234447 
  253000     281.1588    6195.5072     3048.625    27.473696  0.037548278  0.013297014 -0.0081940609 
  254000    287.60227    700.19632     3048.625    23.532786 -0.023012474 0.00053959462 0.0079287443 
  255000    269.58474    6036.7927     3048.625    28.182571  0.015281924 -0.0054688543 -0.025629417 
  256000    263.52913    5077.2666     3048.625    33.787652 0.0061222092 -0.016110005 -0.047573955 
  257000     249.6945    14665.536     3048.625    31.909178 -0.043564607  0.036465455 -0.014762188 
  258000    248.05165    5807.4476     3048.625    28.785707 0.0081935925  0.011374762  0.019251995 
  259000    270.62502    5580.5821     3048.625     28.38234 -0.014458115  0.033846078  0.012416894 
  260000     282.4532    9323.4803     3048.625    30.328835  0.036546617 -0.0079275528 0.0017790678 
  261000    262.56939    8058.5025     3048.625    26.761075  0.010872612  0.029227589 -0.051436351 
  262000    242.93114    4512.3984     3048.625    21.313422 0.0021544887   0.00613769 0.0046973425 
  263000    248.63768    18454.492     3048.625    23.228198   0.03590349 0.00019527825 -0.001430223 
  264000    259.55376    9814.9891     3048.625    29.155936  0.045646908 0.0066795109 -0.023521902 
  265000    248.60391    8358.1865     3048.625    33.204261  0.046200087  0.019999364 0.00035925611 
  266000    268.33743    10311.036     3048.625    32.260123  0.015493605  0.015041176 -0.039592791 
  267000    279.93923    1729.1671     3048.625    25.144914 -0.014710573 -0.0072023039 -0.00073955505 
  268000    219.19641    7709.4335     3048.625    20.718557 -0.018657221 -0.0049364658  0.035795164 
  269000    286.49889     12276.79     3048.625    25.074404 0.0052350054  -0.03242076 0.0076626042 
  270000    260.57486    8569.2445     3048.625    31.155292 0.0016991764 0.0036719291 -0.011230958 
  271000    239.50198    5498.6497     3048.625    30.144554 -0.0016534682 -0.0080640779 -0.027510639 
  272000    273.24222    14156.966     3048.625    23.275248  0.012557107 -0.023886589 -0.0035434233 
  273000    265.16723    9601.9031     3048.625    19.780568  0.038556884 -0.018612993  0.017839847 
  274000     241.4056    5768.5022     3048.625    25.028079  0.022294349 -0.0033617845 -0.0066344446 
  275000    245.25216    14122.844     3048.625    31.527494  0.021731165  0.015352533 -0.0051110014 
  276000    259.35963    8722.8423     3048.625    31.131179 -0.031974293  0.010123368  -0.02192627 
  277000    280.48637    5085.8423     3048.625    30.136915 -0.0070470651 -0.005984185 0.0098030483 
  278000      264.046    5419.5376     3048.625    30.733921 -0.0043160129  0.024061318 -0.024766217 
  279000    267.26584    8710.6306     3048.625    31.092885 -0.012923209  0.026281362  0.013261555 
  280000    261.85833    8294.1856     3048.625    28.732439 -0.044966983  0.013276023  0.011093897 
  281000     271.5472    2470.3615     3048.625    26.230694 -0.0074390712 0.0013414695  0.019145264 
  282000    270.42107    9671.8392     3048.625    27.933735  -0.01184771  0.039750293  0.033683179 
  283000    268.60644    3685.1397     3048.625    29.943633 -0.043487894 -0.014470716 -0.0020954296 
  284000    241.81246    11035.435     3048.625    26.466866 -0.023840035 -0.023673559  0.026450601 
  285000    257.68102    11296.121     3048.625    22.692077 -0.0089099572 0.0026805169  0.038030973 
  286000    262.52253    5105.3043     3048.625     22.88679 -0.0031270464 -0.015866217  0.012734357 
  287000    246.81775    17769.083     3048.625    25.082894 0.0054858106 -0.0082048945 -0.018996434 
  288000    244.59044    10313.854     3048.625    28.127788  -0.02642846 -0.021332319 0.0058331282 
  289000    250.69983     5676.769     3048.625    31.827506 0.0058482398 -0.040830411  0.027409249 
  290000    252.70524    7303.6948     3048.625    33.270757  0.017895614 -0.0024307592  0.029790059 
  291000    233.74275    12874.757     3048.625    32.085439 -0.0089156438 -0.0016986222   0.02897073 
  292000    226.52286    12496.357     3048.625    30.632749  0.026198465 -0.0079249689 -0.0053293823 
  293000    257.06159    17512.096     3048.625    29.275795 -0.0088441889 -0.020261692 -0.0064994383 
  294000    251.14061    5244.1516     3048.625     28.07687 -0.013971356  0.033521766 0.0061434603 
  295000    249.40085    12664.587     3048.625    29.126396 -0.025901752 0.0074974319  -0.02136764 
  296000    228.95275    13910.926     3048.625     28.96711  0.012615506 -0.0020172071 -0.0055080228 
  297000    244.26662    11726.468     3048.625    28.619899 -0.0054429476  0.013043673 -0.057895686 
  298000    268.31671    2521.0332     3048.625    26.167201 0.0047627163  0.018795032 0.00084347769 
  299000    255.72603    11163.776     3048.625    22.621664 -0.014871851    -0.025296  0.011527756 
  300000    249.73957    9230.5831     3048.625    22.714938  0.018189216 0.00072338346 -0.0087365323 
  301000    252.22307    12566.156     3048.625    25.532573 -0.014490419 -0.0037695643   0.02722309 
  302000    254.99397    4317.5467     3048.625    27.312775  -0.02712653 -0.035993337  0.013848693 
  303000    236.19914    16695.948     3048.625    27.347139  0.001178968  0.011379274  0.024791024 
  304000    247.87732    8236.2859     3048.625    28.054333  0.012289716 -0.00057846756 -0.021533029 
  305000    242.16226    19608.416     3048.625    28.671235 0.0030902808 -0.013951982  0.013284413 
  306000    255.50144    2429.2072     3048.625    30.171243 -0.012774972 -0.016356419  0.024742487 
  307000    248.90211    17106.011     3048.625    32.310116  0.030332351 0.0062477906 -0.019825787 
  308000    258.79193    7699.6946     3048.625    33.956508 -0.024134495 0.00033355603 0.0084126951 
  309000    257.16446    17266.052     3048.625    33.312067  0.036291258 -0.0048765324  0.037774479 
  310000    242.37393    970.85678     3048.625    31.950284 -0.0026263425  0.042138246 0.0025689812 
  311000    264.61155    13555.531     3048.625    29.408619 -0.016162436 0.0019583838 -0.031762253 
  312000     250.3802    6775.0634     3048.625    30.181291 -0.010423669 -0.011548358 -0.014100333 
  313000    273.36493   -659.80167     3048.625    32.258024 -0.0011802896 -0.016241975  0.012416819 
  314000    263.18027    13746.546     3048.625    32.224809 0.0047449527 -0.0013238713 -0.0097163002 
  315000    263.16544    5740.1943     3048.625    31.471133 0.0068029101 -0.0049276187  0.009900414 
  316000    219.45113    13282.662     3048.625    29.310094 -0.0050121443  0.015533396 -0.014730262 
  317000    233.83368    4631.0771     3048.625    28.047867 -0.0046169563  -0.02128594   0.02686592 
  318000    228.12461    17995.816     3048.625    26.389975 -0.0073062597 -0.047330842 0.0022972678 
  319000    250.63949    8186.0907     3048.625     25.29681 -0.017565924 -0.0091714819 0.0043493557 
  320000    252.38016    9707.7902     3048.625     25.87167 -0.0053575853 0.0021594735  0.012081822 
  321000    265.84646    7850.6767     3048.625    25.280164  0.031374648  0.008468243 0.0037322712 
  322000    236.43733    6758.8989     3048.625    22.780678 0.0042448058 -0.012925482 -0.0018535784 
  323000    261.24594    9587.9219     3048.625    21.818996 -0.011496435  0.053412281  0.009446316 
  324000    249.65233    9820.4712     3048.625    25.137013 -0.0050402289 -0.012332966 0.0086073881 
  325000     268.5133    5512.9215     3048.625    28.159347   0.01089077  0.012077459  -0.01432919 
  326000     252.4262    9737.8042     3048.625    31.549827 -0.012931689 -0.0026707844 -0.022147887 
  327000    245.34451    6482.3901     3048.625    29.684967 -0.010139509 -0.037056878 -0.017284465 
  328000    264.59354    11406.805     3048.625    26.170474 0.0096424863 -0.019710171 0.0082055766 
  329000    249.79244    8611.8398     3048.625    26.187226 -0.0016776192  0.035669776  0.010192049 
  330000    271.37458     2598.758     3048.625      26.7224 -0.029409392 0.0027566804  0.018505061 
  331000    272.69919    1893.2469     3048.625    25.242945 -0.022357413 -0.00077734391  -0.01590428 
  332000    273.30782    13592.209     3048.625    21.501677 -0.016654246  0.032740428  0.015632744 
  333000    254.39638    3290.9809     3048.625    24.049863  0.032545191  0.005379918  0.018537673 
  334000    260.30806    5546.9379     3048.625    28.764531  0.018654165  0.016356141  0.031952413 
  335000    252.42695    8916.0945     3048.625    27.767231 -0.0034610768 0.0065386402 -0.025848566 
  336000    273.89576    7864.0098     3048.625    24.877638 -0.0061747494 -0.0046137016  0.015850657 
  337000    278.85976     4188.781     3048.625    27.308998 -0.021531751 -0.013297534 -0.019781943 
  338000    261.19644   -55.709394     3048.625    30.579613  0.038981703 -0.0024758145 -0.035635896 
  339000    271.31965    11390.915     3048.625    30.753633 -0.015858178  0.012804365 -0.0055314908 
  340000    256.91224     9471.529     3048.625      31.8442  0.017369899 -0.0081099095 -0.010209763 
  341000    244.70367    8675.0273     3048.625    32.422768    0.0152236  -0.03171098  0.027678815 
  342000    251.63632    12212.561     3048.625    29.475765  0.019988756 -0.021490487 0.0090414451 
  343000    255.23899    6873.5499     3048.625    28.471305  0.042466996 0.00019880059 -0.050361554 
  344000    260.33972    6231.8515     3048.625    30.962305   0.01505399 -0.011045898 -0.035447506 
  345000    249.73263    6561.8996     3048.625    33.666887   0.02624249 0.0093138424 0.0059980674 
  346000    262.15842    6564.3617     3048.625    32.970119 0.0064700051  0.011349002 -0.0031738614 
  347000    262.44645    10478.863     3048.625    29.928258  0.027780955  0.018056769  0.012210736 
  348000    275.92378    6275.6205     3048.625    30.267681  0.016747722 -0.026568074 -0.0058058317 
  349000    274.06195     2415.501     3048.625    33.749652  0.019043192 -0.0045225581 0.0060898447 
  350000    272.96444    561.90236     3048.625    34.949387  0.012166298 -0.0031094498 -0.011998935 
  351000    269.36881     2509.609     3048.625    32.181961   -0.0214162 -0.016697303  0.049873184 
  352000    255.47225    8665.1703     3048.625    28.902107 -0.038353243 -0.024735036 0.00047376355 
  353000     269.0999    5832.0276     3048.625    29.049862  0.023947629 -0.034516494 -0.017326138 
  354000    270.40464    -2676.065     3048.625    30.430957  0.015427947 -0.044615258 -0.021401117 
  355000    259.94061    4230.7047     3048.625    32.819259 -0.0019556571 -0.031786384 -0.015026184 
  356000     261.9723    6101.1768     3048.625    34.509772  -0.03349674 -0.0067717309 -0.041624587 
  357000    262.28553    4695.9943     3048.625    32.818356 -0.021587121 -0.028547477 -0.025586212 
  358000    266.51317    8867.3447     3048.625    31.901524  0.011968358 -0.057209477 -0.022908262 
  359000    257.12919    4575.8448     3048.625    34.193555 -0.010427467 -0.0042437598  -0.01517817 
  360000    266.59568    3257.4939     3048.625    34.360835 -0.0027982374  0.011313776 -0.030582648 
  361000    274.44286    8563.4442     3048.625    28.120322  0.011119516 -0.015164695  0.023160921 
  362000    250.52005    4784.9969     3048.625    23.416036  0.037029886 -0.0033952398 0.0051695981 
  363000    272.66802    2275.9021     3048.625     26.72311 0.0089105324 -0.030592347 -0.0052043207 
  364000    267.27624    3949.7898     3048.625    30.175657 -0.0015763818 -0.010464262 0.00047474156 
  365000    274.74298    5944.5352     3048.625    27.657411 0.0047830241  0.011403419 0.00058954858 
  366000    268.32098    6945.4215     3048.625    24.790467 -0.026573575 -0.012942207   0.02135953 
  367000    254.91218    7618.7217     3048.625    26.918496 -0.018568015 -0.033073125 -0.011792015 
  368000    256.15483    12805.719     3048.625    31.729356 0.0072586142 -0.0095382823 -0.0023674345 
  369000     270.9664    2450.5068     3048.625    31.365936 0.0029310758 -0.0070789412 -0.013163167 
  370000    257.27375    10164.351     3048.625    29.319122 -0.0087897798 -0.016656211  0.045936837 
  371000    259.90991   -3282.8667     3048.625    29.855402 -0.011629095  0.005064906 -0.011472533 
  372000    257.34802    6828.6718     3048.625    27.135802 -0.018872943  0.014841795 -0.015381576 
  373000     253.3664     15518.24     3048.625     21.40228  0.016037465  0.021093227 -0.028694237 
  374000    254.96356    4633.4283     3048.625    22.866689 0.0089777243 0.0095008522 -0.021299302 
  375000    255.06682    4399.5711     3048.625    29.569626 0.0040763293 -0.005153319  0.031377998 
  376000    277.69389     12031.57     3048.625    29.977893 -0.022604971  0.035667527 -0.0094301482 
  377000    267.97837    1056.7986     3048.625    25.042759  0.014001003  0.003982392 -0.0049343541 
  378000    278.20516    1201.3766     3048.625    22.856952  0.018035589 -0.015083667  0.021181238 
  379000    282.16434    9449.3132     3048.625    23.596251 -0.0030386473 0.0077653715 -0.0035967669 
  380000     243.0403    5601.9485     3048.625    29.259999 0.0020207749    0.0226549 -0.0071324442 
  381000    264.54697     4165.132     3048.625    34.406851 -0.021182091 0.0013212108 -0.029030748 
  382000    252.54721     9106.514     3048.625    34.472763 -0.022903455 0.0017268077 -0.010764794 
  383000    268.75006    7357.8415     3048.625    31.210421  0.022812128  0.015971897 -0.0049231236 
  384000    256.32609    6571.0354     3048.625    28.572736 -0.0081679465 -0.010499619  0.028903554 
  385000    242.90212    9043.1457     3048.625    30.747746  0.037096474 -0.016546824 0.0012684557 
  386000    277.11572    9674.1274     3048.625    33.534683 -0.018105501 -0.0011060202 -0.0066140722 
  387000    258.24289    7770.9162     3048.625    35.185503  0.019762832 0.00031606057 0.0085059142 
  388000    276.07272    815.28919     3048.625     35.81967 -0.029991687  0.023900741 -0.0024097784 
  389000    279.62207    4982.3818     3048.625    34.414077 -0.0039469993 -0.038076478 0.0071596664 
  390000    263.27526    11466.485     3048.625    33.030973 -0.010875682 -0.025029454 -3.5659141e-05 
  391000    247.02037    105.32637     3048.625    32.445218  -0.01835353 0.0064700518  0.011829501 
  392000    267.52377    5746.8741     3048.625    33.807132 -0.027745231 -0.0061814128 -0.015877566 
  393000    262.53363    6800.0322     3048.625    35.972582  0.033488074  0.017117615 -0.061754783 
  394000    256.13421    7961.6877     3048.625    35.512313 -0.00052539507  0.013787525 -0.022828205 
  395000    248.57285    9702.7038     3048.625    32.805886 -0.032428213  0.020724122 0.0019115861 
  396000    256.46542    6428.2646     3048.625     30.65196 -0.0059512776 0.0033649144 0.0094220952 
  397000    270.74941    4718.6762     3048.625    32.816952  0.016289639  0.040870812 -0.0086900405 
  398000    258.02075    8043.4342     3048.625     35.50135 -0.048765359 -0.024244208 -0.019416206 
  399000    265.75967    9940.2734     3048.625    32.467071  0.020925106 -0.0077445349 -0.024964255 
  400000    267.71013    1351.3927     3048.625     30.56578  0.025592335 -0.0021787741  0.010845282 
  401000    261.73641    9798.6318     3048.625    33.575374 -0.041505759    0.0100554  0.020426223 
  402000    279.15228    9985.9082     3048.625    33.941128 -0.014456592 -0.010787145 -0.011008724 
  403000     253.4704   -94.150702     3048.625    28.381978 0.0024811711  0.023829222 -0.0081621126 
  404000    272.92412     9874.696     3048.625    25.509229  0.018215747  0.016393601 0.0024260202 
  405000    264.72565    5875.9263     3048.625    30.976096 -0.021461492 -0.0030546507 -0.021290003 
  406000    251.84127    2937.8893     3048.625    35.034013 0.0049715196 -0.0076395593 -0.018740522 
  407000    253.70479    10369.174     3048.625    33.705284 0.0048554727 -0.014132992  0.012416851 
  408000    252.70265    4886.4909     3048.625    28.224752 -0.0049278158 -0.0041809821 -0.010495893 
  409000    255.04758     5867.621     3048.625    25.238781 -0.00057189885 -0.022832264  0.018696115 
  410000    265.39887    7498.3428     3048.625    25.888637 -0.00089313607 -0.047169206 0.0085586913 
  411000    286.16098     4322.148     3048.625    27.561776 -0.0026439487  0.015992639 0.0034993732 
  412000    266.90667    637.78962     3048.625    32.020874 0.0077525577  0.015444082  0.023917897 
  413000    269.73596     2382.779     3048.625    33.557819 -0.019312997 -0.0081271456 -0.010435925 
  414000    272.39161      4913.43     3048.625     28.75093 -0.010068839 0.0089238899 0.0037054459 
  415000    265.36217    2438.5694     3048.625    27.868634 -0.012660423 -0.007053783 -0.0042622693 
  416000    272.20447    5212.1677     3048.625    30.330894  -0.02051077 0.0082141221 0.0028658291 
  417000    284.75982    3949.0849     3048.625    28.624341  0.025147529 -0.0049581336 -0.0084632575 
  418000    262.58703    7211.4494     3048.625    26.992996  0.021880442 0.0097650287  0.024409854 
  419000    255.92656    3901.1961     3048.625    25.982137 -0.038177324  0.028454085 -0.0025448803 
  420000    255.20006    6008.3488     3048.625    22.167656  0.010877704 -0.011676286 0.0030327321 
  421000    255.77831    2591.9013     3048.625    26.614082 -0.020099712  0.020163916 -0.0047533872 
  422000    261.17756     10864.68     3048.625    33.912551 -0.027662275  0.022503996  0.014348687 
  423000    250.84052    7735.3011     3048.625    30.869029 -0.036943891 -0.007620153 -0.015514539 
  424000    239.88418    7733.4038     3048.625    26.356098  0.030500213 -0.0083353276 -0.0071287704 
  425000     238.8397    8050.7057     3048.625    25.341729  0.013248563 0.00093444855  0.013794748 
  426000    246.08191    8659.5757     3048.625    24.425584 -0.048489225 -0.011721544 0.00044984869 
  427000    258.47797    11441.978     3048.625    27.659054 -0.0078780574 -0.0030626413 -0.017057649 
  428000    256.98894    2991.5472     3048.625    33.000923  0.010896692 -0.0060366035 -0.014846416 
  429000    244.76976    3465.0256     3048.625    27.945941 -0.0058973552  0.017550133 -0.0022687887 
  430000    256.68711    7511.0201     3048.625    22.989118 -0.0063716286 0.0082652573 0.0023453534 
  431000    257.88398    2089.9658     3048.625    27.536638 -0.014265688 -0.029685541 0.0067620377 
  432000    263.60843    6054.7697     3048.625    33.170553  0.043858984 0.0038162023 -0.00089599704 
  433000    265.60107    6393.6459     3048.625    31.057731  -0.01101563  0.006940131 0.0068699477 
  434000    255.24152    7572.2309     3048.625    24.926176 -0.0019206021 0.0062114704  0.033325955 
  435000    255.69665    5714.5937     3048.625    19.560567 -0.031060254 0.0033858688 -0.034426293 
  436000    237.64761    7238.7714     3048.625    23.757728 -0.0069978113  0.013151893 0.0091438199 
  437000    276.76193    7236.9885     3048.625    30.420444 0.0041008113   0.02625045 -0.012511939 
  438000    257.44556    6602.3789     3048.625     30.89151 0.00015586213 0.0079463333 -0.034215895 
  439000    259.81886    6322.5463     3048.625    23.630948   0.00644106 0.0059844622 5.0644951e-05 
  440000    247.71567     4230.688     3048.625    18.938957  0.010463243  0.016818262 -0.0075909766 
  441000    265.47145    5989.6592     3048.625    22.880604 -0.0036884549 0.0039785281 -0.014881562 
  442000    255.39054    7114.2339     3048.625    33.255591  0.028467552  0.047816136  0.028447888 
  443000    268.97972    3882.6825     3048.625    34.808935 -0.0057979924 0.0047348453 -0.026478277 
  444000    267.33012    4811.0745     3048.625    24.764616  0.011204239   0.02199886 -0.010854315 
  445000    273.77242   -814.28315     3048.625    17.663198 0.0050682539  0.031546263 -0.016189267 
  446000    267.49306    4939.0417     3048.625    23.922775 -0.015834951 -0.0030708704 -0.024144911 
  447000    265.11046    9822.6476     3048.625    33.744261 -0.025786332  0.018446546 -0.015458297 
  448000    264.10936    4949.5921     3048.625    31.776064 -0.013068407  0.023610682 -0.039193678 
  449000    258.91927   -2014.9707     3048.625    23.362385   0.02286867 -0.038145226  0.015461504 
  450000    237.29427     5503.588     3048.625    24.230567  0.011976392 0.0045646215 0.0034992191 
  451000    258.81288    9964.0511     3048.625    29.750359 -0.043047119  0.012144094  0.019415166 
  452000    262.55381    691.83776     3048.625    33.193624 0.0094602272 -0.0031167341 0.0020085078 
  453000    269.79878    2737.6313     3048.625    30.785834 -0.029784645 0.0037087427 -0.0063792224 
  454000    254.94197    14431.727     3048.625    24.225366  0.010296363  0.020305535 -0.0039167912 
  455000    248.88922    3824.4859     3048.625    21.708597  0.018015495  0.002617174  0.014621778 
  456000    264.01985    4734.2017     3048.625    22.599736 -0.0077469313  0.026985021 -0.0065036264 
  457000    264.31254     8378.411     3048.625    19.489153  0.023100707  0.012929977  0.015815954 
  458000    279.29003    -726.1592     3048.625    18.057622 0.0001904224  0.016797634 -0.048283635 
  459000     257.0165    8550.2877     3048.625    25.579437 -0.0090471174 0.0092882951  -0.01127907 
  460000    283.62619    10119.451     3048.625      33.3227  0.038402822 -0.029644024 -0.040262263 
  461000    263.85693   -794.89243     3048.625    33.869486  0.024214729 0.0036866133 -0.015643624 
  462000    247.88524    11254.592     3048.625    26.433192 0.0057000389 0.0035377004  0.001099791 
  463000    246.18985     3724.644     3048.625    20.963963 -0.0036708583 -0.023332378 0.0029195744 
  464000    258.97163    4133.9639     3048.625    22.059028 -0.013600882 0.0064557102 -0.029197206 
  465000    260.01709    15380.727     3048.625    26.703774 -0.0039343871   0.03603515 -0.016702601 
  466000    255.69419    568.98625     3048.625    31.177807   0.03138598  0.010483101  0.018335494 
  467000    254.89327    10305.195     3048.625    33.883183 -0.0057093973 -0.0011661366  -0.01564261 
  468000    234.48911    14902.642     3048.625    30.128926 -0.00081672858 0.0043184846 0.00020625015 
  469000    248.12527    996.73179     3048.625    24.535982  0.012691404 -0.00058107814  0.003829307 
  470000    247.30483    14702.909     3048.625    21.429552 0.0072597348  0.010893233 -0.022448018 
  471000    217.75209    13294.313     3048.625    25.102657 -0.0070990438 -0.029788687 -0.006330028 
  472000    246.23187    4757.2956     3048.625    29.387692 -0.0052628238  0.005200177  0.014622158 
  473000    251.41217    9533.2473     3048.625     29.26967 -0.019604291 -0.0099795498 -0.012750652 
  474000    266.62488    3033.3165     3048.625    25.637231 -0.0070204566  0.014073847 -0.014239382 
  475000    246.66149    3127.2029     3048.625    25.984335  0.031322755  0.018194018 0.0088586718 
  476000    250.84661    10123.294     3048.625    29.344184 -0.013280562  0.040741257 -0.0082663083 
  477000    246.54354     9726.282     3048.625    32.280695 -0.032907099  0.026343815  0.021652938 
  478000    243.13302   -421.99618     3048.625    30.213337 -0.020669358 0.0039327298  0.024155614 
  479000     260.8772    7985.1078     3048.625    23.086144 -0.013915222  0.003490245  0.013926076 
  480000    242.77058    9103.0596     3048.625    16.706833  0.015068319 -0.019926183 -0.013721205 
  481000    246.29441    7268.9895     3048.625    17.102297 0.0042365825  0.010100354  0.012790803 
  482000     240.9744    13013.126     3048.625    22.418547  0.010818667  0.022259405 -0.0098244462 
  483000    258.09929    9094.6316     3048.625     28.53388  0.011075299  0.021771371 -0.0018245276 
  484000    252.23547    2117.4877     3048.625     31.01155  0.013052336  0.016170523   0.01925525 
  485000    258.68842    10952.202     3048.625    27.301349 0.00091173483  -0.02652117  0.019291732 
  486000    261.27465    13327.772     3048.625    20.469776 -0.0085188879 0.0055234588 -0.0057193732 
  487000    248.48468    3101.8662     3048.625      16.8097   0.03829886 0.00055263493  0.012296286 
  488000    245.85569    8273.4156     3048.625     20.51969 -0.0016371053  0.020279428 -0.0080768386 
  489000    234.30067    7877.8161     3048.625    25.183749 -0.019453913 -0.027698777  0.010150546 
  490000      259.293    5633.8017     3048.625    29.263844 -0.002786233 0.00064870447 -0.031165023 
  491000    249.22086     8430.986     3048.625    32.437611 -0.014804559 -0.020946375 -0.010556201 
  492000    247.34363    5788.3306     3048.625    32.133832 0.00039130295 -0.021338701 -0.024540988 
  493000    230.01671    7030.8835     3048.625    27.928356  0.015248576 -0.028807892  0.018855897 
  494000    240.23809    10979.541     3048.625    22.640068  0.011918893 -0.0061447551 -0.020118471 
  495000    253.36002    6910.5093     3048.625    19.397692 0.00039361089  0.012401453 0.00053579646 
  496000    251.50587   -783.58064     3048.625    22.754736  0.008323428 -0.010357044 0.0042889552 
  497000    255.67216    8039.2519     3048.625    29.350274  0.017248829 -0.0079780317 0.0034327423 
  498000    232.47166    7951.6026     3048.625    35.738767  0.010062465   0.01403093 -0.0093376544 
  499000      261.991    2986.2336     3048.625    34.880372 0.0033856952 -0.0046989956  0.011931391 
  500000    256.89054    9294.1441     3048.625    28.649544 0.0005460186  0.037000709  0.022946213 
  501000    229.05147    9444.6065     3048.625    23.305814 -0.023376403 -0.0071430452 0.0048329768 
  502000    239.85423    6735.6988     3048.625    21.121239 0.0067475262  0.010149669 0.0066745109 
  503000    240.33352    10071.409     3048.625    22.656214  0.033171519 -0.0039506487 -0.00071737261 
  504000    230.50535    10399.581     3048.625    27.472258 0.0021640878 0.0095368702 -0.0013772802 
  505000    253.79423    7014.4059     3048.625    31.777328 -0.018465638 -0.00077484535  0.011294732 
  506000    239.76992    10028.118     3048.625    30.604885  0.014018349 -0.00039665954  0.010254428 
  507000    232.38868    15304.398     3048.625     23.52721 0.0052951996  0.039456539 0.0081478084 
  508000    270.99799    347.98913     3048.625    19.348152  0.035461884 -0.0033994966 0.0055084478 
  509000    219.04285     11545.35     3048.625    18.919287 0.0041438781 -0.0024245443 -0.004532184 
  510000    244.78017    8994.3411     3048.625     21.41281 -0.012480084 -0.013489572 -0.012722776 
  511000    254.24389    7203.9453     3048.625     25.57936  0.017432876 -0.0018954688  0.027080194 
  512000    275.99334    1268.4999     3048.625    28.765001 -0.0053424049 -0.024237508 0.0085861336 
  513000    237.27068    9869.9253     3048.625    29.767451  0.015317571 0.0073257527  0.019233747 
  514000    256.08149    10635.265     3048.625    27.807682 -0.012559845 0.0013936078  0.007662106 
  515000    255.56948    637.91583     3048.625    27.252549 0.0025221501 -0.00069023471  0.013737307 
  516000    241.21742    12202.117     3048.625    26.810271  0.017234311 0.0023894628 -0.0048206566 
  517000     261.5462    9216.9932     3048.625    24.709941  0.016901606 -0.017519183 -0.023660281 
  518000    247.03426    1680.8231     3048.625    22.091067 -0.0022990832  0.027220426 -0.013927773 
  519000    248.13283     8889.744     3048.625    18.901348 -0.047768036 -0.004022743 -0.022302089 
  520000    219.50983    16760.663     3048.625    19.191852 -0.024103328 -0.018106542  -0.02869221 
  521000    251.25377    4781.0777     3048.625    22.132524 -0.016615589  0.008765657 -0.000994837 
  522000    232.98759    8716.0946     3048.625    25.229741 0.0027600524 0.00018307905  0.038847243 
  523000    245.10809    12461.384     3048.625    26.367865  0.013271553 -0.017625672 -0.015394629 
  524000    259.03201   -1050.0233     3048.625    27.781263 -0.024595302  0.026467791 -0.020862323 
  525000    242.32882    12303.311     3048.625     28.92411 0.0051443817  0.019719029  0.013477557 
  526000    243.00946    5863.5703     3048.625    32.774459  0.026590739  0.010926032 -0.0027573006 
  527000    246.74413    155.01249     3048.625    35.117382  0.019875878 0.0056584661 -0.020106164 
  528000    234.45878    18458.307     3048.625    33.484523  0.014949897 0.0081584776 -0.022249981 
  529000    230.45502    3952.6178     3048.625     29.72948 -0.029178841 -0.0080418591 0.0047680715 
  530000    241.64637    11405.361     3048.625     27.44266 -0.011429519 -0.040838252 -0.0002688565 
  531000     259.0433    8173.2557     3048.625    28.748078  -0.03492424 -0.026639185 0.0083563893 
  532000    279.66468    264.51665     3048.625    32.835837 -0.0013760699  0.023978369 -0.012993416 
  533000    247.10618     8955.796     3048.625    35.006673  0.001203418  0.010930633 -0.0062137473 
  534000    240.65129    8822.5341     3048.625    33.184017  0.032141861  0.026663588 0.0028407699 
  535000    247.70765    1444.5381     3048.625    31.335587 0.0070891559 -0.0028833789 0.0065366661 
  536000    256.72806    7959.7265     3048.625    33.321457 -0.0020314852 0.0013161372 0.0025375993 
  537000    256.52707    6411.4052     3048.625    35.923328  0.011826007 -0.014289162  0.012114282 
  538000     254.5643    2763.0448     3048.625    35.545261  0.012559864  0.016006074 -0.011405457 
  539000    250.09723    7554.6684     3048.625    34.431762  0.042770112 -0.014965952  0.011487712 
  540000    249.02876    9480.3067     3048.625    34.953566  0.034439157 -0.014268452  0.028005412 
  541000    249.97573    7352.1411     3048.625     35.69316 -0.00029264179 -0.026866773 0.0029345271 
  542000    266.68295    7337.6152     3048.625     34.34535 -0.031882781 -0.024987728 -0.00092219769 
  543000    234.48389    6032.8141     3048.625    30.654938  0.016878213  0.047791787 -0.037267364 
  544000    232.26909    3355.4278     3048.625    24.540265  0.027839034 0.0095374327 -0.016436604 
  545000    261.55139    12714.956     3048.625    20.755422 -0.045926465  0.012286888 0.0026196311 
  546000    266.74869   -1660.5743     3048.625     23.80414 0.0059650742 -0.028222287 -0.010643742 
  547000    255.56729     3891.574     3048.625    29.664778 -0.013484175  0.025961777 0.0084123686 
  548000    238.59407    7781.4117     3048.625    32.423993   0.01733238 -0.021183839  0.011977915 
  549000    225.94611    12030.054     3048.625    31.417289 0.0020030292 -0.020569698 -0.014558233 
  550000    227.94679    9440.9009     3048.625    26.235101 -0.024859631 -0.017421047 -0.027035783 
  551000    236.70656    7485.8678     3048.625    20.416943 0.0063098289 -0.005551729 -0.023375368 
  552000    240.50031    11037.482     3048.625    18.444825 -0.016471784 -0.010600997 -0.0027713481 
  553000    236.90906    10215.336     3048.625    20.524589 -0.011672599 -0.006801518  0.031946087 
  554000    238.89757    10690.736     3048.625    24.063366 0.0067716736 -0.018011366  0.022397749 
  555000    265.44378    3821.6414     3048.625    25.982676 -0.0053460474  0.010201044 -0.015520149 
  556000    251.04144     5530.064     3048.625    26.657922 -0.032620867 -0.058778388 -0.031124051 
  557000    241.27215    8719.0015     3048.625    25.108729 -0.012086799 -0.0021803098 0.0015416673 
  558000    233.88361    6216.9443     3048.625    22.998205 0.0078168414 -0.013496017 -0.021176719 
  559000    233.96549    13511.163     3048.625    22.664292  0.022433681 0.0096444944 0.0061957829 
  560000    249.93311     3463.113     3048.625    25.744533  0.020768345 -0.0027662929 -0.0086443508 
  561000    254.27633    10873.085     3048.625    27.259777  0.013514746 -0.033063363 -0.044912462 
  562000    247.77872    4972.8528     3048.625    23.745639  0.036222136 -0.0088393903 -0.0089703555 
  563000    261.24112    1688.5651     3048.625    23.114257  0.015106811 -0.013009986  0.038059637 
  564000    241.47901    7629.8457     3048.625    28.631081 -0.015630715 0.0009979923 -0.041043821 
  565000    252.40179    731.02665     3048.625    34.075284 -0.011682714  0.019203472  0.023988439 
  566000    254.94213    6095.4584     3048.625       31.944 -0.010521865 0.0035290706   0.03556382 
  567000    270.36932    4743.8251     3048.625    24.422923 -0.0092891517 0.0022660093 0.0017468808 
  568000    264.86558    -908.2895     3048.625    20.356724 -0.022850689 -0.0062675447 0.0054903277 
  569000    263.02163    7579.7208     3048.625    22.720351 0.0017457731 -0.0079179991  0.011517856 
  570000    269.70686    8734.1103     3048.625    27.251993 -0.015170097 -0.0072717627 -0.0055147368 
  571000    260.14678    3770.0513     3048.625    26.525663  0.017753731 -0.027734351 -0.0016475617 
  572000    265.12173    5177.6464     3048.625    22.748113 -0.003613156 -0.011389874 -0.013103327 
  573000    250.68308     8266.993     3048.625    20.225158 -0.00045685598  0.026558496 -0.058311633 
  574000    260.35547    4414.9813     3048.625    21.106175 0.0031426335  0.017110177 -0.060428269 
  575000    256.03974    4367.5881     3048.625    25.708249 -0.0038410734 -0.039188312  0.014137891 
  576000    265.15138    12058.418     3048.625    29.654112 -0.0046329345 -0.0027376334 -0.0024576069 
  577000    238.15565    1658.1216     3048.625      28.9735 -0.0061274519 -0.0065491221 -0.015121326 
  578000    246.58028    5977.8832     3048.625    25.923875 0.0063025016 -0.0017186949 -0.0058731285 
  579000    259.87094    4748.3482     3048.625    25.908086 -0.037893842 -0.016901754  0.012935198 
  580000    240.03633    3380.4374     3048.625    29.600671 -0.015066747  0.012623497 -0.049451023 
  581000    247.15561    9957.4749     3048.625    32.959038  -0.02565741  0.029085652  0.025247643 
  582000    264.10825    -1037.273     3048.625    31.990637 -0.0045931454  0.001645063 -0.001007778 
  583000    260.70404    5802.8542     3048.625    28.576255  0.018159488  0.011789539 -0.0059577144 
  584000    253.10554    3875.3614     3048.625     27.42561  0.032936618 0.0091832679   -0.0161546 
  585000    265.60852   -387.72319     3048.625    28.856333 -0.0015086317  0.048106967 -0.034538212 
  586000    263.45111    8846.5784     3048.625    31.277639 -0.00088640867  0.021348056 -0.0032910549 
  587000     268.9587    9916.6925     3048.625    32.832192 -0.024003916  0.031374423 -0.007393566 
  588000    249.72115    3185.4452     3048.625    33.348835 0.0070885818  0.011056137 0.0053908586 
  589000    238.51436    8082.6529     3048.625    31.151927 -0.022218661  0.032810431  0.029964455 
  590000     261.2696    9763.3808     3048.625    28.758111  0.047845877  -0.02898987 0.0074540521 
  591000    249.96912    2729.9623     3048.625    29.713516  0.020015627  0.018731079  0.039706664 
  592000    264.41291    1186.9629     3048.625    32.669572 -0.0062759395 -0.046320841 0.0076991196 
  593000    262.32493    7132.3479     3048.625    31.832372  0.015144599 -0.0031922236 -0.045819212 
  594000    252.91512    7371.0091     3048.625    27.139285 -0.0050111568 0.0052367305 -0.0042348635 
  595000     263.5834    2264.6708     3048.625    21.872238 -0.018330472 0.0096491665 0.0080556761 
  596000    256.63835    5381.3384     3048.625    19.357501 -0.010092687 -0.012142102  0.031279472 
  597000    237.40791    4959.1957     3048.625    19.984968 -0.025495321 -0.012422666  0.013650126 
  598000    239.26853    13966.155     3048.625    22.880384 0.0011118773  0.018351344 -0.0078491437 
  599000    250.21972   -7.2016877     3048.625    28.177075 -0.0022523786 8.7677852e-05 -0.014004904 
  600000    258.31665    7131.5411     3048.625    31.360355 0.00048592494 0.0094925999 0.0037589767 
  601000    247.47735    5463.1358     3048.625    32.856995 -0.0079683181 0.0037234941 -0.0078706169 
  602000    246.84073    4753.2815     3048.625    33.458748  0.024987004 0.0085881194 0.0049753211 
  603000    241.74945    12264.082     3048.625    30.144145  0.022601074  0.033861263  0.031295435 
  604000    260.58514    2006.4416     3048.625    25.266942  0.026838913 -0.0075875315 -0.058888391 
  605000    249.02391   -701.27316     3048.625    22.777799 0.0052711021 -0.012022354 -0.023432345 
  606000    254.44746    14993.749     3048.625    25.540389 -0.010087772 -0.014488078  0.022486581 
  607000     248.5915    7713.3812     3048.625     31.97355 -0.030682021 -0.0018790154 -0.016083789 
  608000    235.89129    4916.5849     3048.625    33.711172 -0.0045078585 -0.021752123  -0.02565958 
  609000    253.10673    7586.5323     3048.625    26.476653  0.010631563 -0.018470338 -0.00098216378 
  610000    233.23133    9164.6956     3048.625    18.398918  0.023003953 -0.0028245419 -0.012783825 
  611000    250.31719    9834.3007     3048.625    19.819664 -0.016662298  -0.04282445 -0.035256676 
  612000    251.18512    4680.6377     3048.625    27.078988 -0.014839052 -0.017802579  0.027986584 
  613000    254.26544    4939.4876     3048.625    33.470461  0.024878023  0.015775535 -0.0063632923 
  614000    264.99774     8700.508     3048.625    34.661216 -0.0090895262  0.031200797  0.021563469 
  615000    258.73227   -353.66677     3048.625    29.885835  -0.02117502 0.0073186077 -0.0052882039 
  616000    254.89339    10219.855     3048.625    24.686613  0.011551004   0.02366448 -0.0037218434 
  617000    256.56348    7492.7596     3048.625    25.187953 -0.041528944 -0.049756539 -0.0089986592 
  618000    248.98983    3569.8221     3048.625    30.440619  0.020264582 -0.023145821 -0.021771552 
  619000    246.23739    8199.6087     3048.625    33.259698 -0.016634634 -0.0039098368 -0.016320093 
  620000    241.67727    15436.284     3048.625    31.964605  0.010998491 -0.0089488871  0.023868929 
  621000    241.72823    12722.902     3048.625    28.466684 0.0077438514 -0.029738381  0.023338092 
  622000    238.26287    2353.5598     3048.625    23.606748 0.0062257087 -0.015992303  0.010034844 
  623000    257.82086   -4011.7596     3048.625    20.278149 -0.0025379493  0.017732757 -0.0037183118 
  624000     241.8077    13348.973     3048.625    19.551104 -0.034597199  0.039800252  0.010823114 
  625000    238.60416    12002.401     3048.625    22.897669  0.011439444 -0.010024231 0.0066714079 
  626000    252.18452   -1748.7472     3048.625    27.780472 -0.010096211 -0.0010669373 -0.0084012752 
  627000    240.52302    9507.5867     3048.625    29.839768 -0.016161779 -0.036577022 0.0032875095 
  628000    252.32275    12008.389     3048.625     28.82895 0.0090303764  0.027018717  0.015237291 
  629000    249.16233    5554.2872     3048.625    25.877087  0.012547458 -0.0059575873 -0.003560923 
  630000    219.21895    14917.714     3048.625     23.96858 -0.0029675791 -0.048564434  0.025946023 
  631000    252.89007    10097.257     3048.625    25.131736 -0.012301088    0.0105216  0.015661779 
  632000    262.52359    867.07843     3048.625    28.999861 -0.0039126188 -0.021413367 0.0053440962 
  633000    253.41927    4045.1571     3048.625    32.202731  0.019498883 -0.0034198906 0.0091857169 
  634000    269.93953    4701.0728     3048.625    32.767653  0.030796914  0.014814299   0.01264084 
  635000    264.48391    7554.2902     3048.625    32.286779 -0.0068058875 -0.00078012987  0.025054094 
  636000     238.9921    -2973.563     3048.625    33.163968  0.035177592 -0.039879739 -0.0058980635 
  637000      249.993    9968.9778     3048.625    33.691032 -0.034783094 0.0032988907 0.0061153813 
  638000    251.04407    8036.7002     3048.625    35.062015 -0.00021129647  0.031022954 -0.012365052 
  639000     252.2792    65.880767     3048.625    35.029246  0.014461615  0.013295895  0.027382813 
  640000     239.5911    10944.167     3048.625    32.182194 -0.0084448344  0.010290569 -0.011092406 
  641000    264.34367    10352.125     3048.625    31.004082  0.017088224 -0.0047532013 -0.023537487 
  642000    256.00847     8220.105     3048.625    32.879691 -0.0051389878 -0.016923447 -0.028380349 
  643000    244.22382    3309.8867     3048.625     34.81021  0.046319129 -0.0003537408  0.032188094 
  644000    246.00363    15140.431     3048.625    36.108702 -0.0054859096 -0.00027696174 -0.038815038 
  645000    251.00552     9375.169     3048.625    36.005923 0.0075348988  0.021600412 -0.022705553 
  646000    240.57223    1667.4302     3048.625    34.900482 -0.0092454571 -0.018370936  0.014241232 
  647000    259.11629    9803.5885     3048.625    31.985219 -0.0091961888 0.0061695131 -0.0081280758 
  648000     281.0174    4567.5424     3048.625    29.975653  0.012809808 0.0069372652   0.01194262 
  649000    250.44986   -2934.9261     3048.625    29.773634 -0.008937199 -0.016609542 -0.010712075 
  650000    242.09096    14386.882     3048.625    30.249923 0.0042318807 -0.024128028 0.0096200608 
  651000    250.04006     3826.821     3048.625    29.981745 -0.0049129085 0.0050048132 -0.0025832355 
  652000    237.08628   -1719.5762     3048.625    28.593737  0.016825055 -0.020383927  -0.01000377 
  653000     250.4297    14510.474     3048.625    27.972443  0.029175646 -0.010925984  0.023535883 
  654000    240.82617    11983.555     3048.625     30.22423  0.027560704 -0.018403298 -0.0046883103 
  655000    248.05591    280.53465     3048.625    32.869066 0.0018051029 -0.024553252 0.0099371427 
  656000    236.23697    7630.6825     3048.625    33.453121  0.023442983 -0.013954717  0.026827846 
  657000    248.07355    14551.551     3048.625    31.591165  0.022103326 0.0017711338 -0.0068100082 
  658000    247.81971    1413.3361     3048.625    29.714609  0.021318916 0.0041920725 0.00090107686 
  659000     242.7531    5149.0075     3048.625    29.642183 0.0014190291 0.0092208042 -0.0059077906 
  660000    245.72646    9790.2324     3048.625    29.977433 0.00041445213  0.047704637 -0.011341457 
  661000    253.18778    4609.9213     3048.625     28.62926  0.013834555 -0.0028252399 -0.0060742321 
  662000    244.41501    6118.0113     3048.625    27.196867 -0.012928622 -0.0025633266  0.027035069 
  663000    257.35554    5180.6557     3048.625    26.359811 -0.0067613028  -0.01949647 -0.026910625 
  664000    250.69837    7072.4619     3048.625    24.357118 -0.002711993 -0.0078360548 0.0098276018 
  665000    265.86374    6366.3387     3048.625    21.915832  0.018192592  0.006911694 -0.0080446657 
  666000    236.82308    4125.0577     3048.625    21.896217  0.034328107 -0.002049281 -0.030200784 
  667000     245.2485    7956.3318     3048.625     24.00859  0.017507251 0.0043263093  0.012658465 
  668000    232.20016    12319.889     3048.625    24.818021 -0.0030204884  0.022682808 -0.0080459481 
  669000    247.86398    5082.6068     3048.625    21.518392  0.018761345  0.010770802 -0.033662693 
  670000    226.62191    12115.121     3048.625    17.845899 -0.017470481   0.01699145 -0.029781428 
  671000    231.63787    4691.9247     3048.625     18.81508  0.016936895 -0.053884878 -0.020037659 
  672000    219.33536     7500.811     3048.625    22.927015  0.012560197  0.011849272 -0.0041283214 
  673000    220.57215    11652.351     3048.625    28.413268  0.020209934 -0.013654375 -0.0098956007 
  674000    230.14417     11537.36     3048.625    31.115037  0.029830188 -0.042499399   0.01140294 
  675000    262.14419    2861.5701     3048.625    30.937599  0.014209003 -0.0071226854  0.033008191 
  676000    257.88794    8363.9356     3048.625    27.772071 -0.013738445 -0.0025541029 -3.9413876e-05 
  677000    222.28932    8591.4032     3048.625    26.141221  -0.01715835 0.0030066493 -0.018946036 
  678000    237.10483    9678.9596     3048.625    27.645461 -0.028356656 -0.024539543  0.013186406 
  679000    240.84226    3236.0856     3048.625    28.527191 -0.026916191 -0.028501322  0.021021201 
  680000    256.54681    8559.7319     3048.625    30.760043 -0.0056574251 -0.0066204086  0.045703295 
  681000    240.81073    5600.7754     3048.625    31.372822  0.009031931 0.00089423073 -0.0097092233 
  682000    243.10926    10158.326     3048.625    27.991602   0.01021637  0.019332912 0.0093264362 
  683000    228.58982    13026.729     3048.625    23.964847 0.0010967518   0.01470916 0.0096100381 
  684000    260.45336    4123.3917     3048.625    22.873299 0.00086312468 -0.0053330756  0.001986929 
  685000    245.12847    10548.527     3048.625    23.661188 -0.014945047 0.0094797894 -0.019135777 
  686000    217.88289    12649.876     3048.625    21.669957 0.0088735809 -0.0086933968 -0.024326209 
  687000    246.88342     6873.948     3048.625    20.681467 -0.011217872 0.0092462654 -0.0096765545 
  688000    246.46955    8810.5259     3048.625    22.445258 -0.033098036 -0.0041474615 0.0080784554 
  689000    262.46228    4253.1474     3048.625    26.810977  0.018544735 -0.021987552 -0.016866205 
  690000    241.47161     6313.139     3048.625    32.058301 0.0032952226 -0.016565059 -0.00018913478 
  691000    235.47314    8659.8144     3048.625    33.202694 -0.017084461  0.021268899 0.0054890937 
  692000    238.43253    5616.8032     3048.625    29.469834 -0.010981917  0.015548794 -0.019499782 
  693000    236.10624    5714.7848     3048.625    23.082756  0.016437992 0.0036827036  0.016907698 
  694000    236.67412    2788.5235     3048.625    19.890305 -0.025300652 0.0055281254  0.015724735 
  695000    241.00363    3686.3137     3048.625    21.790196  0.014870968  0.010750933 -0.0094457855 
  696000    253.94262    10654.037     3048.625    26.525144  0.027498791  0.021603349 0.0054629065 
  697000    253.67236    7483.3916     3048.625    28.473401 -0.0083618097  0.024175034  0.036744658 
  698000    242.00731    1316.8331     3048.625    25.825941  0.026824118  0.024596805 -0.00090518294 
  699000    258.63199    8762.8617     3048.625    23.242787 -0.017426049  0.050292669 -0.030951787 
  700000    251.88715    9976.2139     3048.625    22.382552 -0.0090173856  0.018965817  0.010505571 
  701000    261.68204    1133.3274     3048.625    22.415401 -0.0035084372  0.012538933 -0.023477212 
  702000    253.83106    11487.563     3048.625    25.997461  0.018774997  0.029476852  0.024971447 
  703000    263.41394    3904.7323     3048.625    29.110731 0.0016451296 0.0038457015  0.021483687 
  704000    264.87549     6048.935     3048.625    29.389435 -0.0085309826 -0.0021440052  0.013150611 
  705000    240.20568    5270.4195     3048.625    26.342826  0.010094454  0.006789991 -0.0014208708 
  706000    244.18522    7517.2954     3048.625    22.728725 0.00012055982 -0.0028067804 -0.014150723 
  707000    260.87495    7987.0396     3048.625    19.772152 0.0015543883 -0.00015380346 -0.012715843 
  708000    252.40319    117.89039     3048.625     21.66811  0.024776255 -0.008117554  0.058285504 
  709000    245.71853    6818.5041     3048.625    24.635068  0.026541125  -0.01107648  0.015954375 
  710000    237.58562    10765.335     3048.625    27.537175 0.0070040367  0.039395019  0.065003988 
  711000    251.60064    7761.0231     3048.625    30.571917  0.019424152  0.026081527   0.01292932 
  712000     242.1343    4714.7094     3048.625    28.907858 0.0026219531 -0.016524161 -0.005022227 
  713000    223.38914    7670.5159     3048.625    25.569122  -0.01210713 0.0023350378 -0.030624304 
  714000    232.84104    10243.322     3048.625    23.359463  0.015660185 -0.0095321771 -0.022978927 
  715000    238.90469    11222.328     3048.625    24.801424  0.018300815   0.01036311 -0.0062682228 
  716000    229.47279    9276.5697     3048.625    26.838945 -0.0031365242 -0.025483022 0.00095370435 
  717000    239.64846    5227.4057     3048.625    26.775553 -0.0061069569 -0.0067545978 -0.015950556 
  718000    230.23488    10400.359     3048.625    24.169639 -0.0076896789  0.012307285 -0.0062377797 
  719000    225.67808    6677.6422     3048.625    20.572958  0.013140627 -0.017834691   0.03333025 
  720000     226.2923    11110.697     3048.625    19.461585  0.021470819 -0.012085907  0.031942609 
  721000    233.34798    5786.2161     3048.625    22.117852  0.013087244 -0.00015865753  0.032217144 
  722000    237.33965    6752.5967     3048.625    26.568191 -0.0081570538  0.010909938 -0.0017679976 
  723000    264.65644    256.31157     3048.625    27.840676  0.013137796  0.010107297 -0.023245942 
  724000    240.05615    13120.379     3048.625    29.346678 0.0025625143 0.0074643422  0.019519723 
  725000    228.54922    1924.2708     3048.625    28.415773  0.027022193  0.002060321  0.016628189 
  726000    242.52628    8028.9198     3048.625    26.427971  0.034356149 -0.0077006089  0.037887912 
  727000    233.31651    10973.184     3048.625    24.644988 -0.019336493  0.011279103 -0.006694705 
  728000    232.53497    4478.0359     3048.625    25.497587  0.029988318 -0.0086279783 -0.0037993412 
  729000    229.17892    5790.6402     3048.625    26.814553 -0.031505348 0.0018151436 -0.0095110266 
  730000    252.64684    6661.7891     3048.625    27.785965 0.0072986228  0.037147024 -0.030306175 
  731000    246.08685    10434.039     3048.625    31.258817 0.0086593933  0.017778248 -0.020956789 
  732000    242.28767    8873.6182     3048.625    34.615253 -0.0088127936  0.023307504  0.021544718 
  733000    232.27335    11200.655     3048.625    35.167484  0.011227636  0.020813013 -0.0090418892 
  734000    230.45349    1477.6781     3048.625      32.0105 -0.014118792  0.020673722 -0.018736062 
  735000    240.28663    6259.0621     3048.625    28.410628 -0.015889823 -0.0017639635 0.0099355697 
  736000     259.7551    6574.5559     3048.625    27.486519 -0.016842937 0.0068047602 -0.0033482067 
  737000    260.83133    5495.6116     3048.625    29.228644 -0.0038586776  0.036984664 0.0040176545 
  738000    240.06079    7340.1428     3048.625    31.122032 -0.0080738042  0.018736446 -0.024848358 
  739000    248.87264    9075.4807     3048.625    30.475772 -0.016708126  0.024943693 -0.021494515 
  740000       237.87    11799.758     3048.625    27.395211 -0.014089332     0.018819  0.023909082 
  741000    232.86866    1318.1706     3048.625    22.359717  0.038239762 -0.0037080884   0.04175551 
  742000    247.32315    1765.4066     3048.625    22.559224 0.0071215052 0.00060241807 0.0078645241 
  743000    232.21775    9990.7868     3048.625     28.79585  0.019761808  0.042226367 0.0092249067 
  744000    215.10128    8298.0138     3048.625    32.598288  0.027763863 -0.013534562 -0.017421521 
  745000    240.45471    4519.1138     3048.625     33.09141 -0.0086185231 -0.00040562896 -0.011333986 
  746000    233.66542    7813.3396     3048.625    30.706485  0.023396816 -0.018158515   0.03549382 
  747000     266.2495    12919.399     3048.625    28.337404 -0.017954973 -0.0073808352  0.022577332 
  748000    245.45994    1427.5509     3048.625    30.529958 -0.0059495945 0.0079616913  0.016698415 
  749000    237.93187    3247.6739     3048.625    32.520999 0.0040807941 -0.038399053 -0.016636611 
  750000     245.2554    10529.861     3048.625    28.895991 -0.0094696876  0.015998316 -0.033676445 
  751000    247.72461    4517.2362     3048.625    23.223033 -0.003919282 -0.0064397726 0.0048191799 
  752000    238.90175    6969.4637     3048.625    23.330878 0.0094276606    0.0067503 -0.021882055 
  753000    238.96795    4429.7015     3048.625    28.895908 -0.044419306 -0.0072733116 -0.0074101056 
  754000    248.91847    7105.2884     3048.625    32.765323 -0.0097944982 0.0029028886 -0.012195691 
  755000    244.67504    12605.556     3048.625    30.959197  0.011666083 0.0027795577 -0.0020121137 
  756000    242.90677    489.76999     3048.625    26.243501 -0.0056559353  0.047782784 -0.017892681 
  757000    239.88451    3698.6732     3048.625    25.849439 -0.009531242  0.014414909 -0.015077051 
  758000    254.89572    7951.2276     3048.625    29.990312 -0.018930439 -0.024369759  0.010666702 
  759000    259.15719   -1278.4905     3048.625    34.536409 -0.0095443913 0.0094574217 -0.029315193 
  760000    254.18954    3089.0604     3048.625    35.077282  0.025219783  0.014876008   0.01326586 
  761000    247.52448    11094.079     3048.625    32.039538 0.0079551825   0.01492309  0.025000401 
  762000    242.03353    3056.4564     3048.625    29.283067 -0.0053886826 0.00020944454  0.053857505 
  763000    246.20487   -1266.1684     3048.625    30.191359 -0.024613525 -0.0046278966  -0.01505506 
  764000     243.8627    6319.8935     3048.625    33.334819  -0.02065922  -0.01196161  0.024416414 
  765000    253.69008    9497.2025     3048.625    35.003375 -0.033689267 -0.0045586283  0.021263338 
  766000    246.65069    5022.2929     3048.625    33.201961 -0.020159499 -0.021173007 -0.0090314581 
  767000    261.00475     2834.065     3048.625    29.753777     -0.01532  0.018236484  0.014104671 
  768000    264.37109    5579.5869     3048.625    30.797422 -0.016057981  -0.01178268 -0.044894163 
  769000    248.68965    7541.8855     3048.625    32.842758  0.031859277 -0.0050304138 -0.022370041 
  770000    251.28008    3082.5423     3048.625       33.648  0.021101312 -0.0040474491 0.0033919542 
  771000    241.91429    422.72884     3048.625    32.188675  0.021509838 -0.032584885 -0.0071241242 
  772000    246.01591    5974.8089     3048.625    31.550079 -0.032015068 0.0015999701  -0.02783342 
  773000    244.12575    9076.4952     3048.625    30.468997 -0.0030404916 -0.015400533 -0.030141013 
  774000    255.19126    4020.4107     3048.625    25.344568  0.040363459 -0.017684305 -0.012800116 
  775000    246.38429    4923.0346     3048.625    20.274137 -0.053944445  0.025828726 -0.0043535385 
  776000    239.44792    2572.2961     3048.625    20.583287 -0.0016127599  0.018381268 -0.015493408 
  777000     240.1315    2478.8107     3048.625    23.960099 -0.0036061915   0.02678972 -0.00017417104 
  778000    257.02355    9871.7529     3048.625    28.098467 -0.007727036 0.0076797243   0.01337847 
  779000    247.80909      4285.98     3048.625    30.725874  0.037824934 0.0049827004 0.0045792326 
  780000     242.5121    1802.4717     3048.625    32.549568  0.012370808  0.010297787  0.044606497 
  781000    242.32765    10590.397     3048.625    34.359963 -0.0056915462 -0.0061045687 -0.037258125 
  782000    249.23222    2950.1395     3048.625    34.145554  0.013554227  0.014443807 -1.7401776e-05 
  783000    242.92799    10838.695     3048.625    31.987683 0.0054346623 -0.008437652  -0.03210507 
  784000    246.04587    11608.689     3048.625    29.338436 0.0030977074  0.022581791 -0.0022507599 
  785000    241.99993   -302.76213     3048.625    28.392459 -0.0086607625 0.0057577362  0.010003476 
  786000     259.1896    2618.5679     3048.625    28.371062 -0.016410936 -0.040481916  0.025504291 
  787000    258.27019    4900.6697     3048.625    25.341641 -0.018730184  0.010181691 -0.0055040185 
  788000    247.95934    8915.2497     3048.625    20.215767 -0.010058825 -0.011291412   0.05766739 
  789000    238.32624    11387.893     3048.625     17.86281  0.040608136  0.027141472 -0.0021708091 
  790000    242.28923    3451.2248     3048.625    20.760604  0.020766245 -0.0027746952  0.040693436 
  791000    237.74924    6752.8533     3048.625    26.952059 -0.00057414117 -0.0041920674  0.040686453 
  792000    252.66768    15508.393     3048.625    30.929154 -0.0052667005 -0.010081081  0.018726345 
  793000    253.46852     4082.789     3048.625    29.612443 -0.0010386968 -0.013369575  0.011312898 
  794000    254.67682   -790.17234     3048.625    26.725548 -0.023275875 -0.019953325 0.0039809931 
  795000    244.14719    8798.3443     3048.625    27.118906  0.039433746 -0.035757111  0.022846775 
  796000    250.61442     10507.37     3048.625    30.803798 -0.030314051 -0.005956083 0.0045272251 
  797000    246.83997   -389.31359     3048.625    33.974224 -0.0063654811  0.021910986 -0.0069843411 
  798000    253.90264    4071.4678     3048.625    33.343102  0.007938963 -0.011046017 -0.014226677 
  799000    259.37372     13368.31     3048.625    30.339932 0.0066921275 -0.022019865 -0.013271454 
  800000    244.31629   -1112.3461     3048.625    27.956607 -0.0012586062  0.020903707 -0.0078659487 
  801000    226.68381    7365.3247     3048.625    28.725663 0.0068273636  0.043237743 -0.0021096149 
  802000    251.66473    12291.127     3048.625    29.944406   0.00620582 0.0011371911 -0.0086034895 
  803000    234.17634    6397.5386     3048.625    29.445747 0.00024949928  0.035302008 -0.018279569 
  804000    241.90658    1508.6999     3048.625     24.70962 -0.015735461 -0.022903396 -0.0091032264 
  805000    220.03374    9108.8243     3048.625    19.366616 -6.302906e-05  0.023243318 -5.6215589e-06 
  806000    237.36231    4889.0371     3048.625    17.665733 -0.017727978  0.016348148 -0.00022785696 
  807000    246.15349    2406.2212     3048.625    19.396632 0.0045227334  0.015458286 -0.010275225 
  808000    249.07433    6961.9318     3048.625    24.954585 0.0062996505 -0.020705563 0.0036763893 
  809000    231.42971    9088.6067     3048.625    28.027341 0.0081277685 -0.024443056 0.00057419329 
  810000    236.37491    1659.8976     3048.625    30.214016 -0.030999081 -0.007657356 0.0048636412 
  811000     257.1628    13412.161     3048.625     32.69909  -0.00900428 -0.0022243907  0.036097489 
  812000     258.8573    8525.2014     3048.625    33.772188  0.019431591   0.01074335  0.032237415 
  813000    237.45717   -6855.7496     3048.625    33.634962  0.017052309  0.012860635  0.035213571 
  814000    259.38492    11021.669     3048.625    32.574978 0.0094822113  0.028422757  0.043900965 
  815000    260.49702    9699.8643     3048.625       30.655  0.025283895  0.018775918  0.027906664 
  816000    228.63297    1342.6551     3048.625    29.893358 -0.024038023  -0.01881947 -0.022633881 
  817000    233.03872    1907.2378     3048.625    29.846726  0.048524265 0.0031403523 0.0027263586 
  818000    239.88815    14038.661     3048.625    32.065287  0.008710063 0.0013629474 -0.039740213 
  819000    247.24395    9838.5574     3048.625     33.92327  0.029204384  0.040937215 -0.015725725 
  820000    247.30574   -1751.1334     3048.625     32.75663 -0.0020057555 -0.00055760619  0.010556877 
  821000    242.81461    8789.4952     3048.625    29.182041 0.0025546457 -0.0018245173  0.011895675 
  822000    255.33963    7863.1277     3048.625    27.978292  0.021389134  0.015107034  0.018098826 
  823000    244.11738    1813.3762     3048.625    30.363367 -0.0015437132 -0.0028539064 0.0092252866 
  824000    244.80011    9165.9875     3048.625    31.827605  0.010744534 -0.028356986 -0.011660708 
  825000     235.9217    11219.627     3048.625    32.929311 -0.002690211  0.011749122 -0.0051872397 
  826000    249.99934    4038.8605     3048.625    32.340953 -0.0072487416 0.00077336298  0.033122443 
  827000    247.60038    6201.2997     3048.625    29.101868 -0.044178183 0.0056786066  0.004045024 
  828000    242.81733    9297.4101     3048.625    23.426941 0.0096551718 0.0073308246 -0.001178555 
  829000    234.00017    4895.7667     3048.625    20.190333 0.0018940962 -0.011384526  0.016904903 
  830000    243.24175    4542.9082     3048.625    20.692626 0.0016428318  0.022080956  -0.03619333 
  831000    250.93001    4895.8676     3048.625    24.621346  0.033142532  0.022585017 -0.017737618 
  832000    251.90047    4340.9847     3048.625    31.093768 0.0090999942 -0.0093602431 -0.033978394 
  833000    246.53644     3060.604     3048.625    34.597898 -0.030952925 0.0075189013 -0.0061335919 
  834000    239.84818    4113.2531     3048.625    33.822928  -0.03447209 -0.0070638978 -0.021341859 
  835000    240.59874    11835.599     3048.625    29.567199 -0.032206707 0.0056900505 -0.0061190362 
  836000    229.57983    1637.8502     3048.625    25.138769  0.018200225 -2.0995149e-05 -0.0093446313 
  837000    239.80064    7018.4044     3048.625    23.154598 0.0057803639 0.0036328977 0.0061602312 
  838000    237.92664     16247.63     3048.625    24.337209 0.0086709525 -0.028906962 0.0079281563 
  839000    224.89988   -7.6367813     3048.625    24.576769  -0.03554719 0.00071709664  0.023695714 
  840000    233.22544    4800.7295     3048.625    21.019656  0.038601928 -0.017224115 0.0058431895 
  841000    251.60687    12386.278     3048.625    18.028747 0.0022134226  0.013692552 -0.027053673 
  842000    246.49362    4565.1896     3048.625    18.845074 0.0084622669 -0.028270109 -0.032221178 
  843000    237.96994    3606.3501     3048.625    24.168248 0.0087706515  0.035886405 0.0040411776 
  844000    238.73131        11120     3048.625    29.880391 -0.022435446  0.009570314  0.028012171 
  845000    235.20173    9869.9898     3048.625    31.140662 -0.015193037  -0.01373143  0.029246476 
  846000    234.82832    6644.2169     3048.625    30.596981 -0.041993323 -0.025095488 -0.003644052 
  847000    243.51243    6272.9863     3048.625    30.102315 -0.012758687 -0.0064040271 -0.0028154219 
  848000    258.14385    8084.6922     3048.625    29.237381 -0.003394045 -0.013790961 -0.050704151 
  849000    260.81132     6735.248     3048.625    29.921082 -0.0023632633 0.0015744047 -0.013370565 
  850000    231.73334    10523.637     3048.625    28.878942  0.026176695 -0.0045452419 0.0054862053 
  851000    227.91802    3455.4267     3048.625    25.340641  0.033352323 -0.0007310868 -0.0094808714 
  852000    250.54788    9215.3995     3048.625    20.753637 -0.0078850867  0.015756125 -0.0013412878 
  853000     250.3452    6969.9496     3048.625    18.455702 -0.017844421 -0.031226537  0.003802325 
  854000    231.92482    2844.2152     3048.625    15.459577  0.035806388  0.016998715 0.00068216572 
  855000    242.10559    11866.034     3048.625    14.355974  -0.04527897 -0.0008990577 -0.030215888 
  856000    249.59226    7199.7681     3048.625      16.7174 6.9573078e-05  0.021643955 0.0098936689 
  857000     229.4726    6087.7139     3048.625    19.615811 -0.020687666 -0.0019008269 -0.017870504 
  858000    222.53901    11533.167     3048.625     20.48003  -0.01444046 -0.00086480926 -0.020709282 
  859000    227.58936    12845.433     3048.625    21.831243 -0.011967601  0.023421392  0.026394877 
  860000    233.48988    7491.3819     3048.625    23.357035 -0.0076998131   0.00185496  0.012554634 
  861000    244.24037    9048.0677     3048.625    23.837586 0.0080831287 -0.041622418 0.0063511942 
  862000    237.12323    5569.0102     3048.625    27.595298 0.0055289556  0.017006397 -0.018421437 
  863000    241.56442    5942.0271     3048.625    30.090382 -0.019259076 -0.0056490047  0.013945219 
  864000    236.85523    12391.153     3048.625    30.531108 0.0044012887  0.020762136 0.0078607427 
  865000    232.80285    9534.8463     3048.625     31.11115 0.0068787809  -0.02310961 -0.013397064 
  866000    220.32935     9289.944     3048.625     31.82365 -0.014812763 -0.0023078041  -0.02910388 
  867000    223.40004    8039.3559     3048.625    31.242286  0.011076094 0.0048416031 -0.015574604 
  868000    226.33808    6068.9655     3048.625    29.817666 -0.011668661  0.019400278  0.037954764 
  869000    240.88175     13708.41     3048.625    27.006508 -0.013771641 -0.011914116  0.013242785 
  870000    243.56369    1552.0126     3048.625    24.783923 -0.034725083  0.015778525  0.005374566 
  871000    235.15437    5289.4563     3048.625     23.27635 0.0093306532  0.010118321  0.008387777 
  872000    214.42387    18405.858     3048.625    23.630977 -0.00065502183 -0.013475244 0.0034068525 
  873000     241.8849    4891.0193     3048.625    24.152248  0.008737076 -0.016328425 -0.029397508 
  874000     234.3331       7100.8     3048.625    24.700116 -0.013628619 0.0031352212 -0.0018903834 
  875000    245.57438    9875.9732     3048.625    25.803572 -0.010732794  0.021359588 -0.004365364 
  876000    224.67602    6198.8616     3048.625     27.12436 -0.022290469  -0.03228038 -0.013082567 
  877000    251.51337    6098.7638     3048.625    28.677483 0.0024572849 -0.0085231315  -0.03548059 
  878000     237.2098     13191.69     3048.625    29.774145 -0.025269182 0.0036968061 0.0068430659 
  879000    242.39615    4899.7254     3048.625     30.01652  0.012708666 -0.0094930527 0.00052227028 
  880000    235.85554    9558.2063     3048.625    29.153497 0.0052589423 -0.053955678 -0.0007150424 
  881000    241.37017    7551.0879     3048.625    27.175146 0.0066090465  0.012874848  0.024992108 
  882000    234.36957    9204.9575     3048.625    26.195207 0.0099515763 0.0018068698 0.0078799566 
  883000    233.53623     5426.131     3048.625    25.337162  0.041644747 0.0064580616 0.0044193245 
  884000    214.20561    11171.313     3048.625    26.789823 0.0019429597 -0.021245425 -0.008125544 
  885000    222.70939    14052.437     3048.625    25.323589 -0.0050727807 0.0042239234  0.019033578 
  886000    230.27545     11523.06     3048.625     23.40004 -0.0016985562 -0.012807566 0.0029915202 
  887000     237.2622    11405.369     3048.625    25.248361 0.0057515124  0.012785076  0.028918139 
  888000     230.5602    5642.0796     3048.625    26.734898  0.010920772 0.00023701892 -0.00017350512 
  889000     238.5411    6131.9114     3048.625    26.090523 0.0010735056 -0.013711815 -0.024701974 
  890000    260.72116    7232.6425     3048.625    26.803227 -0.0038294194 -0.014098787 -0.011979295 
  891000    256.03008    4240.1348     3048.625    26.512629 -0.034169619 -0.00040134394 -0.022016544 
  892000    234.51742    3609.8491     3048.625    25.733891 -0.015202914 -0.013042762   -0.0214368 
  893000    227.15656    9389.2876     3048.625     26.42478 -0.0057068505  0.010192584 -0.014827765 
  894000    224.62023    11665.114     3048.625    26.989326 -0.026945855 0.0029700223 0.0026864607 
  895000    231.61283    5536.3809     3048.625    27.089956 -0.001911481   0.01480414 -0.011381883 
  896000    248.71539    10785.405     3048.625    28.417493 -0.019543478 -0.022269476 -0.0028442373 
  897000    250.04924    6430.0852     3048.625    28.125299 0.0016210993 -0.0076777065 -0.013634404 
  898000    250.71281    8939.0761     3048.625     27.20734  0.018150493 -0.023895144 0.0053669419 
  899000    242.76428    5656.6945     3048.625    27.862029 -0.035692451 -0.00054878418 -0.029147077 
  900000    243.50019    10679.285     3048.625    28.293566 -0.00041257118 -0.026168351  0.016845012 
  901000     236.5136    7760.6782     3048.625    27.486271 -0.037434446  0.024793839  0.018873479 
  902000    230.07765    1219.7618     3048.625    25.700121 -0.014156463 -0.0054953631  0.011458491 
  903000    254.93946    8556.2137     3048.625    22.848359 0.0040953688 -0.00056842516 0.00013083914 
  904000    231.90082    10133.851     3048.625    21.749608 -0.0082390975  0.025103418 -0.0086967565 
  905000    236.24835    3583.1361     3048.625    21.634072  0.004805344 0.0034222889 0.0056719136 
  906000    241.37292    7424.9901     3048.625    22.897327  0.023070667  0.007649801 -0.056352941 
  907000    240.23317    12511.603     3048.625    24.350969 -0.0079258248 -0.0033197607  0.027745296 
  908000    244.40032    6739.2672     3048.625    25.365814 -0.020844252 -0.023103701  0.032985987 
  909000    238.60001    3258.4479     3048.625    25.582606  0.022565742 0.0074297303  0.012300303 
  910000    236.81759    12394.792     3048.625    26.055012 0.0043331172   0.02546084 -0.0070705229 
  911000     250.5245    603.38377     3048.625    27.404178  0.019990041 0.0065227191 -0.0050517925 
  912000    217.53763    12150.453     3048.625     28.37543 -0.015836354 -0.003457803 -0.0032682142 
  913000     226.7013     11945.48     3048.625    28.703487  0.010651272 -0.0081097696 -0.019040502 
  914000     235.5853    3320.5617     3048.625    28.426857  0.011374649  0.018992652  0.015558987 
  915000    245.96797    8232.7766     3048.625    27.835472 -0.018694388  0.019813031 0.0031831296 
  916000    247.66567    9408.8044     3048.625    28.053639 -0.025530624  0.018048726  0.003961403 
  917000    228.21941    2775.6446     3048.625    29.330907 -0.007061417  0.027565866 1.7105354e-05 
  918000     234.2759    5954.0303     3048.625    30.202748  0.018340365 0.0033156193 -0.0027622179 
  919000    243.13218    7170.7091     3048.625    31.604122 0.0094011161  0.013921761 -0.023379617 
  920000     228.5812    7616.0235     3048.625    32.817213 -0.002845689 -0.0094966267 -0.016392211 
  921000    226.25205    10115.591     3048.625    33.184215 -0.007089545   0.01598821  0.019022101 
  922000    233.99543    6306.8168     3048.625    32.944584 0.0040402321 -0.014824824  -0.02205833 
  923000    238.09191    7998.0601     3048.625    33.143491  0.011840806 -0.022010789 -0.0056550612 
  924000    262.93489    4259.0643     3048.625    33.208036  0.013135732 -0.0035936417   0.01454669 
  925000    253.31367    2181.2074     3048.625    33.045553 -0.0031002861  0.002522611  0.011236105 
  926000    240.52222     801.3702     3048.625    32.286685  0.022495349  0.021229186 -0.0015856329 
  927000    244.51767    5104.5794     3048.625    30.403072  -0.03574758 0.0097233017 -0.027845163 
  928000    257.03312    3587.5759     3048.625    29.945238 -0.0091166773 -0.015047717 -0.010822058 
  929000    256.54057   -1067.5432     3048.625    30.855133 0.0076404838 -0.027441161  0.021701645 
  930000    244.80991    4216.5497     3048.625    30.612164  -0.01963787 -0.011387535  0.018699081 
  931000      239.557    8606.6305     3048.625    29.694514 -0.045284604  0.012942795  0.044078162 
  932000    248.54242    6737.2107     3048.625    29.150055 -0.055042107  0.031174479  0.022006061 
  933000    246.73811    3787.6435     3048.625    29.063503 0.0075993344 0.0039073803 -0.0061541315 
  934000    246.18054    5384.1269     3048.625     28.01456 -0.0076147049 -0.00084161252 -0.024722871 
  935000    250.95562    4575.3089     3048.625    27.264675 0.00019999509 -0.0010884043 -0.035412626 
  936000    236.99393    5813.8834     3048.625    30.250541  0.020245471 -0.0042525217  0.043719931 
  937000    247.69745    9531.4001     3048.625    33.289663  -0.01893743 -0.008991585  0.024188723 
  938000    246.12317   -1684.4548     3048.625     32.25996 -0.0082135852 -0.022829152 -0.0062258042 
  939000    240.83931    12552.066     3048.625    25.828735 -0.0045878502 -0.031161964   0.01102802 
  940000    241.21885    5455.1655     3048.625    20.337722 -0.017876105 -0.0079138202   0.01221512 
  941000    246.07263    140.05746     3048.625    20.181111 0.0096406221  0.012522208 -0.021544642 
  942000    238.86143    5841.3592     3048.625    26.492903 -0.0048259264  0.015816261 0.0033000052 
  943000    260.69481    6893.0922     3048.625    32.853207 -0.013143115  0.025216154 -0.0043429083 
  944000    261.64934    1977.8356     3048.625    32.918319 0.0046014925 -0.022337877 -0.014827337 
  945000    248.21575    2334.6224     3048.625    27.651663 0.00058970841 0.0047536748 -0.010212877 
  946000     245.3028    2244.1608     3048.625    23.060278 0.0053489152 -0.014687592    0.0133228 
  947000    248.14357    1154.1281     3048.625    22.769885  0.017382921 -0.0068853859 5.9416306e-05 
  948000    227.37658    9376.4514     3048.625    27.370937  0.003794672 -0.018969495 -0.019954591 
  949000    256.85065    2603.6515     3048.625    33.790295 0.0044948404 0.0052657672 -0.034653694 
  950000    258.44469    6491.7328     3048.625      35.1141   0.01531739 -0.026237418 -0.049415805 
  951000    226.68661    7039.6209     3048.625     30.00598  0.028034503 -0.00075750868 -0.0038876854 
  952000     261.5869    7165.5003     3048.625    23.484888 0.0011187037 -0.0054233352 0.0048887351 
  953000    236.82264    8040.4144     3048.625    21.309358 0.0062654907 -0.023499582 -0.018091566 
  954000    260.25038    1203.5292     3048.625    26.148421 0.0084135195  0.026646104  0.023839038 
  955000    241.26171    1360.6718     3048.625    32.450983 -0.012858192 0.0026513552 0.0064926172 
  956000    241.56376    13026.284     3048.625    33.898049  0.023624009 -0.011411052 -0.034515243 
  957000    243.30506    6970.1976     3048.625    30.504523   0.02190291 -0.0054612064 -0.019228237 
  958000    242.80227    5886.0565     3048.625    25.442537  0.015459441 -0.0037166183 -0.021562126 
  959000    242.69689    697.84185     3048.625    21.492567 -0.0098678445 -0.016098723 -0.027850472 
  960000    237.89314    9660.8616     3048.625    20.745469  0.017863634  0.015656127  0.018045757 
  961000    234.68619    5239.2448     3048.625    24.776484 -0.027117073 0.0079840367 -0.0003573247 
  962000    242.06065    465.66126     3048.625    27.893592 -0.010197722 -0.0099019422 -0.022487819 
  963000    240.10291    7988.1177     3048.625    28.297307  0.015684502 -0.0073898065  0.013942974 
  964000    240.83174    178.26512     3048.625    28.231554  0.025749653    0.0117912 0.0078337592 
  965000    238.86244   -603.44029     3048.625    28.570542 -0.022971726 -0.0015058734   0.01468265 
  966000    236.81098    6506.8713     3048.625    29.400724 -0.0073624078  0.030769336 -0.015888642 
  967000    231.34654    12231.459     3048.625    27.814866 -0.007463771 -0.0089528069  0.054363384 
  968000    259.01943    46.909261     3048.625    23.249425 0.0084968389 -0.0021418864 -0.015127532 
  969000    239.67793    2675.1403     3048.625    19.277405 -0.021455807  0.011893819 -0.026399692 
  970000    255.16718    13828.238     3048.625    21.049536 -0.00042428386 -0.025113381 -0.0072047514 
  971000    238.65674    3710.4879     3048.625    29.653485  0.025181377 -0.0064019163 0.0055937547 
  972000    247.94269    7077.1422     3048.625    35.756605  0.031372217 -0.024993076 -0.028152489 
  973000    224.45972    8560.8422     3048.625    33.609776 -0.0093168079 -0.0025486431  0.015386776 
  974000    247.31137    441.55305     3048.625    24.702924  0.010534236  0.032882638 0.0059585276 
  975000    245.61291    3932.3908     3048.625    16.025433 -0.026515099 -0.018550748  0.054189366 
  976000     252.1962    7140.6865     3048.625    13.111726 -0.033208119 -0.047396494  -0.01076117 
  977000    223.98133    3730.7933     3048.625    18.105948 -0.020666396  0.013181234 0.0026937674 
  978000    252.27522    2943.5923     3048.625    24.023284 0.0077993191 -0.011962346 0.0062426239 
  979000    247.11826     2141.539     3048.625    28.572349 -0.018737629  0.012224929 0.0060925272 
  980000    262.20154    4297.8127     3048.625    29.506559 0.0013078142 -0.018417617 0.0061416131 
  981000    241.71925    7283.4748     3048.625    23.930015 -0.0028735025 -0.0015877253 -0.031801939 
  982000    238.29825    1265.3754     3048.625    18.202349 -0.0037599168 -0.0066097435 -0.004458619 
  983000    245.22789    4199.9318     3048.625    18.535248 -0.0060505261  0.016852408 0.0036995379 
  984000    232.71754    10632.065     3048.625    24.667371  0.020391408 -0.000218843 0.0034454426 
  985000    253.58553     10027.56     3048.625    28.281954 -0.014382284 -0.036736357  0.020244187 
  986000    233.36231    2781.7433     3048.625    26.730963 0.00033946018 -0.0011539802 -0.015786441 
  987000    253.67482     6244.026     3048.625    23.646024  0.010091732 -0.023399705 -0.041730396 
  988000    258.31494    9355.2574     3048.625    24.421516  0.013402074 -0.0089185407  0.024037444 
  989000    247.18683    3664.3215     3048.625    27.408489  0.033411512   0.01044692 0.0098829949 
  990000    249.80587     4651.253     3048.625    28.414151 -0.013314456  0.024527837 0.0061371628 
  991000    239.22171    11595.728     3048.625    24.251142 -0.002009584  0.011951391 0.0066217304 
  992000     245.5327    6237.8032     3048.625    15.898659  0.017472057 0.0022565327 -0.0094090175 
  993000    250.13156    8225.3521     3048.625    12.477016  0.026900742 -0.008021008 -0.035882831 
  994000    252.30008    1791.3185     3048.625    16.876138 0.0097985953  0.025751207 -0.0035635894 
  995000    244.46857     2899.794     3048.625    25.511592 0.0046745771  0.039228588  0.021896417 
  996000    246.85372    4282.4038     3048.625    27.634253  0.002744543  0.019044458 -0.039124151 
  997000    247.64903    7116.3373     3048.625    23.289543 -0.0078556611 0.0075223609  0.018558299 
  998000    239.37392     7465.342     3048.625    20.393796 -0.028668092 0.0048376518 0.0069106387 
  999000    253.17188    3541.9824     3048.625    21.094526  0.019364891 -0.012810211 -0.016183835 
 1000000    249.20763    4479.5301     3048.625    24.960198   0.01599343 -0.052064529 -0.014648952 
Loop time of 10967.9 on 1 procs for 1000000 steps with 240 atoms

Pair  time (%) = 10819.3 (98.6456)
Bond  time (%) = 0.293699 (0.00267781)
Neigh time (%) = 51.5295 (0.469823)
Comm  time (%) = 30.1158 (0.274583)
Outpt time (%) = 0.212651 (0.00193886)
Other time (%) = 66.3922 (0.605334)

Nlocal:    240 ave 240 max 240 min
Histogram: 1 0 0 0 0 0 0 0 0 0
Nghost:    5823 ave 5823 max 5823 min
Histogram: 1 0 0 0 0 0 0 0 0 0
Neighs:    87906 ave 87906 max 87906 min
Histogram: 1 0 0 0 0 0 0 0 0 0
FullNghs:  175812 ave 175812 max 175812 min
Histogram: 1 0 0 0 0 0 0 0 0 0

Total # of neighbors = 175812
Ave neighs/atom = 732.55
Ave special neighs/atom = 0
Neighbor list builds = 6987
Dangerous builds = 0
#	run			10000
	unfix			1
	uncompute		myKE
	uncompute		myPE
	uncompute		myStress
	uncompute		flux
	uncompute		myDis
	unfix			JJ

	next seed
	next iseed
jump lmp.in.gk loop_seed
variable iseed loop 10
variable seed index 11111 22222 33333 44444 55555 66666 77777 88888 99999 11110
clear
###########################################################################
#x0
###########################################################################
units 			metal
atom_style		full
read_data		fort.26.nonbonded
  0 = max bonds/atom
  0 = max angles/atom
  0 = max dihedrals/atom
  triclinic box = (0 0 0) to (14.5 14.5 14.5) with tilt (0 0 0)
  1 by 1 by 1 MPI processor grid
  240 atoms
  0 bonds
  0 angles
  0 dihedrals
  0 = max # of 1-2 neighbors
  0 = max # of 1-3 neighbors
  0 = max # of 1-4 neighbors
  1 = max # of special neighbors
group         		C type = 1
60 atoms in group C
###########################################################################
#OLPS
###########################################################################

################################################################################
#### Pair potentials
################################################################################
pair_style hybrid/overlay tersoff lj/cut 12.0
pair_coeff * * tersoff C.4.tersoff 1 2 3 4
pair_coeff 1 2 lj/cut 0.0007000000 3.5500000000
pair_coeff 1 3 lj/cut 0.0007000000 3.5500000000
pair_coeff 1 4 lj/cut 0.0007000000 3.5500000000
pair_coeff 2 3 lj/cut 0.0007000000 3.5500000000
pair_coeff 2 4 lj/cut 0.0007000000 3.5500000000
pair_coeff 3 4 lj/cut 0.0007000000 3.5500000000
special_bonds lj 0.0 0.0 0.0 coul 0.0 0.0 0.0

#pair_style tersoff
#pair_coeff * * C.4.tersoff 1 2 3 4

#pair_style lj/cut 12.0
#pair_coeff 1 1 0.0700000000 3.5500000000
#special_bonds lj 0.0 0.0 0.0 coul 0.0 0.0 0.0
###########################################################################

#--------------------------------------------------------------------------
#variables
#--------------------------------------------------------------------------
variable   	dt 		equal 0.001
#--------------------------------------------------------------------------
#kappa parameters
#--------------------------------------------------------------------------
variable    	p 		equal 100000 	# correlation length
variable    	s 		equal 10  	# sample interval
variable    	d 		equal $p*$s 	# dump interval
variable    	d 		equal 100000*$s 	
variable    	d 		equal 100000*10 	

#--------------------------------------------------------------------------
variable 	T_run 		equal 300
#--------------------------------------------------------------------------

log 	log_heat_${iseed}.lammps
log 	log_heat_9.lammps
