	reset_timestep  	0
	fix 			1 all nve
	compute   		myKE all ke/atom
	compute   		myPE all pe/atom
	compute   		myStress all stress/atom virial
	compute   		flux all heat/flux myKE myPE myStress
	variable  		Jx equal c_flux[1]/vol
	variable  		Jy equal c_flux[2]/vol
	variable  		Jz equal c_flux[3]/vol
	fix       		JJ all ave/correlate $s $p $d c_flux[1] c_flux[2] c_flux[3] type auto file J0Jt_${iseed}.dat ave running
	fix       		JJ all ave/correlate 10 $p $d c_flux[1] c_flux[2] c_flux[3] type auto file J0Jt_${iseed}.dat ave running
	fix       		JJ all ave/correlate 10 100000 $d c_flux[1] c_flux[2] c_flux[3] type auto file J0Jt_${iseed}.dat ave running
	fix       		JJ all ave/correlate 10 100000 1000000 c_flux[1] c_flux[2] c_flux[3] type auto file J0Jt_${iseed}.dat ave running
	fix       		JJ all ave/correlate 10 100000 1000000 c_flux[1] c_flux[2] c_flux[3] type auto file J0Jt_3.dat ave running
	compute 		myDis all msd
	thermo_style 		custom step temp press vol c_myDis[4] v_Jx v_Jy v_Jz
	thermo			1000
	timestep		${dt}
	timestep		0.0010000000000000000208
	run			1000000
Memory usage per processor = 7.90665 Mbytes
Step Temp Press Volume myDis[4] Jx Jy Jz 
       0    365.85266   -248.87493     3048.625 3.0936294e-31  0.002593213 0.0043331468  -0.01256192 
    1000    374.04253    10332.721     3048.625    14.303436  0.062506987 -0.0068106734 -0.0029859194 
    2000    371.85952    12079.976     3048.625    28.735769  0.011334113  0.025971503  -0.00147046 
    3000    352.30455    9872.0603     3048.625    15.727199 -0.00026823821 -0.011972917 -0.0019021447 
    4000    354.89528    10888.218     3048.625    4.8546473 0.0078124218  0.016540587 0.0046453955 
    5000    366.81901    10581.242     3048.625    18.502466   0.05762633  0.073647518   0.02437909 
    6000     337.9316    17730.186     3048.625    34.003034 -0.032318336 -0.010290585  0.015551077 
    7000    362.85831     10414.07     3048.625    29.379452  -0.01247836 0.0059795081 -0.016808758 
    8000    301.47274    14752.126     3048.625    20.107695  0.022372966  0.031432615  -0.04534487 
    9000     381.8987    4226.9364     3048.625    20.026475  0.031015031 0.0050581785 0.0039421264 
   10000     334.6682    17937.489     3048.625    19.505954 -0.0012306077 -0.048009502 -0.015496041 
   11000     373.7545    6177.6923     3048.625    14.848341 -0.0077620496 -0.0038300695 -0.032008491 
   12000    361.24523    4576.4553     3048.625     18.09259 0.0064425936  0.091220738  0.015464745 
   13000    342.47575    13109.341     3048.625     26.42265 0.0069099659  0.042974479 0.0014874111 
   14000    323.60222    16046.788     3048.625    27.622958 -0.0065677428  0.021190496 -0.0060708658 
   15000    311.22312    23896.011     3048.625    25.109627 0.0031350731 -0.055114838 -0.010978129 
   16000    353.17338    3977.3995     3048.625    25.776082  0.027590435 -0.012496144 -0.023436396 
   17000    347.00361    24387.354     3048.625     26.49887  -0.01930796  0.034073257  0.024725373 
   18000    353.00925    10017.896     3048.625    26.472129 -0.0025905765 -0.014663445 -0.028258152 
   19000    372.25298    8467.7561     3048.625    21.054947  0.039979956  0.025060402  0.020068372 
   20000    363.86536    9107.6508     3048.625    19.546244   0.06353915 -0.0082509677  -0.02067603 
   21000    332.67881    11991.214     3048.625    25.755539 -0.018773491  0.020426812  0.046644667 
   22000    356.51345    11999.248     3048.625    32.238952 -0.024598476 0.0048184853  0.011265482 
   23000    359.75935    7114.1425     3048.625    32.007622 -0.026974736  0.045692345 -0.022057642 
   24000    339.57953    16034.448     3048.625    26.717795  0.013370838  0.020503378 0.0095357279 
   25000     325.4502     15999.48     3048.625    23.286622  0.011801466 -0.026463227 -0.0012335169 
   26000    375.89343    5443.1547     3048.625    23.362282   0.02358829 -0.055118208 -0.023504439 
   27000    361.30252    11137.026     3048.625    26.500279 -0.014009733  0.043528422  0.012629342 
   28000    322.15155     13702.08     3048.625    27.213382 0.0048255552  0.017972303  0.027007526 
   29000    362.37824    8530.3675     3048.625    22.759562 -0.00058927907 -0.016272412  0.022711205 
   30000    349.23794    8603.6218     3048.625    19.007677 -0.0012922236 -0.0017918259 -0.010775587 
   31000     343.8436    20131.932     3048.625    22.397139 0.0045165256  0.040241804  0.019196061 
   32000    340.93856    7858.9334     3048.625    28.331303 -0.0054943485  0.013965052 -0.044521011 
   33000    371.32901    19597.904     3048.625     31.52766 -0.011453162 -0.0023423461 -0.064984955 
   34000     298.7361    12598.634     3048.625    31.093552 -0.031700385  -0.01311241 -0.030620174 
   35000    371.98996    10201.893     3048.625    28.925666 -0.046360635  0.002383455 -0.013957757 
   36000    326.96233    16016.125     3048.625    29.570572 -0.022210743  0.014516263 -0.0021825102 
   37000    344.40342    8671.1117     3048.625    33.826097 -0.0017230998 -0.0005787675  0.017835489 
   38000    313.72307    14540.861     3048.625    32.949185 -0.017343051  0.028048301 -0.015668218 
   39000    329.12577    10045.257     3048.625    27.579357 -0.005352231  0.014490152  0.024434889 
   40000    331.41647    9793.6167     3048.625    25.557128  0.021607436 -0.032882791  0.016758567 
   41000     360.5208    13032.232     3048.625    26.244175 0.0093342363 -0.0051138327  0.018503796 
   42000    343.14758    12313.435     3048.625    30.411609 -0.0079046024 -0.0051129266  0.028081611 
   43000    359.17483    6550.4477     3048.625    33.304631 0.0011165798 0.0077003303  0.020354835 
   44000    340.64239     9895.277     3048.625    33.525907 -0.024342509 -0.0022996687 -0.0098098287 
   45000    354.95315    5423.9067     3048.625    30.971141 -0.034982343 -0.0021594462 -0.0048660238 
   46000    341.46796    20318.813     3048.625    32.491382 -0.017738499 -0.021257735  0.022750804 
   47000    355.31782     2389.919     3048.625    35.600868 -0.0058533663 -0.0086867517 -0.048902126 
   48000    335.32813    11249.772     3048.625    34.322031 -0.0048992898  0.007525659 -0.031361542 
   49000    347.90985    11616.348     3048.625    29.683907 0.0033648022 -0.063380149 -0.013920661 
   50000    325.57973     9674.027     3048.625    27.975936  0.011532288  0.013274312 -0.026439429 
   51000    356.35649    4344.5603     3048.625     29.45565 -0.0082248766  0.015379928 -0.015840145 
   52000    307.01555    14126.355     3048.625    30.834408  0.021669435 -0.014921652   0.01430964 
   53000    354.53059    8326.3058     3048.625    32.067356 -0.0029327012  -0.02161954 -0.014649143 
   54000    287.61674    21970.073     3048.625    32.211198 -0.089178092 -0.029762191  0.018379872 
   55000    306.90409    12723.973     3048.625    32.291287  0.041891919 -0.035897912  0.032510383 
   56000     315.5233    21949.268     3048.625    32.938279  -0.02198071  0.057433801 -0.027819873 
   57000    345.17225     13019.16     3048.625    33.110494 -0.024594781 -0.012125555  0.032958964 
   58000    358.04979    11431.072     3048.625    28.498013 -0.0029753952 0.0050198807 0.0050266255 
   59000    335.23873    9598.7968     3048.625    20.839916 0.0068614284 -0.00039473215  0.026944406 
   60000    324.04554    15650.011     3048.625    17.658186 -0.056533659 -0.032905503 -0.015009712 
   61000    339.07129    15619.976     3048.625    23.278514 -0.0089011396 0.0069412385 0.0003223196 
   62000     336.0574    13205.948     3048.625    32.085564  0.017577246  0.003904026 -0.012544118 
   63000    376.83907    1368.4297     3048.625    33.908127  0.036298732 0.0080640285 0.0028124391 
   64000    359.37124    9756.0578     3048.625    25.039369 -0.0077032436 -0.030883539 -0.00034702785 
   65000    347.08365    8810.7624     3048.625    19.246409  0.040713924 -0.053620314  0.017107204 
   66000    349.01303     8426.817     3048.625    25.393673 -0.019628765   0.02671675 -0.0036311846 
   67000    331.56736    18952.304     3048.625    33.614921  0.018756441  0.041315612  0.026000496 
   68000     355.7535    5737.2937     3048.625      34.9749 -0.019937628   0.01158436 0.0019272161 
   69000    345.32722    8348.3891     3048.625    30.980478  0.058079158  0.012779346    0.0151251 
   70000    335.98981    17766.295     3048.625     30.85982  0.027193716 0.0030135306 -0.016558045 
   71000    341.91851    7134.3272     3048.625    31.983396  0.011377388 0.0059456402 -0.025142639 
   72000    341.12448     9721.886     3048.625    27.964125  0.014626233  0.042092896 0.0070049497 
   73000     344.4275    9302.2739     3048.625    23.378018  0.032675944  0.022252895 -0.0098787825 
   74000    344.57045    11970.216     3048.625    24.715986   0.03764305 -0.0023785192  0.012307131 
   75000    330.29032    14375.852     3048.625    30.148265  0.021990528  0.023975353  0.020991435 
   76000    333.57721    5335.2866     3048.625    31.785414 -0.0054465338 -0.023649587 0.0085233561 
   77000    337.42966    13236.647     3048.625    31.583119  0.011270385  0.014558405  0.049331982 
   78000    353.02345    13470.145     3048.625    25.119314  0.013977025 -0.0056336673  0.019439903 
   79000    359.59573    3680.7238     3048.625    20.951569  0.038371757  0.003842271  0.018437067 
   80000    315.96853    15617.956     3048.625    25.802977  0.033835588 -0.012089347  0.016359278 
   81000    340.54282    4419.7804     3048.625    31.935042  0.030264564 -0.016020863 -0.0071187134 
   82000    339.91077    16656.987     3048.625    32.079635 -0.011886796 -0.0018353382 -0.013405182 
   83000    344.50235    6723.6205     3048.625    28.003213 -0.022551397 -0.017531206 -0.038385394 
   84000    323.48641    18109.459     3048.625    29.403555  0.016261562 -0.059154642 -0.010168994 
   85000    329.85787    8035.9346     3048.625    33.330478 -0.016078854  -0.01199998 -0.017247473 
   86000     326.0395    10685.225     3048.625    34.230117 -0.015777696 -0.0044871228 -0.039249065 
   87000    343.54214    15042.012     3048.625    31.297852  0.022787151 -0.0046959789 0.0019329589 
   88000     327.6101     14804.81     3048.625    27.367227  0.037723529 0.0023369062 -0.028462028 
   89000    337.64315    7063.3981     3048.625    32.610767 -0.019927565 -0.0078289108 0.0047214029 
   90000    333.76476    11619.034     3048.625    36.131076 0.0013691086  0.015845979 -0.020610596 
   91000    327.89736    6728.1528     3048.625    32.970178 -0.015387389  0.023648909 -0.023343688 
   92000    342.39864    9817.0462     3048.625    29.362445 0.0049074911 -0.010118742  0.064732176 
   93000    349.38657    11557.451     3048.625    30.344664  0.016891579  0.017694658  0.013912335 
   94000    342.45522    10974.664     3048.625    29.152531  0.055582199  0.053928726 -0.021448395 
   95000    348.67639    8404.4957     3048.625    24.811279  0.026035816 -0.0042280863  0.009261059 
   96000     350.6871    2469.1153     3048.625    26.953215  0.059622519 -0.047389932  0.011901672 
   97000    370.24331    5233.6486     3048.625    33.228778 0.0069758756 0.0032440129 -0.023750268 
   98000    370.14528    2636.6756     3048.625    32.486838 0.00094454506  0.005680651 -0.0067519591 
   99000    372.57701    16268.116     3048.625    24.790637  -0.08580559  0.018685225  0.041236691 
  100000    359.13396   -6268.0249     3048.625    24.179558 -0.0085406094 0.0040764902 -0.00095591762 
  101000    340.40833    14191.201     3048.625    27.643695  0.018471612 0.0030233054 -0.026193696 
  102000    338.51326    17544.992     3048.625    28.558075 -0.00049154737 -0.0080619849 -0.035455498 
  103000    332.60262    8809.7998     3048.625    27.587979 0.0078172228  0.020852908 -0.036528251 
  104000    367.81267   -362.08165     3048.625    29.374449 -0.005492575   0.01832227 -0.0091403973 
  105000    352.94338    13796.546     3048.625    30.654742 -0.0086432213  -0.01134362 -0.012805598 
  106000    338.39707    8423.6879     3048.625    29.006806 -0.028422029  0.021364784 0.0076202788 
  107000      313.725    10797.485     3048.625    27.155992 -0.012253086 -0.0023965731 -0.021396508 
  108000    341.59492     17874.29     3048.625    26.236633  0.040157638 0.0045613425 -0.020863443 
  109000    351.52768   -3459.8207     3048.625    27.197624 -0.014374898 -0.030138293 -0.0032954943 
  110000    346.07124    5977.6585     3048.625    29.033516 0.0063984914  0.023884268  0.024551725 
  111000    378.05588    10977.569     3048.625    32.515119 -0.051003645 -0.00052376377 -0.00059607631 
  112000    348.54241    3107.8838     3048.625    31.590116 -0.016699578  -0.04547821 -0.033572235 
  113000    365.13468     14379.63     3048.625    27.244649 -0.021302492 -0.0051890535 -0.017092537 
  114000    356.77505    -2295.414     3048.625    23.912308 -0.00029475329 -0.025114023  0.020059851 
  115000    349.29578    10313.755     3048.625    19.974754 0.0035595679 -0.0012795367 -0.037539919 
  116000    335.25405    17845.684     3048.625    20.423862  0.010201258 -0.011427568 0.0014210934 
  117000    348.63652    5835.4157     3048.625    24.298517  0.021579891  0.051397333 -0.020924626 
  118000    347.37451    5489.1208     3048.625    26.412099   0.02690178  0.048551198 -0.023192469 
  119000     343.2347    13196.307     3048.625    25.872699  0.020564003 -0.014616375  0.015538933 
  120000    338.49852    11574.143     3048.625    28.078936  0.043732437  -0.01617469  0.040553225 
  121000    346.15203    10365.068     3048.625    25.568512  0.013492336 0.0078362519 -0.0071534354 
  122000    360.32215    4897.0684     3048.625    25.693228  0.024537175  0.031898122 -0.011488554 
  123000     358.1732    8195.9877     3048.625    28.422037 0.0017860128  0.032691829 -0.027822741 
  124000    341.38244    6381.4445     3048.625    25.265002 -0.0011075894 -0.0018257426  0.054440732 
  125000    330.03989    5958.7388     3048.625    22.618903 -0.0070746659 -0.0084914442   0.01039912 
  126000    359.08283    7075.4344     3048.625    27.044796 -0.015810243 -0.025580186 0.0093285507 
  127000    366.40959   -903.70959     3048.625    23.399375   0.01882167 -0.059455872 -0.012249996 
  128000    370.79645    9879.3154     3048.625    20.463135  0.054026976 0.0070951023 -0.032189847 
  129000    364.10065    9881.9997     3048.625    27.916612  0.031210359  0.012069216 -0.0022911031 
  130000     347.0006    4286.5804     3048.625    23.856361  0.030633828  0.049509698 -0.028770551 
  131000    353.72675    7022.2904     3048.625    16.867886 -0.010627923 -0.00091491083 -0.023940309 
  132000     343.0215     9812.606     3048.625    27.343704   -0.0297426  0.020789335 -0.0074275191 
  133000    346.49856    4280.3924     3048.625    32.999041 -0.012169136 -0.040375871  0.021311782 
  134000    324.11476    15044.089     3048.625    29.146195  0.056069129  -0.02698068 -0.011779432 
  135000    349.79616    1188.8258     3048.625    25.611403 -0.011107939  0.013417647  0.034238421 
  136000     349.1549    8322.4212     3048.625     26.27901  0.017135728  0.012672093  0.039160539 
  137000    365.51922    1699.1128     3048.625    26.888785   -0.0138752 0.0042364474 -0.033650365 
  138000    351.74018    6070.7742     3048.625    19.599669 -0.0029130936 -0.024852395 -0.031773427 
  139000    338.55297    13975.981     3048.625    16.489533 -0.022144616 -0.026923133 -0.0098231463 
  140000    364.20847    2351.4087     3048.625    23.511571  0.013108516  0.037066049  0.014553601 
  141000    354.81391    4569.4788     3048.625    28.824742 -0.025512821 -0.012452342  0.014863765 
  142000    343.66774    8464.6057     3048.625    25.154047 -0.053043635 -0.024205646 -0.0071180325 
  143000    346.59087    4567.1492     3048.625     27.95323 -0.049074409   -0.0559068  0.014933766 
  144000    345.37683    11659.046     3048.625    35.717453  0.015063139 -0.0074987141  0.033565278 
  145000    359.22373    5340.7617     3048.625    33.142739 -0.022701472  -0.03622435 -0.010497742 
  146000    344.30463     9985.446     3048.625     25.67436 0.00023469177 0.0059454336  0.026049042 
  147000    320.50903    10487.713     3048.625    24.109624  0.021801125 -0.065194253  0.017090901 
  148000    355.98011    2044.5257     3048.625    25.754041  0.010616905  -0.01650291  0.031425861 
  149000    332.25215    13636.488     3048.625    25.878259  0.030305015   0.07615006 -0.055831103 
  150000    337.45962    8209.6703     3048.625    25.980474 -0.0081078948 -0.011193511  0.020713685 
  151000    333.94552    3982.9675     3048.625     28.27937 -0.002249227 -0.0025677676 -0.018827835 
  152000    317.59419    8194.1377     3048.625    29.342345  0.002842333 -0.026649486 -0.014349323 
  153000    348.36758    7953.5077     3048.625    25.357548 -0.0059711471  0.035972657 -0.029087285 
  154000    381.69071    4732.5609     3048.625    19.468045  0.042118722  0.037224545 -0.013450328 
  155000    359.78756    7673.9549     3048.625     19.43667 -0.0016463803  0.031983223 0.0047470717 
  156000     344.3412    4572.5063     3048.625    24.841013  0.010561654 -0.014921035 0.0083377455 
  157000    367.62861    10477.355     3048.625    29.556803 -0.010084398 -0.026347197 -0.032933081 
  158000    336.22629    7401.4637     3048.625     27.25571 0.0050134482 -0.020362579  0.028684415 
  159000    340.43595    1253.1558     3048.625    20.599419  0.016748357  0.026345895 -0.016189885 
  160000    336.54144    13741.267     3048.625    19.266626  -0.01749431 0.00095169954  0.055850369 
  161000    342.69425    11351.513     3048.625    25.469559 0.0086243518 -0.017724353 -0.0019406607 
  162000    344.13003    8747.0656     3048.625    31.200753  0.031679116 -0.0046051759 -0.012880808 
  163000    355.60873    4118.7158     3048.625    31.055679 -0.042502898  0.023490164  0.032768581 
  164000    348.86517    13397.374     3048.625    26.904016  0.017379516 -0.022614312 -0.026011264 
  165000    336.72554    8976.7064     3048.625    28.588532   0.03444792  0.087893095 -0.036104145 
  166000    321.07953    12229.842     3048.625    29.249573  0.021507595   0.02811681  0.016163919 
  167000    341.91896    6354.6286     3048.625    25.127061  0.005716615  0.005698539 0.0048340582 
  168000    327.26301    12698.226     3048.625     24.74765  0.013984827 -0.029228544  0.016998644 
  169000    346.64983    3030.3704     3048.625    28.132212  0.029298773  0.016436304   0.01992788 
  170000    338.36845    4689.6233     3048.625    32.068806 -0.026075039 -0.017228006 -0.025907656 
  171000    345.00573    7296.8017     3048.625    31.298322  0.028383443  0.030858688 -0.013401081 
  172000    347.68971    6342.5676     3048.625    26.298333 -0.014736593 -0.018375355 0.0096363967 
  173000    319.50538    7760.1279     3048.625     24.10691 -0.051381448  0.014244537 0.0099577651 
  174000    323.07397    15779.663     3048.625    27.118043  -0.01158739 0.0073590672  0.026223616 
  175000    342.12309    14467.286     3048.625    32.644049 -0.034824717 -0.0024276591 -0.019907309 
  176000    333.65036     4151.895     3048.625     34.40446  0.011691734 -0.017719437 0.00072059579 
  177000    338.75403    14210.337     3048.625     28.67075 -0.0055166583   0.02788492  0.010652806 
  178000    314.12945    8904.7233     3048.625    23.998217  0.027708049  0.025472368  0.016145157 
  179000    324.22603    10848.385     3048.625    25.933425 -0.0081761303 -0.0021838745 -0.0070374482 
  180000    348.68984    5555.2631     3048.625    31.388217 -0.0069764185  0.041343157  0.022621256 
  181000    348.90977    3522.0799     3048.625    32.873421  0.043304144 -0.020698044 0.0029073006 
  182000    322.03146    6340.9089     3048.625    30.945805 0.0097838542  -0.01137086  0.014147938 
  183000    351.40378    688.96415     3048.625    28.967253  0.045908169   0.02876904 -0.020680216 
  184000    345.82152    12231.636     3048.625    29.450848  0.024959017 -0.0034822849 -0.021064244 
  185000    345.12037    5754.6244     3048.625    29.079514  0.030221232 -0.0015328768 -0.0012564183 
  186000    342.02707    4165.5611     3048.625      29.1398 -0.0088217877  0.032303229 -0.034031643 
  187000    332.68878    8290.2731     3048.625    30.052419   0.01212687  -0.03786661 -0.028969233 
  188000    347.33038    5739.5075     3048.625    30.779031  0.039647039   0.01481403  0.025635348 
  189000    346.48265     11399.48     3048.625     29.76118 -0.021712289 -0.0025127966 -0.026946705 
  190000    342.55617    1669.9329     3048.625     28.58226  0.013482182 -0.018955211  0.023713192 
  191000     326.9782    11145.723     3048.625    27.660805 0.0075650963  -0.04415722 0.0016868898 
  192000    318.39451    6487.9843     3048.625     28.03991 -0.014015442 0.0090429836  0.034140934 
  193000     325.2917    14864.729     3048.625    26.815889 -0.028591041  -0.04137153 -0.0044304201 
  194000    353.48988    5048.5453     3048.625     23.47582 -0.0074068307 -0.011027673 -0.015267198 
  195000    321.92391    10541.497     3048.625    22.398303  0.020606138 -0.037266408  0.013348293 
  196000     315.9334    15329.961     3048.625    25.829798 -0.0069916055 -0.017651336 0.0017152024 
  197000    317.71299    5019.7124     3048.625    31.706486   0.01882817  0.018087441   0.01994782 
  198000    302.47447    20420.605     3048.625    34.673542 -0.048546244  0.014710276 -0.012282482 
  199000    317.31082    9833.4588     3048.625    33.362821  -0.01143194 -0.022925706 -0.013631137 
  200000     319.6348    12209.927     3048.625    28.174013 0.0040631429  -0.02365454 -0.028002605 
  201000    323.45808    19548.352     3048.625    25.979028  -0.04347053 0.00019020212 0.0053199362 
  202000    319.62076    5531.3076     3048.625    29.784956 -0.025145549 -0.015298323 -0.0093141504 
  203000    314.04574    13817.793     3048.625    28.337091 -0.033659023 -0.0099963359 -0.038253424 
  204000    314.32795    13127.288     3048.625    22.104185 -0.0074977806 -0.036640128 -0.0018899603 
  205000     335.2034    2408.3926     3048.625    22.938896   0.01321015 -0.0043655826 -0.018241426 
  206000    332.06424    15996.554     3048.625    30.634765 0.0083677885  0.036877822  0.010694112 
  207000    336.53797    10761.594     3048.625    30.292992  0.015886462 -0.00073042114 -0.014141692 
  208000    328.93179    5019.3353     3048.625    24.171994  0.043781503 0.0004317248 -0.0062465811 
  209000     350.2148    4508.2977     3048.625    22.570041   0.04732781 -0.034054778 -0.023063079 
  210000    313.48405    13901.139     3048.625    26.465351  0.049427879 -0.0080988661  0.017312255 
  211000    362.22329    1858.7944     3048.625    33.167086  0.041388824  0.036437468 0.0099990471 
  212000     371.1459     1691.049     3048.625    36.402463 -0.027819859  0.039434017  0.023630997 
  213000    337.29707    10112.148     3048.625    33.674185 -0.037793279  0.043330971 -0.014518273 
  214000    330.68307    14808.066     3048.625     27.88387 0.0056875862 0.0055592807 0.0083744048 
  215000    322.03521     6538.748     3048.625    26.670974 0.0038286744  0.039679928 0.0057707788 
  216000    327.77551    5163.8615     3048.625     29.91873 -0.032881526 -0.036996949 0.0027229864 
  217000    307.02553    16502.766     3048.625    28.622612 -0.023951543 0.0011202789 -0.043522218 
  218000    330.63988    15185.706     3048.625    23.191503 -0.054370019 -0.010455144  0.027293537 
  219000    314.46328    15711.043     3048.625    23.325085  0.042594263  0.014406046 0.0096215952 
  220000    325.41227    6758.3031     3048.625    28.155236 -0.005403171  0.032958359 0.0039413157 
  221000    330.33668    11566.078     3048.625     32.21951 0.00030133694  -0.03141157  0.053419926 
  222000    340.52443    3570.2487     3048.625    29.306268  0.038185244 -0.010336222  -0.03294916 
  223000    301.15943    15923.515     3048.625    22.075625 -0.024904092  0.020755637  0.013832527 
  224000     303.7204    13120.056     3048.625    21.443838  0.032611332 -0.043689744  0.013972688 
  225000    304.70096     13746.25     3048.625    25.622363 -0.015551538 -0.020737548 -0.018240597 
  226000    299.22523    11049.857     3048.625    28.555165 0.0033661717   0.02960157  0.031008543 
  227000    342.54605    12446.722     3048.625    30.130442  0.054295001  0.030017753  0.014506432 
  228000    336.00264    9000.4169     3048.625    30.079996  0.051138257  0.035261173  0.007534193 
  229000    303.61397    13710.832     3048.625    29.227128  0.032064685 -0.020295641 -0.0018900737 
  230000    349.24983    5704.2291     3048.625    28.795886 -0.041073071  0.038169456 -0.017790639 
  231000    313.97981    9519.7652     3048.625    31.200203  0.010474077  0.011272753  0.052586748 
  232000    307.72547    15803.652     3048.625    32.182133 0.0080707474 -0.001543595  0.049915806 
  233000    326.26132   -2287.9946     3048.625    32.098259 0.0068297842 -0.014541773 -0.012987908 
  234000    344.60389    16207.924     3048.625    33.879886  0.039154019   0.05143435  0.040787734 
  235000    336.89977    9448.3517     3048.625    34.218173 -0.080966033 0.0056087199 0.0028026626 
  236000    343.08718    8665.6526     3048.625    32.506558 -0.058461881  0.025879782 -0.020098996 
  237000    310.81711    10362.135     3048.625    30.315296 0.0083493747  0.050876206 -0.036699543 
  238000    324.75196    13543.444     3048.625    30.848456 -0.012898813  0.014934365  -0.02466363 
  239000    333.28756    10192.634     3048.625     34.20982 -0.014660525  0.023039504 0.0039800487 
  240000    337.12641    5901.9965     3048.625    36.451692 -0.067082942 -0.010000404 -0.0083579664 
  241000    308.37142    10360.519     3048.625    34.209965 -0.021258678 -0.036215811 -0.010864707 
  242000    325.48974    6245.9986     3048.625     30.62101 -0.0098406774  0.023671323 -0.022626834 
  243000    330.09785    7742.4338     3048.625     29.01639  0.020661126  0.025974674 0.00070863736 
  244000    338.66183    7711.7125     3048.625     31.77304 -0.017670262 -0.012738559  0.043346292 
  245000    335.69841    12825.331     3048.625    34.904588 -0.0026403091  0.010497703  0.013004696 
  246000    300.61305    12418.803     3048.625    35.414179  0.021177106  0.017773631  0.016427643 
  247000     315.8666    5972.4186     3048.625    34.665355 -0.023415682 -0.026523564 -0.0023388552 
  248000    345.99275    7662.1262     3048.625     34.77315 0.0027150472 -0.026442689 -0.051383125 
  249000    331.50346    482.69089     3048.625    34.698016 -0.0091222356 -0.015432021 -0.0052803214 
  250000    318.57069    13917.887     3048.625    30.905811 -0.015832678 -0.016413983   0.02474232 
  251000    318.14947    10426.186     3048.625    23.299322  0.019897616  0.012859604 0.0094468929 
  252000    329.07616      7928.56     3048.625    18.600067 -0.0032069644 -0.035023535   0.01802691 
  253000    334.82322    9069.5083     3048.625    19.757216  0.013933089 -0.017161352  0.013572481 
  254000     338.8672    12521.295     3048.625     20.25779   0.01387846 -0.033525207 -0.023034767 
  255000    318.41168    3500.2455     3048.625    19.817118 -0.0017836304  0.025430743  0.010008818 
  256000    329.43049    11280.743     3048.625    20.949498  0.026301534 -0.00026337742 -0.032196208 
  257000    309.88663    14866.042     3048.625    24.786494  0.026634038  0.045707351 -0.010869126 
  258000    305.19698    11523.516     3048.625    28.321099 -0.032513598 -0.017013606  0.049721848 
  259000    307.83888    15216.615     3048.625    31.926068   0.02720658  0.011937644  0.018637892 
  260000    340.46266    3317.9088     3048.625    33.355009 -0.0069608316 0.0065902397   0.01596348 
  261000    325.28698    1728.2915     3048.625    33.559225 -0.015104487 -0.0085800981 -0.0064251513 
  262000    314.72253    16010.637     3048.625    34.961839 -0.039168399 0.0090412564 -0.0018808208 
  263000    332.91908    8742.0918     3048.625    35.926023 -0.011037864  0.011566166 0.00075634699 
  264000     354.3019    6830.3331     3048.625     34.35654  0.034634903 -0.017291998  0.010563131 
  265000    327.57707    12569.261     3048.625    31.266012 -0.035292208  0.034113985  0.016405443 
  266000    297.38315    11570.124     3048.625     30.53784 0.0064136939 -0.013579165  0.020981418 
  267000    316.34543    10513.648     3048.625    31.232399  0.020180872  -0.02590726 -0.00064474883 
  268000    341.41013    14019.783     3048.625    32.461521 -0.010480393 -0.044327198  0.022059304 
  269000    327.23945    2606.4254     3048.625    32.357947  0.032854422 -0.017357837 -0.015536119 
  270000    336.17981    14578.314     3048.625    29.904231 -0.0069076327  0.011296614  0.010048641 
  271000    332.81798    10623.789     3048.625    28.068388 0.0017976705  0.014538886 -0.019137599 
  272000    368.28521    6207.6306     3048.625    29.699587 -0.051200224 -0.020711337 0.0084876622 
  273000    316.35164    9714.7992     3048.625    31.619541 -0.0059383231 0.0044607325  0.028552085 
  274000     314.2607    5653.6348     3048.625    33.122779  0.019382999 -0.018259533 -0.036342778 
  275000    318.92692    15319.427     3048.625    31.909135 0.0035641142  0.049006187 -0.013825579 
  276000     320.3971    10636.439     3048.625     28.33722 -0.0095712005  0.039581337  0.026713098 
  277000    336.56775     4847.416     3048.625    25.345291   0.03561918  0.024680868   0.01578642 
  278000     337.6265    12210.724     3048.625    25.391437  0.010515985 -0.027207934   0.04324683 
  279000    341.35076    14851.232     3048.625    27.167978 -0.0093925978 -0.010915198 -0.010320615 
  280000    337.03778    6796.6041     3048.625    28.247715  0.012888338  -0.00768693  0.015206093 
  281000    351.53082    10376.892     3048.625    26.889249 -0.019354431 -0.017288192 -0.0076178105 
  282000    330.82264    3898.2335     3048.625     24.95118 -0.0040382903 -0.0066016795 -0.023527331 
  283000    348.92301    9165.2554     3048.625    22.136325  0.030024874  0.016310798 -0.050008752 
  284000    338.22109    10801.414     3048.625    21.137494 0.0060867083  0.024184578 -0.007469224 
  285000    332.13692    4581.4584     3048.625    21.718763 -0.016396726  0.002069094  0.025998903 
  286000    349.26102     2402.044     3048.625    23.339195  -0.03367608 -0.0046004462  0.014656189 
  287000    341.69842    7914.0596     3048.625      27.5929 0.0060074167  0.021953511  0.027662183 
  288000    321.25182     15146.27     3048.625     28.89034  0.054552187  0.026247874  0.035933393 
  289000    329.99219    1897.5073     3048.625    27.382755 -0.0049243567 -0.0041121516  0.038775722 
  290000    330.43732    8476.6574     3048.625    25.540966  0.028317707 0.0028971228  0.053218735 
  291000    321.27872    9991.1248     3048.625    27.309711 -0.033787264 -0.033599731    0.0352684 
  292000    327.28304    8457.7145     3048.625    29.154392  0.012850231 -0.016070767   0.02617428 
  293000    345.80245    13144.853     3048.625    28.626599  0.009088356 -0.0087541422  0.028642282 
  294000    325.55891    7529.1566     3048.625    29.858551  0.041295862  0.026668134  0.035292689 
  295000    324.89682    2504.4504     3048.625    34.485486  -0.02207207  0.018271331 0.00042968069 
  296000    346.62884    12220.683     3048.625    35.677561 -0.016129856 -0.014737121  0.013594453 
  297000    325.82453    13929.124     3048.625    31.048419 0.0055856437   0.01759169 -0.012478304 
  298000     301.9577    258.49581     3048.625    27.210452 -0.016360648 -0.017276609 -0.017717022 
  299000    343.30171    7957.4839     3048.625    27.849582 -0.022069232 -0.033143714 -0.012469355 
  300000    317.70957     7020.297     3048.625    29.389029  0.012188541 -0.039074767 0.0065844697 
  301000    311.51675    11476.275     3048.625    27.233551  0.037685124 -0.022622292 0.0071437062 
  302000    294.51481    13545.409     3048.625    21.901607 -0.020100439 -0.0027155682  0.058164123 
  303000     311.0925    17827.316     3048.625    21.358491 -0.022993774 0.00028676733 -0.0077135128 
  304000    338.31286    8854.6796     3048.625    23.082674  0.025200351   0.07372422 -0.037445186 
  305000    342.99691    2213.3534     3048.625    24.929783 -0.00026958528   -0.0134673 -0.015526345 
  306000    325.27605    8795.8275     3048.625    25.486935 0.0051417482  0.015303978 0.0092640254 
  307000    347.23969    5572.5003     3048.625    27.551177 0.0099551039  0.031323794 -0.028304052 
  308000    327.08026    10996.651     3048.625    28.982839 -0.019861929  0.025453865  0.042577827 
  309000    313.39216    4295.7691     3048.625    27.503077 -0.0066720002  0.021384821 -0.026626899 
  310000    310.62697    5175.9265     3048.625    24.989933  0.026442829 -0.0078196542 -0.019328778 
  311000    328.69545    6856.5848     3048.625    25.168192  0.074315422 -0.0013474548 -0.022268416 
  312000    325.32318    6287.1799     3048.625    27.629072 -0.012384473 -0.015152223 0.00035366334 
  313000    331.83945    8505.2939     3048.625    32.796379 -0.020646641 0.00073300006 0.00073662558 
  314000    325.81779    10170.566     3048.625    33.868644  0.015019645  0.022631733 -0.014182177 
  315000    313.83743    12799.592     3048.625    30.681187 -0.022376778 -0.0058545176  0.019632398 
  316000    347.01398   -134.82346     3048.625    26.802874 -0.00057129431 -0.0096168148  0.021234978 
  317000    335.18717    6485.6726     3048.625     26.75196 -0.013815147 0.0041064328 -0.037649531 
  318000    285.73269     24119.53     3048.625     30.09132 -0.011981995 0.0027088243  0.010964737 
  319000    283.00589    4779.6093     3048.625    32.972616 -0.011192634 0.0021842171 -5.8899002e-05 
  320000     331.7837    8199.8661     3048.625    32.319309  0.052854342 0.0064308928 -0.013966139 
  321000    350.19909    15172.232     3048.625    29.571293 -0.0059636415  0.022700695 -0.042395104 
  322000    322.43276    145.76602     3048.625    26.422223  0.030826421  0.022476058  0.033467359 
  323000    316.81327    10192.245     3048.625    26.473929  0.034501662 -0.008359501 -0.0054285795 
  324000    339.40708    6938.7683     3048.625    30.159976  0.049357402  -0.01010363  0.055481847 
  325000    331.12975    5480.4439     3048.625    34.793813  0.014366814  0.014979597 -0.012084059 
  326000     301.1711     27106.53     3048.625    36.198966 0.0025115197  0.033300184 -0.014496625 
  327000    309.55394    1235.2281     3048.625    32.652036  0.017842739 -0.024919503  -0.01580506 
  328000    269.72738    14734.028     3048.625    28.639503 -0.018946219  0.009471838 -0.017132083 
  329000    307.71721    10889.949     3048.625    27.724708 0.00019699984  0.022269421 -0.023568928 
  330000    309.61391    5601.8905     3048.625    29.556808 -0.021073732 -0.034559883 0.0056506643 
  331000    305.53043    16238.359     3048.625    30.956739 -0.0066563838 -0.0042131681 -0.028016063 
  332000    310.32525    12183.377     3048.625    30.107365 0.0086168343 -0.012176223 -0.0083046923 
  333000    314.96329    13085.014     3048.625     27.85073 -0.0076972642 -0.012859079 -0.040993634 
  334000    303.58419      10880.2     3048.625    25.781561  0.026006787 -0.017163493 -0.0016068664 
  335000    317.77021    11089.872     3048.625    22.990388  -0.03222856 0.0005876488  0.021320069 
  336000    317.14194    10273.081     3048.625    25.075348 0.0025131487 0.0074846713   0.01524871 
  337000    359.46401    670.58258     3048.625    32.029925  -0.04666883 -0.0030133086 -0.0047691243 
  338000    321.93839     8820.286     3048.625    33.689188 0.00066993807 -0.013184068  0.025566077 
  339000    337.66158    7096.0745     3048.625    28.628032  0.015916754 -0.0025879143 -0.012049323 
  340000    343.61716    6113.3525     3048.625    26.900111 -0.014866096 -0.033296673  0.026542654 
  341000    337.56465     4445.849     3048.625    31.786097  0.017899811  0.030072183  0.026959272 
  342000    333.24102    2889.8305     3048.625    36.444829 -0.031012989 -0.015773195   0.02157471 
  343000    310.47254    9631.5425     3048.625    33.889243  -0.02965388 -0.022732608 0.0010049657 
  344000    356.26191    6183.0785     3048.625    29.381539  0.066271739 -0.051585208   0.01625886 
  345000    330.32403    3211.6808     3048.625    28.146988 -0.0058280384 -0.022898718 -0.027592452 
  346000    320.76373     9938.586     3048.625    31.534919  0.013999814  0.065955386 -0.021459047 
  347000    321.28286    7265.0947     3048.625     35.11204  0.014790686  0.020493241 0.00052463825 
  348000    325.67985   -3808.8144     3048.625    34.790027  0.023933492 0.0060757688 0.0060797559 
  349000    332.17122    12465.313     3048.625    30.669735  0.056060387 -0.035352007 -0.050200112 
  350000    339.81782    13504.715     3048.625    29.429189 -0.0054414699  0.016341485 -0.0042950978 
  351000    318.04106    277.08652     3048.625    31.138347 -0.036633525  0.045613999  0.013830014 
  352000    333.86958    10468.314     3048.625    31.401237  0.044114657 -0.0078896227  0.048710084 
  353000    342.36708    3392.4297     3048.625    29.992964  0.024304047 -0.0017616826 0.0019374926 
  354000    321.47813    5648.6752     3048.625     28.92182 -0.032327358 -0.028922202  0.017205413 
  355000     315.2977    4428.3621     3048.625    31.061898 -0.039457263 -0.055592906  0.061958644 
  356000    332.08748    6153.8122     3048.625    32.624045 -0.0053092896 0.0075677965  -0.01095316 
  357000    326.66174    5687.3289     3048.625    31.355957  0.012836631 -0.00095369682  0.028199758 
  358000    322.42608    14411.312     3048.625     26.75332  0.010776342 -0.045224957  0.046942776 
  359000     302.9787     8437.601     3048.625    21.973035  0.019105456   0.02487327  0.014127616 
  360000     336.2883    8284.7849     3048.625    22.243697 0.00027581023  -0.03316481  0.029244717 
  361000    336.10678    7517.3988     3048.625    25.486182 -0.003651654 -0.018898638 0.0068916052 
  362000    317.46363    10813.809     3048.625    27.885164  0.021041681 -0.014646582 -0.030902668 
  363000     315.7951    12535.747     3048.625    25.286528 -0.017307768  0.015113445 -0.036899097 
  364000    302.46786    5059.6568     3048.625    20.659884 -0.016061779  0.020329942 -0.003933037 
  365000    324.15489    12893.937     3048.625    19.583138 0.0042020118 -0.016006908  0.026409945 
  366000    306.70147    11568.073     3048.625    22.795707 0.0020177521 -0.0021474785  0.016389455 
  367000    351.10577    8276.9619     3048.625    27.843877 -0.023519958 -0.0059374533  0.020731208 
  368000    335.09821    3836.6437     3048.625    25.737455  0.007135788  0.022718692 -0.017689378 
  369000    327.77916    17689.198     3048.625    19.048505 -0.017655003 -0.016687362  0.028192058 
  370000    302.99951    7048.4487     3048.625    18.334631  0.017627077 0.0070662246 -0.0016816476 
  371000    329.58757    3243.3193     3048.625    23.544768 -0.027862465 -0.028618502 -0.0025521292 
  372000    339.00735    8537.1419     3048.625    31.069587 -0.026857881  0.023233166  0.021394619 
  373000    348.38468    7701.6399     3048.625    32.590786  0.039361221   0.05940047 0.00048723732 
  374000    325.63016    7460.4885     3048.625    27.917284 -0.039750772 -0.00087638339 -0.010107097 
  375000    340.53397    7838.6679     3048.625    21.932772 -0.028965012 -0.021646896 -0.0077433438 
  376000    344.15443     3720.202     3048.625    20.899177  0.010710431 -0.0055485658 0.0027970079 
  377000    335.09395    8062.9811     3048.625    24.164552  0.012688999 0.0042869109  -0.06376704 
  378000    331.27198    13533.377     3048.625    29.858387 -0.010433267 -0.030177214  0.015393717 
  379000    325.72076    7826.2895     3048.625    34.090132 -0.0025842743 -0.0047708568    -0.013826 
  380000    317.77908    4032.9385     3048.625    32.316546  0.004513681 -0.001427706 -0.0045996057 
  381000    331.90687    9149.2851     3048.625    28.109181  0.014997305 0.0084405013 8.0000077e-05 
  382000    340.77787    8389.4718     3048.625    27.444215  0.011214817  0.034531454  0.011267493 
  383000    352.25048     10405.23     3048.625    27.204663 0.0027976273 0.0020065485  0.032713386 
  384000    338.82279    -474.0915     3048.625    27.043987  0.032243752 -0.036082642  0.010002864 
  385000    332.54533   -1986.1122     3048.625    27.636511  0.042937699 -0.026390554  0.039092942 
  386000    332.92009    3654.7716     3048.625    30.449651 -0.011074769  0.028792795 -0.025676863 
  387000    310.11453    7650.3514     3048.625    31.002522   -0.0602268 -0.024263963   0.01480185 
  388000    347.10722    3154.9545     3048.625    29.744031 -0.073546364 -0.0038206796 -0.0055488622 
  389000     316.8971      5051.32     3048.625    30.719218 0.0005045034 -0.031870071 -0.025641693 
  390000     340.1186    4019.7535     3048.625    30.798021 -0.0055564858 -0.0094505231 -0.00074263137 
  391000    322.57517    5932.3587     3048.625    27.114386 -0.0032847535 -0.014690226  0.027888391 
  392000    343.06139    5224.8119     3048.625      23.0128  0.026161913 -0.018815857 -0.041925426 
  393000    327.41448      4569.12     3048.625    25.382836   0.00941639  0.039024105 -0.017450282 
  394000    335.90206    2445.0185     3048.625    32.202057  0.029880451  0.045501373  0.033361717 
  395000     338.8973    10023.899     3048.625    34.672926  0.030101355  0.046415549  0.019154895 
  396000    333.39999    6379.6288     3048.625    31.569662 0.0078914128 -0.0092445936  0.024881087 
  397000    315.68898    14304.649     3048.625    27.899224  0.019069166 -0.077192522  0.022845695 
  398000    329.84368    11458.216     3048.625      27.1324 0.0072908275 -0.0095903031 -0.016401014 
  399000    342.54599    5569.7134     3048.625    26.890128  0.024962105 -0.015639484 -0.036291178 
  400000    332.08103    5210.6632     3048.625    27.978465  0.046182159 -0.0033384177 -0.0011523691 
  401000    336.71485    7883.3011     3048.625    28.907567 -0.028867469 -0.013697516  0.044522327 
  402000    340.87757    9565.8234     3048.625    28.315747  0.043050693  -0.05165111 -0.045315724 
  403000    330.54309   -1233.3891     3048.625    25.601177 0.0095996598 -0.0039895698   0.02257833 
  404000    334.69421    5502.0592     3048.625    23.404996  0.011489841 -0.014263817  0.031075786 
  405000    344.92299    10725.544     3048.625    25.436197 -0.023000923 0.0057409661  0.023483097 
  406000    342.06722    3599.3723     3048.625    27.740582 -0.034208376 -0.0016484022 -0.0082341718 
  407000    335.66392     6318.042     3048.625    27.179965  0.031485934 -0.024504775  0.047445255 
  408000    324.73294    6863.3844     3048.625     26.20485  0.027307842 -0.017563285 -0.014777348 
  409000    326.42347    4353.9195     3048.625     27.44582  0.011009479 -0.0090447169 -0.0039680408 
  410000    309.91011    11589.044     3048.625    29.292651  0.054190815 0.0023582336 -0.0003323246 
  411000    332.80145    6539.7493     3048.625    31.149546 -0.0013924341 0.0047649304 -0.016733074 
  412000     330.5241    4993.2519     3048.625    31.978512 0.0078856078  0.053456123 0.0032430066 
  413000    342.28964    15494.248     3048.625    29.524077  -0.00353498   0.05972015 -0.00028114216 
  414000    304.99204    4752.1345     3048.625    26.405043 -0.015836425  0.041328957 -0.029412639 
  415000    316.81067    1329.4476     3048.625    24.521398  0.010553654  0.043786115 -0.0091613364 
  416000    311.08421    13162.567     3048.625    24.503293 0.00070793389 -0.022260457 0.0040363297 
  417000    334.95547    3500.7771     3048.625    25.465356 -0.024679831 -0.016920333  -0.01818045 
  418000    348.56978     6696.252     3048.625    25.192948 -0.0020292225 -0.044153728 -0.0061736342 
  419000    340.31586    1676.4565     3048.625    25.180329 -0.013260041 -0.019908127 0.0036024269 
  420000    324.92874    3885.8603     3048.625    25.226943 -0.010605032 -0.0069694771  0.007502594 
  421000    352.01939    4238.6007     3048.625    27.460996 -0.0041273102  0.011512232 0.0048882021 
  422000    345.86244    3401.6235     3048.625    31.846785 0.0081808234 0.0038355491  0.005969271 
  423000    316.54075    9403.9868     3048.625    29.225684  0.012011072   0.02018085 -0.014436828 
  424000    351.92401    4038.6303     3048.625    22.948457 -0.015872407 -0.063209027 -0.017608635 
  425000    320.70416    6541.8797     3048.625    22.225762  0.020440599 -0.052922525 -0.021715963 
  426000    326.84503    7267.7859     3048.625    25.731407 -0.0093059305 -0.0065271426 -0.014857942 
  427000    331.20412    -2341.424     3048.625    29.401856 0.0064022951 0.0016468772  0.043329677 
  428000    314.52853     5618.486     3048.625    28.021915   0.01501368 -0.0057099512 -0.010682973 
  429000     331.5877    14089.457     3048.625    20.304399 -0.0086288859 -0.053131178 0.0049528799 
  430000    321.64022   -677.73657     3048.625    14.698103   0.01406339 -0.004961784  0.011178434 
  431000    332.49713    4146.3828     3048.625    19.563364  0.010860912  0.016934382  0.016156532 
  432000    325.89236    11251.701     3048.625    26.261134 -0.070493335  0.021292729  0.019011382 
  433000    330.02714    7147.0081     3048.625     25.40696 -0.0053037961  0.036456453 0.0058805063 
  434000    347.00882    2295.5984     3048.625    20.478827  0.035120057 -0.050358649 -0.024904023 
  435000    329.20953    432.22009     3048.625    22.619022 0.0078835291 0.0043610117 -0.0046834598 
  436000    312.19242     11142.43     3048.625    30.043771 -0.023430806 0.0038424184 -0.045612616 
  437000    344.05753    8688.6364     3048.625      34.0358 -0.026676281  0.025166425 -0.0092517827 
  438000    334.24243     5278.255     3048.625    30.860405 -0.021214379  0.048833445 -0.016547111 
  439000    341.07884    5506.7459     3048.625    27.292983  0.011766032 0.0060981378  0.016282384 
  440000    337.49356    10740.048     3048.625    29.267029 -0.0086696258  0.032788124 -0.035005796 
  441000    318.63494     9426.555     3048.625    32.417126 -0.026641222  0.015225469 -0.024955598 
  442000    335.45129    1313.6509     3048.625    31.015665  0.010109396 -0.0047612368  0.018226087 
  443000    338.40654    2079.0314     3048.625    27.081958 -0.014874916 -0.056869485 0.0092716088 
  444000    296.61115    3395.1764     3048.625    20.906111 -0.0048073992 -0.023394919  0.032874241 
  445000    331.68746    9932.8931     3048.625    17.543187 0.0060423772  0.023802414  0.042312249 
  446000    320.00488    14809.975     3048.625    19.602524  0.001505236  0.023825111 -0.0041399686 
  447000     337.3175    6071.4962     3048.625    24.536951 -0.0051218946  -0.02080575 0.0026865871 
  448000    315.61525    5909.5309     3048.625    27.981522 -0.010018205  -0.02663685  0.028787897 
  449000    331.63961    7320.0742     3048.625    30.015255  0.058411365 -0.023619845  0.017882556 
  450000    312.97457    7066.4722     3048.625    32.299246 0.00022232194  -0.03845413 -0.013371406 
  451000    302.80176    11395.005     3048.625    33.621767   0.04138876 -0.0066527548 0.0064965835 
  452000    321.49542    8567.0955     3048.625    32.859851 0.0058514158 0.00020247823  0.017768668 
  453000    345.44663    6528.0279     3048.625    29.123568 -0.018440713 0.0079880574      0.02241 
  454000    335.80699    7216.4223     3048.625    24.348815  0.026926007 -0.0067461852  0.043781416 
  455000    338.03581    3071.4281     3048.625    21.258059 0.0034596677 -0.019038765   0.01878655 
  456000    322.09481      6087.69     3048.625    22.243664  0.017039736 0.0078919743 0.0082860388 
  457000    325.71829    3154.7975     3048.625    28.949568 -0.030640475 -0.013466503 -0.025024304 
  458000    341.02722    8061.0496     3048.625    33.883893 0.0011262736 -0.039180902 0.0058713904 
  459000    338.83789    4865.2752     3048.625    29.723885  0.018868991  0.022132508 0.0020420167 
  460000    328.29088    1617.4123     3048.625    22.396618 -0.024005185  0.024804673   0.04547616 
  461000    339.47403    1030.5621     3048.625    20.384224 -0.0073856216  0.015802262  0.025621826 
  462000    316.51528    3454.9451     3048.625    26.403521 -0.017003849 -0.019305194  0.013004083 
  463000    315.03641    3627.4814     3048.625    31.317221 0.0049630273 0.0052730226 -6.7306412e-05 
  464000    329.45654    2484.8392     3048.625    30.106786 -0.010144417 -0.027618654 -0.0031698077 
  465000    319.96622    12695.639     3048.625    24.513806 0.0096595985 -0.016100984 0.0033570523 
  466000    318.22931    12761.954     3048.625     23.60575 -0.025326183  0.031885632 -0.0043846423 
  467000     328.5162    3054.5946     3048.625    27.945616 0.0069037242 -0.012826078 0.0093790309 
  468000    302.40028    7047.6966     3048.625    29.809954 -0.0093182649 0.00078588252  0.013170957 
  469000    329.05227    7509.1097     3048.625      25.2849  0.010524072 -0.016355068  0.012306817 
  470000    322.04655    7265.5552     3048.625    21.572118  -0.01202686 -0.0011883442    0.0196545 
  471000    316.83247    6763.3763     3048.625    25.466947 0.00023107153 -0.0062966888   0.01312278 
  472000    324.71682    8934.1044     3048.625    33.229402 -0.020189696 -0.0043678427 -0.0075758448 
  473000    337.60046     3482.392     3048.625    32.618791 0.0041896419 -0.0050531988  0.025350239 
  474000    324.61054    4863.8709     3048.625      23.1648  0.032318189 -0.0046660231 -0.0031449605 
  475000    310.38287    9157.9284     3048.625    16.281911 -0.010548867  0.019045194 -0.016646377 
  476000     327.6866    3084.1987     3048.625    19.182465 -0.0028503566 0.0076845647 -0.018290276 
  477000    331.22431    5742.4121     3048.625    27.787494 -0.052307446   0.02984082 -0.038214575 
  478000    332.41607      9597.69     3048.625    31.632196 -0.044676581 -0.014191889 0.0078934932 
  479000     309.4453    6285.9124     3048.625    29.882658  0.013594274 0.0062624187  0.021887169 
  480000    307.07882    3170.5888     3048.625    24.958072 -0.034841498 -0.0081556572 0.0059857986 
  481000    325.86829    15374.966     3048.625     24.01694 -0.023325693 -0.049597094 -0.027611461 
  482000    305.56921    4801.7711     3048.625    25.397656 -0.025003608 0.0057192907 0.0087940069 
  483000    317.46319    1485.6169     3048.625    22.536318 -0.038624936 -0.036067126  0.066157814 
  484000    311.48725    5835.9247     3048.625    19.648585 -0.025003543 -0.0062119216  0.018754707 
  485000    298.47323    15168.884     3048.625    23.285218  0.015530015  -0.02958099  0.013917499 
  486000    322.69985    8937.9914     3048.625    28.451428  0.018456469  0.002619564  0.028914504 
  487000    297.14953   -1408.2737     3048.625    27.440655  0.053223502 -0.048445752  0.047194228 
  488000    316.71047    8577.9257     3048.625    24.209472 -0.044943227 -0.048416563  0.011782986 
  489000    306.09447     14944.01     3048.625    24.380142  -0.02467778 -0.0021774443 -0.0092014275 
  490000    313.92242    1122.4535     3048.625      26.8531 -0.013983224  0.013799971  0.041655446 
  491000    301.12973    6893.2315     3048.625    28.388753  0.010305407 -0.022405768 -0.003973387 
  492000    299.73399    12928.539     3048.625    26.632014  0.037320674 0.0049209262  0.014563511 
  493000    304.53704    13199.689     3048.625    22.528645  -0.03102196     0.019836 -0.030182028 
  494000    309.42021     7087.079     3048.625    20.917614 -0.010996023  0.029022275 0.0020651919 
  495000    312.53623    8433.0243     3048.625    22.524144  0.040771924  0.025179684 -0.026547763 
  496000    317.75062     11913.97     3048.625    25.648617 -0.0053054571 0.0018700272  0.059942521 
  497000    322.09438    2480.0926     3048.625    27.817295   0.03934853   0.02065005 -0.029824141 
  498000    319.72155    5816.9811     3048.625    27.113301 -0.015342958 -0.00089241775 0.0058197878 
  499000    341.43859     7122.274     3048.625    24.896401 -0.0077829688   0.03175948 -0.067331722 
  500000    300.03708    878.31624     3048.625    24.794491  0.038694858  0.010661455 -0.037736319 
  501000    296.02342    11156.302     3048.625    25.920966  0.023074474   0.01434637  0.021849763 
  502000    330.68432    11086.813     3048.625    26.245556 -0.0073222056  0.063556292  0.060268274 
  503000    328.30465    5671.3495     3048.625    28.717643 -0.030069694  0.076581907 -0.026379587 
  504000    321.97432    12512.789     3048.625    31.169109 -0.099651695  0.030757062 -0.013273038 
  505000     326.4079   -114.73951     3048.625    28.991006 -0.00023820903 -0.010881969   0.03739763 
  506000     356.9112    7379.6722     3048.625    25.944429  0.030035965  0.026730028  0.040560401 
  507000    328.59848    6922.8001     3048.625    25.742463  0.017520433 0.00093441896 -0.047827061 
  508000    318.73862    11206.238     3048.625    25.491821  0.042385904 -0.0072626248  0.017096325 
  509000    329.79985    9093.8799     3048.625    24.755051 -0.00032934114  0.023365867  0.028625351 
  510000     332.1047     2149.335     3048.625     27.06014 -0.0019065129  0.022125696 0.0048259759 
  511000    305.86686    4413.8134     3048.625    30.947109 0.0098109137  0.028587876 -0.0081153881 
  512000    297.02092    12854.243     3048.625     33.57075 -0.058231232 0.0097375453 -0.0032079181 
  513000    307.62552    495.83299     3048.625    31.564794 -0.0065942866 -0.036295394  0.036019381 
  514000    313.07363    8997.6944     3048.625    26.391882 0.0014263841 -0.0099725592 -0.0042912122 
  515000    300.70254    7243.5523     3048.625    21.312649 0.0057887054 0.0073081282  0.033141076 
  516000    315.09679    12827.824     3048.625    23.173642 -0.0099123034  0.015799047  0.029426468 
  517000    306.96504    6331.8469     3048.625    26.543999 -0.0094186498 -0.003008464 0.0033382698 
  518000    322.19736    1109.4398     3048.625    25.699148  0.012791924 -0.0055549745  0.033931476 
  519000     329.8058    11283.967     3048.625    18.060415 -0.0044851022 0.0014220827  0.030847691 
  520000    309.59771    9857.1922     3048.625    12.887537 -0.047653662  0.030379261  0.014479726 
  521000    309.37285   -3036.5163     3048.625    15.121963  0.033003616  0.019453381 -0.0087591164 
  522000    336.67481    9895.7353     3048.625    19.935717  0.019031805  0.014493242 -0.019740458 
  523000    311.19141    9222.4907     3048.625    22.386442 -0.029592761 0.0042529158  0.022735715 
  524000    322.91071    5060.1413     3048.625    22.143987 -0.0033271522  0.025298923 0.0086727129 
  525000    315.39035    6289.7429     3048.625    23.610242 -0.0010492133 -0.0073656253 -0.029127245 
  526000    309.10003    6241.2206     3048.625    27.127436 -0.0011537063  0.028450732  0.012500699 
  527000    326.85472    8812.2895     3048.625     28.89841 -0.074305649  0.001707299 -0.012094862 
  528000    311.61017   -494.12353     3048.625    28.073996  0.018619937   0.01219989 -0.021261394 
  529000    322.83742    7840.4277     3048.625    23.845749 -0.0080650899 0.0036747645  -0.03288344 
  530000    328.92525     9959.537     3048.625     19.57715 -0.0008420474 0.0085956834 -0.055696839 
  531000    313.86772    6797.9005     3048.625    18.141868  -0.02097526 -0.029870287   0.01438051 
  532000    325.30258    9293.1698     3048.625    20.545478 0.0044454759 -0.0046664182 -0.038673225 
  533000    345.08047    4372.9422     3048.625    26.127671  0.013354051 -0.0078178446   -0.0277911 
  534000    307.67926    7557.1167     3048.625    30.354308   0.01562375  0.036354143  0.028196858 
  535000     328.7579    5663.2336     3048.625    30.136495 -0.015677495 -0.015071934 0.0094345997 
  536000    324.24829   -40.546274     3048.625    25.675736 -0.024420376  0.008336125 0.0015288162 
  537000    324.80548    7131.5029     3048.625    21.473044 0.0047290497  -0.02010325 -0.020330734 
  538000    318.79461    4584.6488     3048.625    18.585127 -0.0096217004  0.019246961  -0.01829121 
  539000    318.16359    10020.395     3048.625    22.599096 -0.032491853 -0.0010653654 -0.019552128 
  540000    323.62483    6519.1767     3048.625    28.792225 -0.0079807444 0.0084735231 -0.023440049 
  541000    327.18871      10466.4     3048.625    32.345758  0.015326705    0.0290332  0.019152938 
  542000    338.07128     10738.68     3048.625    31.454107   0.03128598  0.026864994   -0.0344982 
  543000    309.46306    5304.7288     3048.625    28.103457  0.016987426   0.01309686 0.0070354684 
  544000    309.07961    3096.5675     3048.625    24.962834 0.0087873707   0.01668947 -0.012529707 
  545000    300.03823    7755.1517     3048.625    21.199267  -0.00588786  0.020609965 -0.011485932 
  546000    300.45231    1861.0473     3048.625    17.991228 -0.0035211285 -0.013599158  0.031782195 
  547000    320.23767    10365.794     3048.625    19.455872  0.012183947  0.016181064 0.0036931432 
  548000    296.65153    9026.6481     3048.625    24.059506  0.018088338 -0.011684562 0.0005035934 
  549000    318.07602    3435.9567     3048.625    29.044687 -0.015662278 -0.0063902464  0.032513539 
  550000    310.35661   -417.88741     3048.625    33.730923 -0.0048483782 -0.0089987636  0.031707371 
  551000    305.63424    13427.809     3048.625    34.286779 -0.0076106437 0.0016764134  0.018716565 
  552000    350.17644   -11.247772     3048.625    31.032524  0.026289741 -0.00090506552  0.023708748 
  553000    331.31947    2328.8694     3048.625    28.562768 -0.0069179768 -0.028611052 -0.0068328764 
  554000    307.30971    11401.124     3048.625     27.73732 0.0019116967 -0.012121471  0.041901177 
  555000    304.11915    5939.3229     3048.625    28.924103 -0.0014794767 -0.029568236 -0.019641175 
  556000    313.29871    9284.4677     3048.625    29.888471 -0.013309287  0.017321719   0.03566069 
  557000    340.93785    5224.2121     3048.625     29.52936 -0.0096914789 -0.020501771  -0.01387057 
  558000    298.14463    6029.0189     3048.625    28.882223 0.0025934061 -0.024022123  0.028762884 
  559000    314.64964     2468.942     3048.625    27.056102  0.023871651 -0.037632403 -0.028106849 
  560000    303.05391    6923.8287     3048.625    25.492282  0.003777322 0.0013094353 0.0086285096 
  561000    329.32185     7346.449     3048.625    25.534113  0.016120689 -0.0009849266 -0.012954855 
  562000    316.64932    8217.3916     3048.625    29.483503 -0.014571384 -0.001868295 -0.031947036 
  563000    301.27467    8453.6851     3048.625    32.841566 -0.037529782  0.022804159  0.022258542 
  564000     305.1654    8309.8714     3048.625    32.903417 -0.022388209  0.017228718 -0.0053183393 
  565000    307.59865    12989.383     3048.625    32.230302 -0.035523813  0.014081634 -0.032462118 
  566000    328.39499    4050.6627     3048.625    33.080099 -0.026819669  -0.04744255 0.0052473439 
  567000    319.33359    -1125.868     3048.625    35.074571 -0.025046923 -0.013839543 0.0021099413 
  568000    300.57728    6655.1847     3048.625    34.407899  0.016586519 0.0056138064  0.025843355 
  569000    327.88221    8462.8247     3048.625     30.76823  0.016592192  0.033273094  0.024479031 
  570000    311.69973    7699.7665     3048.625    27.031982  0.014040539 0.0038663364 0.0021205347 
  571000    304.36952    8610.8491     3048.625    23.521936  0.011608288  0.004014505 -0.0041990012 
  572000    319.63818    8168.7755     3048.625    21.412814  -0.04903174 -0.0073313137 -0.0057962871 
  573000    314.55704    4817.9959     3048.625    21.198955 -0.019244292 0.0065969846  -0.01910966 
  574000    314.46934    13380.024     3048.625    22.663558 0.0026860592  0.010343865 0.0065498248 
  575000    336.55168    6301.1643     3048.625    24.679292 0.0063792644 0.0043653445 -0.0055953663 
  576000    350.07534   -905.80492     3048.625    23.293098    0.0429748  0.016073372 -0.012898593 
  577000    344.99262    11365.244     3048.625    21.301489 -0.030993412  0.033908694  0.022760101 
  578000    305.17739    13334.433     3048.625    18.414602 0.0083439635  0.025999652 -0.032033582 
  579000    317.58967    2217.8019     3048.625    17.866776  0.026892897  0.010060733 -0.0010571716 
  580000    321.01395     10496.27     3048.625    18.641606  0.027828536 -0.047946536 -0.00038259469 
  581000    282.41066    9674.2485     3048.625    20.268858 -0.040681752   0.02075073 -0.019513006 
  582000    333.06737    5607.1833     3048.625    21.857866  0.016005397 -0.035770202 -0.024405394 
  583000    315.03561    1932.3774     3048.625    22.760861  0.022048919  0.011541484 0.0042904167 
  584000    300.00803    25.975107     3048.625     23.39914  0.013489589 0.0092672796 -0.014532498 
  585000    298.33695    12194.705     3048.625     20.99414 -0.0018349605  0.031605651  0.018587162 
  586000    305.03654    13098.085     3048.625    21.272479  0.003813503 -0.050216402  0.022223467 
  587000    313.36797    1488.0713     3048.625    25.306399 0.0045716062 -0.049961239 -0.015139472 
  588000    315.44696    5672.1578     3048.625    28.519383 -0.0073764854  0.024788621  0.020353584 
  589000    333.60309    4218.1573     3048.625    27.875558 0.0033801296 0.0061174355 -0.0099791786 
  590000    325.95866    2292.4987     3048.625    25.728123 0.0082938949  0.042063476 -0.012258883 
  591000    341.54676    8634.2855     3048.625    24.348082  0.036736966 0.0041123577   0.01559864 
  592000    326.68582    8784.4534     3048.625    24.687868  0.025979035 0.00031163776 -0.003929346 
  593000    323.52294    5378.3192     3048.625    25.043812 -0.00097542634  -0.00987843 -0.0047092332 
  594000    332.73039    2843.1788     3048.625    26.499743 -0.036280127 -0.029031093  0.012676893 
  595000    302.46846    9575.1236     3048.625    26.689047  0.030111793  0.026395782  0.013836591 
  596000    330.18062    8788.8172     3048.625    23.404252  0.017608778 0.0076506272  0.038069744 
  597000    324.48673     4694.155     3048.625    20.880821 -0.038988653   0.02576179 -0.025437024 
  598000    295.29946    6485.0078     3048.625    20.707979 -0.019670387 -0.061201348 0.0026092244 
  599000    314.39335    11424.243     3048.625    22.818885 -0.0055905594 -0.0075397966 -0.057872152 
  600000    298.98281    6445.4004     3048.625    27.781398 -0.0040835618 -0.011008247 -0.00093941777 
  601000    333.72124    1956.1234     3048.625    28.739533 0.0089375116 -0.0062196977 0.0043060419 
  602000    307.66019    10665.664     3048.625     23.50418  0.035828757  0.010103932 -0.0035219691 
  603000    311.67079    7748.5016     3048.625    20.883737  0.015954083  0.015206199  0.031299653 
  604000    330.78292    1286.0418     3048.625    22.280495 -0.0069061066  0.035468483  0.012467349 
  605000    318.49641    6824.9277     3048.625    26.417174 -0.023689826  0.032017953 -0.0024232642 
  606000    329.15189    10146.314     3048.625    29.415026 -0.0021901769  0.026394842  -0.04691389 
  607000    327.64397    312.10797     3048.625    30.556393  0.013944777 -0.0067496164 -0.014032056 
  608000    315.41886    7231.1334     3048.625    27.893072  0.011919029 0.0031476537  0.021763246 
  609000    318.20259    5317.6745     3048.625    25.072922  0.061614124  -0.01052642 -0.00033949848 
  610000    311.81856    9449.7972     3048.625    23.866239  0.021760308 -0.021477134  0.006936738 
  611000    334.64601    4476.2339     3048.625    23.569209 -0.039258514 0.0070850895 -0.010066076 
  612000    322.98714    1729.2417     3048.625    23.831738 0.0014097015  0.034561111 0.00022294007 
  613000    293.72916     8144.002     3048.625    25.608518  0.012080798 -0.029086136 -0.002319891 
  614000    330.02354    -2479.755     3048.625    26.596578 0.0096061806 0.0064192594  0.030379809 
  615000    314.55709    9414.2023     3048.625    26.052295  -0.02083425 -0.040384998 0.0048191309 
  616000    286.99744    15540.949     3048.625    24.434475 0.0069427885 -0.015500921  0.037228985 
  617000    284.51295    7350.5826     3048.625    23.879282 -0.0084943678 -0.045726697 -0.0041490728 
  618000    313.91397    4321.8828     3048.625    26.149852 0.0024013969 -0.0033414042  -0.01522118 
  619000    314.86667    8878.5036     3048.625    28.194977 -0.014148589 -0.017841472 -0.005172921 
  620000    321.61202    4130.2298     3048.625    29.317096 -0.012621968 -0.033584681  0.016373787 
  621000    298.86642    8608.1805     3048.625    31.316468 -0.029218759  0.028565091 -0.021179665 
  622000    289.13668    11150.158     3048.625    31.647813  0.010568025 -0.031479024 -0.00067771738 
  623000    272.87656    8377.4861     3048.625    32.247438 -0.0087419917 -0.047413765  0.042096624 
  624000    282.46419    17562.007     3048.625    33.299362  0.076281343 -0.037954164  0.018305348 
  625000    322.82531    5200.7493     3048.625    32.790311  -0.03179667 -0.019956942  0.070487443 
  626000    296.27743    2908.9035     3048.625    30.817774 -0.0060185144  0.029727885  0.026227227 
  627000     306.6761    2018.8152     3048.625    29.516438 -0.009084067  0.010332861  0.014423967 
  628000    284.77644    19102.273     3048.625    25.529795 -0.015811967  0.056770157  0.043508708 
  629000    303.19785    9638.3103     3048.625    22.560558  0.010733741 -0.010802287  0.016100187 
  630000    298.75147    4847.8271     3048.625    23.750954 -0.015898571  0.011376417 0.0082910952 
  631000    316.20346    6146.5976     3048.625    26.459502 7.1951358e-05  0.021821425 -0.056361952 
  632000    322.46712    15035.957     3048.625    24.679322 0.0053357859 -0.0030641565  -0.00551337 
  633000    324.56674    9704.5043     3048.625    20.787856 -0.0039683416   0.05416861   0.03971738 
  634000    322.12947    4323.9006     3048.625    18.405129  0.021523359  0.032769158 0.0062591137 
  635000    312.40007     1331.362     3048.625    17.291225 0.0086003682 -0.043114461 -0.066197951 
  636000    310.20567    2835.9018     3048.625    18.837383 -0.014069645  0.010753671 -0.017836599 
  637000     324.5043    12575.231     3048.625    21.093073 0.00010916317  0.014114737 -0.017155302 
  638000     302.7838    6200.0666     3048.625    24.515106 -0.042726285  0.016089934  0.020510472 
  639000    319.88055    7099.3046     3048.625    26.792739 -0.039999619 -0.032455008  0.025312007 
  640000    313.74359    3188.1206     3048.625    29.631543  -0.02357703   0.04280348 -0.024668968 
  641000     295.1513    8386.3431     3048.625    30.410654 -0.0011735261 -0.017274012  0.038618885 
  642000    306.17264       7797.7     3048.625    28.886957 -0.001597036 -0.024338562  0.015366992 
  643000    316.15821    7209.0811     3048.625    25.535612  0.012180537 -0.022390154   0.01465231 
  644000     287.8464    989.45238     3048.625    25.969702 0.0053614236 -0.0020155891  0.027037567 
  645000    299.64262    8398.4199     3048.625    27.659831 -0.009196752 0.0026596445   -0.0126169 
  646000    308.28281    13429.558     3048.625    28.306188 -0.010569238 -0.000928311 -0.005966792 
  647000    311.55375    7012.8388     3048.625    30.582716 -0.018534222   0.04220357  0.020444926 
  648000    317.46122    3753.8901     3048.625    32.318502 -7.4220578e-07 0.0072172819 -0.007342829 
  649000    330.74353    7939.3325     3048.625    30.979504  0.027460411  0.015428973 0.0001093052 
  650000    298.56036    6539.4033     3048.625    31.411422 0.0090632358 0.0060169142 -0.0069138917 
  651000    313.91812     2741.995     3048.625    33.093751 -0.0051361884   0.02350318 -0.0066714767 
  652000    304.30988    7547.5545     3048.625    33.993076 -0.049521119 -0.027652257  0.019418561 
  653000    286.96952    19391.987     3048.625    33.182507 -0.017494947 0.0052100017 0.0020775819 
  654000     301.1556    3373.9639     3048.625    32.152753 -0.014137411  0.046098796  0.024862218 
  655000    318.58128    1184.3054     3048.625    29.789694 -0.029331973 -0.010625192 -0.029502338 
  656000    292.54287    11549.337     3048.625    28.304537   0.01423837  0.018360058 -0.0015563663 
  657000    322.90995    10625.718     3048.625    28.953512 -0.0045501909  0.036981753 -0.0028439237 
  658000     302.0666      2114.26     3048.625    29.093134   0.00498152 -0.0099033035  0.010331416 
  659000    291.91324    13101.848     3048.625    28.285382 -0.027140881 -0.021929612  0.033205266 
  660000    291.88749    14146.747     3048.625    28.509452 0.0042825146 -0.012065581 -0.014624757 
  661000    304.54694    3968.4403     3048.625    30.213016 -0.0042945416  0.023291167 -0.017276729 
  662000    290.23363    8548.5258     3048.625    31.152249 -0.020228818 -0.010966573 0.0035325805 
  663000    286.78473    9995.6876     3048.625    30.088733 -0.031858713  0.050948632 -0.012648083 
  664000    313.45594    7477.0682     3048.625    29.245366 -0.027058204 -0.0043521879 -0.00095137042 
  665000    308.48427    677.88746     3048.625    28.761848 0.0048314147 0.0081751524 -0.0084343421 
  666000    314.27247     12996.31     3048.625    26.818248  0.020821304  -0.01147309 -0.0058396462 
  667000     324.8822        10756     3048.625    24.835542 0.0012293977 -0.0046817051  0.026804924 
  668000    312.49405    4091.4277     3048.625     23.39553 -0.00067690662 -0.0078120006 -0.002507878 
  669000     314.4506    1718.0454     3048.625    23.169418 -0.015772619 -0.051338597 -0.015281822 
  670000    315.34251    10877.546     3048.625    24.286797 -0.00055113719 -0.0026134415  -0.04533786 
  671000    331.95543    7960.6084     3048.625    26.775864 -0.0025275033 -0.013468573 0.0098111094 
  672000    317.15882    14569.665     3048.625    29.918472 0.0093753104 0.0015746774 -0.016956808 
  673000    297.82765    7364.5809     3048.625    31.312237 -0.018535001 0.0066689615 9.818824e-05 
  674000    304.56673    9927.4353     3048.625    30.671203  0.052427616 -0.011889839  0.016135614 
  675000    310.77924    10587.816     3048.625    29.758673  0.030331071 -0.0065493755 -0.0056371996 
  676000    316.94604    -30.99538     3048.625    28.273045  0.012469263 0.0045095461  0.025406145 
  677000    325.06667    4704.9309     3048.625    25.660045   0.03301529 -0.0078979907  0.015846826 
  678000     319.2273    8676.1584     3048.625    25.202945  0.037563275   0.01938292 -0.031338782 
  679000    310.39285    12360.688     3048.625    26.214869   0.02795783  0.030662571 -0.013581778 
  680000    312.60383    8176.1887     3048.625    28.065313 -0.0049291888  0.027475553  0.040218584 
  681000    311.35148    771.59712     3048.625    27.499868  0.024540709 0.0029682296  0.017952211 
  682000    318.47634    4516.3045     3048.625    27.259904  0.003038166 2.7275124e-05 -0.0056480367 
  683000     326.1254    7105.6118     3048.625    28.187294  0.030235848   0.02940393 -0.019336229 
  684000    309.51681    5874.0154     3048.625     28.55236  -0.03942165 -0.0031326438 -0.015925711 
  685000    322.15455    5584.1039     3048.625    28.551841 -0.019472265  0.031509963 -0.018646973 
  686000    300.65475    4317.3694     3048.625    27.322878 0.0070906441 -1.8718824e-06  0.041145369 
  687000    297.88381    517.72836     3048.625    25.987252  0.011556973 -0.0075184732 0.0046563673 
  688000    300.65191    3597.9575     3048.625    26.710299 -0.0061506242 -0.019360894  0.036479246 
  689000    296.68252    18639.456     3048.625     28.75388  -0.03059979  0.018015581 -0.0015964858 
  690000    302.64275    6929.0206     3048.625     28.86897  0.022101622  0.018222472  0.033522827 
  691000    323.80728    7159.6332     3048.625    27.587249 -0.014552943 -0.0034394144  0.020849533 
  692000    309.17532    10483.384     3048.625    26.131161 -0.016163055  0.014613989 -0.011658588 
  693000    317.35109    8584.7626     3048.625    27.772408 -0.0075416737  0.028350691  0.029532438 
  694000    308.11545    7358.0692     3048.625    29.932726 0.0098170302 0.0051785741 -0.0020632459 
  695000    298.21745    7043.8794     3048.625    30.548223  0.001977062  0.026125465 -0.0011734765 
  696000    285.91335    7486.9186     3048.625    30.603048 0.0049082914  0.027693407  0.025610971 
  697000    281.68692    15622.866     3048.625    28.242892 -0.037793967  0.043691397 -0.033494357 
  698000    309.35382    5269.9116     3048.625    25.562471 -0.011891791 0.0080361491 -0.0030740043 
  699000    310.38541    5329.8103     3048.625    24.122932 -0.026326823  0.021359015 -0.0021669086 
  700000    324.93271    9150.0727     3048.625    23.265944 -0.0062973336  0.049569289  0.034285605 
  701000    329.50764    2536.3591     3048.625    24.057246  0.004078066 0.0095529433 -0.013609669 
  702000    294.84293    6254.8857     3048.625    22.953397  0.016404185 -0.013743034  0.026992065 
  703000     320.0587    14150.014     3048.625    24.005733  0.029342864 0.0047690519  0.058727607 
  704000    312.37841    6978.6274     3048.625    27.092831  0.036016275 0.0095676065   0.06232282 
  705000    317.27516   -1144.1333     3048.625    29.562559   0.05540191 -0.0025817786  0.055320209 
  706000    294.49582    5676.4992     3048.625    30.734185  0.028002884 -0.031846127 0.0026924608 
  707000    321.07832    12520.353     3048.625    31.921971 0.0049077166 -0.011946429  0.011564053 
  708000     307.8412    7284.3121     3048.625     33.52062 -0.020709396  -0.01550367 -0.012902945 
  709000    320.79248    3237.3361     3048.625     35.56633 -0.020291754 0.0013035683 0.0076029346 
  710000    329.84485    8660.7036     3048.625    35.745966 -0.026094336 -0.026777537   0.03594391 
  711000    315.58625    6052.8718     3048.625    34.732928 -0.0032551988 -0.021264466 -0.023047887 
  712000    309.10189    7612.3163     3048.625    34.239949  0.029479295 -0.013539198  0.021280507 
  713000    312.71742     13536.28     3048.625    32.631871  -0.01782811  0.021681682 0.0095801518 
  714000    316.17472    6762.1286     3048.625    31.026943 -0.028097811  0.013603082 -0.0078884186 
  715000    317.55253    6635.5315     3048.625    29.936263 -0.036362407   0.03248603  0.035503397 
  716000    298.22438    2311.6518     3048.625    29.911577  0.017649581 -0.024277093 -0.010207986 
  717000    305.43769    2258.4587     3048.625    30.034406 -0.030462375  0.014897027   0.02100277 
  718000    311.32253    12302.259     3048.625    29.959836 -0.0011995625 -0.020624351 -0.012594262 
  719000    303.86687    6188.4027     3048.625    31.153259 -0.006323976 0.0048255145 -0.0045669775 
  720000    304.07009     7183.293     3048.625    31.659504 -0.0020759293 -0.030391049 0.00037589109 
  721000       314.23    4601.8207     3048.625    29.372801 -0.037534882 0.0098701908  0.017389136 
  722000    314.16423    7731.0548     3048.625    28.690174 -0.0059185393 -0.0086043572 -0.028501807 
  723000    323.17991    5884.2102     3048.625    28.584165 -0.0098608297 0.0060166929 -0.0095002012 
  724000    323.62619    -1534.441     3048.625     28.65455 -0.013088312 -0.025122783  -0.02554314 
  725000    320.79775    6166.1984     3048.625    29.568303  0.020841051 -0.024095093 -0.025888122 
  726000    309.95446    13396.294     3048.625    32.565587 0.0070808953 0.0052139606  0.001712016 
  727000    312.89496    3965.9931     3048.625    34.759788  0.004615896  0.012737231 -0.022460229 
  728000    328.63383   -3842.6291     3048.625     33.61276 -0.021104087  0.006773294  0.028296605 
  729000    319.49285    10520.245     3048.625    30.998367 -0.020127986  0.023136092  -0.05612684 
  730000    312.06232    4982.0283     3048.625    27.469552 -0.019380979 -0.004798739  0.007761865 
  731000    306.99407    1783.7002     3048.625     25.77358 -0.0018240928 -0.030078787  0.026055502 
  732000    292.58239    5898.0517     3048.625    25.396819 -0.0082117416 0.0010996806 0.0071311737 
  733000    302.69862     703.6064     3048.625    23.735739  0.017189481 -0.026202739 -0.013849266 
  734000    305.98228    9536.6878     3048.625    23.049907 -0.043812892   0.01399951 -0.047506821 
  735000    300.39757    14349.365     3048.625    22.279083 -0.021344198  0.031699815 -0.00063872678 
  736000    311.20443    4095.8451     3048.625     23.29554 0.0087594404  0.012064574  0.028619073 
  737000    317.48103    4995.2648     3048.625    26.747357  0.027759943 -0.0020299708  0.012929627 
  738000     306.2101    6760.9364     3048.625    29.639183  0.019949822  -0.02404085 0.0026905539 
  739000    326.76297     5549.573     3048.625    33.174925 0.0052345734   0.02963737  0.049563186 
  740000    300.83362    8258.5141     3048.625    35.035467 -0.066983743  -0.02060961  0.010420395 
  741000     314.1906    2740.5852     3048.625      32.4454  0.019987743 -0.039622199  0.011012355 
  742000    320.56038    2279.2569     3048.625     27.44727 -0.033292372 -0.044377099 -0.0095799266 
  743000    311.12767    9185.6146     3048.625    25.560882  0.015952473 -0.012083303 -0.0050794564 
  744000    302.19077    6040.2545     3048.625    27.012774 -0.010263365 -0.016164828 -0.012319342 
  745000    312.02056    7966.9384     3048.625    28.370435 -0.0083745942 -0.028099538  -0.04455013 
  746000    315.86797    6580.6922     3048.625     31.15277  0.035239989 -0.029267774 0.00033328915 
  747000    312.64853    11504.374     3048.625    32.894398  0.005049111 -0.016218603 0.0058434568 
  748000    307.71361    3240.3719     3048.625    33.405666 0.0062039637 -0.023698657 -0.013717933 
  749000    308.62703    5933.1132     3048.625    32.578041  0.026180986 0.00022678849 -0.014389176 
  750000    320.51307    2170.8279     3048.625    32.182453 -0.0071387877 -0.00088948153 0.00029592541 
  751000    330.88067    9101.3049     3048.625    31.457927 -0.035785131 0.00023381655 -0.048755587 
  752000    306.38601    6947.5841     3048.625    33.015654 -0.034860779  0.028304356 0.0083705047 
  753000    307.39493    8483.3798     3048.625     32.81413  0.020055569  0.031782461  -0.03204954 
  754000    309.48814    10446.722     3048.625    32.360821 -0.032534807  0.051669736  0.034789919 
  755000    321.74528   -2013.3359     3048.625    32.169304 0.0040750498 -0.0044778757 -0.021164112 
  756000    317.64341    2149.7858     3048.625    31.349453 -0.0019951632 -0.020487039 0.0021419786 
  757000    318.31163    8188.0728     3048.625    29.766582 -0.00022727557 -0.036083812 0.0053167711 
  758000    317.06307    7314.0113     3048.625    29.482243  0.045705486 -0.0049595901 -0.0042628048 
  759000     330.5934    1601.8326     3048.625    30.468986  0.010420592 -0.0056282613 -0.016732713 
  760000    308.56786    4445.1216     3048.625    32.523142 0.0015919757  0.030609152  0.011088904 
  761000     325.4072    9868.6694     3048.625    34.110348   0.04244019 -0.015637847 -0.023215661 
  762000     288.3696    5620.1567     3048.625    34.634485 0.0025841301  0.015604692 -0.029445827 
  763000     320.4625     1227.546     3048.625    34.965124 -0.0023293713  0.025850247  0.019798831 
  764000    334.73887    5917.6771     3048.625    34.220353 0.0067497559  0.024144669 -0.010695184 
  765000    328.95255    4287.8377     3048.625    33.389914 -0.024068001 -0.014968101 -0.0081522275 
  766000    324.22609    1671.5612     3048.625    32.564754  0.019528562  0.012080692 -0.021117004 
  767000    304.94928    7720.9138     3048.625    31.872046   0.02160509 0.0012159005 -0.029861841 
  768000    305.39487    8311.5362     3048.625    31.124437  0.019721119 -0.014890754 -0.045521638 
  769000    329.33738    4437.5355     3048.625     33.20314 -0.0097680307 0.0043304485  0.010310111 
  770000    310.46566    3205.7667     3048.625    34.479116  0.026629672 -0.0016092783  -0.01270442 
  771000    319.81289    9063.5561     3048.625    34.277204  0.025181146 -0.0077751875 -0.019322036 
  772000    308.16048    7413.6717     3048.625     34.50725  0.010419226 -0.0016646577  0.023597923 
  773000    320.44407    681.55065     3048.625    34.766717 0.0032103743  0.020658179  0.033726129 
  774000    311.11299    1438.2884     3048.625    35.406229 -0.025021546   0.02055862 0.00045723025 
  775000    325.85313    18228.448     3048.625    35.522427  0.031038192 0.0030132255 -0.0023599236 
  776000     323.9021    5992.3164     3048.625    34.089514  0.042988304  0.053051868  0.032936866 
  777000    327.66269   -1073.3247     3048.625    32.597482  0.029215201  -0.03390063 -0.039037484 
  778000    325.66235   -276.08016     3048.625    30.568312 -0.011900006  0.015513288 0.0072255949 
  779000    314.96928    8606.6182     3048.625    27.648093 0.0012963787 -0.0052787952 0.0053188149 
  780000     347.9469    11768.894     3048.625    25.685012 -0.045980631 -0.005622429  0.010450667 
  781000    322.52648    1243.0194     3048.625    26.964961 -0.027995017  -0.02974853 -0.040434197 
  782000    317.15905    6842.1645     3048.625    30.311449 -0.030844062 0.0037752628 -0.019109067 
  783000    302.43637    5749.1529     3048.625    31.847562 0.00066383569 -0.020263495 -0.018904876 
  784000    321.40497    -817.0235     3048.625    28.998951 -0.035160855 -0.00094904419 -0.0024763439 
  785000    316.74375    6298.0001     3048.625    26.219873 -0.009481872 -0.028222845 -0.0036880208 
  786000    312.53948    8641.5605     3048.625    24.655245 -0.038146014 -0.030876192 -0.008378961 
  787000    301.07905   -3713.5891     3048.625    26.360899 0.0093592126 -0.036970249 0.0051123388 
  788000    317.43462    9905.8636     3048.625    28.041497 -0.017705446  0.022537312 0.0027947909 
  789000    315.01096    12249.275     3048.625    30.238548 -0.0081258212  0.023485596 0.0032674989 
  790000    320.03249    1959.1914     3048.625    32.416843  -0.02928264 0.00089804559 -0.044398608 
  791000    328.92062   -3418.2932     3048.625    33.132041 -0.029927777  -0.01208193  0.010908646 
  792000    316.90534    6699.9153     3048.625    32.139937  0.036188562 -0.0071579827 -0.011315364 
  793000    319.42667    7278.8837     3048.625     31.19886  0.017296306 -0.028697575 -0.057192558 
  794000    301.03033    12627.608     3048.625    30.481967 -0.027931728  0.031259679  0.055398011 
  795000     311.7963    2754.1546     3048.625    31.975341 -0.015179132  0.049185514 -0.016942845 
  796000    292.61308    6752.4578     3048.625    33.953963 -0.029662122    0.0203902 -0.024117275 
  797000    308.75528    6783.2871     3048.625      34.2388 0.0033880065 -0.0038659286 -0.015542799 
  798000    308.46953    8983.5769     3048.625    32.799623 -0.042401665 0.0068129022 -0.018715669 
  799000    323.21066    9130.9212     3048.625    32.007938  0.011543774 0.0053663861 -0.0051606371 
  800000    326.83436    1993.2448     3048.625    30.726661 0.0087305258  0.026283118 -0.0098067283 
  801000    311.68948   -2084.7641     3048.625    30.787405 -0.033859713  0.013525356 -0.0030004684 
  802000    326.88565    6634.9503     3048.625    31.789834 0.0073850694  0.027221172 -0.0093278667 
  803000    302.53382    8450.5968     3048.625    31.555393 0.0047521451 -0.0051682097 -0.033903113 
  804000    325.65395    4147.8709     3048.625    31.774136  0.042322831 -0.00081542391 -0.034083849 
  805000    323.79192   -1718.6343     3048.625    30.795428 -0.004004885   0.01399784 -0.0090118915 
  806000     327.1561    3908.4489     3048.625    28.978787  -0.05238134  0.013113215 -0.019074731 
  807000    317.80605    9471.9823     3048.625    27.196013 -0.018730423  0.012094814 -0.014957129 
  808000    330.25048   -801.84191     3048.625    25.738335 -0.024576501  0.041163811  0.019518017 
  809000    304.52727    133.46186     3048.625    25.207386 -0.020590441  0.021578985   0.04055758 
  810000    305.66138     6007.524     3048.625    26.706091 -0.00057629814  0.012527549 0.0093095221 
  811000    310.09217    6770.2871     3048.625     29.15273  0.010094216  0.015549353 0.0050013235 
  812000    309.50657    79.817576     3048.625    31.960707  0.015368139  0.013758333 -0.0080711637 
  813000    330.80201     3852.685     3048.625    34.334314 0.0096273362 -0.036371707 -0.012677342 
  814000     331.0317    2047.2668     3048.625    34.810324 -0.022626165 -0.034296202  0.023760029 
  815000    336.59843    6648.2761     3048.625    35.309854 -0.003863251 -0.016426007  0.015397949 
  816000    314.68556    7074.0908     3048.625     35.40985 -0.0081127574  0.010676481   -0.0361519 
  817000    330.08757     6900.356     3048.625    33.602621 -0.015631031  0.007445465 -0.021401932 
  818000    309.78076    476.14886     3048.625    30.267123  0.021511297 -0.028692882 -0.0065126233 
  819000    307.04953    4315.8131     3048.625    28.590081  0.050330059 -0.026071665 -0.033730971 
  820000    328.34904    8634.7278     3048.625    27.739829 -0.0071319206  0.014492947  0.062481848 
  821000    301.25899    8213.8998     3048.625    28.516532 -0.0026373072   0.01266949  0.027245024 
  822000    326.83268   -1268.4064     3048.625    28.825152 0.00055046165 -0.028512997 0.0056170011 
  823000    303.31966    406.60383     3048.625    30.851138 -0.018650675 -0.047649896 -0.015309174 
  824000    324.56092    599.45207     3048.625    32.739567 0.0054572004 -0.032616085 -0.0087878111 
  825000    330.01868    10733.277     3048.625    32.074094 -0.020117262 -0.017922698  0.036492703 
  826000    340.19225      8999.92     3048.625    30.754518  0.035361801 0.0093356345  0.036678489 
  827000    331.67811    2631.8531     3048.625    31.317765  0.010188238 -0.011212073 -0.017096986 
  828000    324.15391   -297.02857     3048.625    32.703148 -0.027444869 -0.0064198879  0.038412671 
  829000    311.58574    10611.555     3048.625    31.039376 -0.010364561  0.026150953  0.036671687 
  830000     304.8718    14046.349     3048.625    25.804953  -0.02042055  0.018071237 0.0082405746 
  831000    322.36613   -7408.6509     3048.625    21.535363  0.024765156 0.0053247982  0.015720458 
  832000    315.43679    297.73574     3048.625    21.079285 -0.038195784  0.033484253 -0.0041828816 
  833000    331.64659    11602.284     3048.625    23.505627  0.026326406  0.066761803 -0.0087584456 
  834000    331.88423    3448.3449     3048.625    27.087752 -0.019266415  0.012978229 -0.0061986393 
  835000    314.96249   -589.98497     3048.625    27.865935  0.019718511  0.021232869  0.022417642 
  836000    308.64018    3180.5634     3048.625    27.118302 -0.0035076649  0.029805412 -0.016223806 
  837000    320.06296    11855.071     3048.625    26.737332  -0.01570566 -0.002747992 -0.016610133 
  838000    320.90041      6833.02     3048.625     28.28846 0.0050685847  0.025887035  0.012619637 
  839000    313.37119    1866.0229     3048.625    28.025971 -0.020667397  0.027940342 -0.025094026 
  840000    309.16279    3674.0439     3048.625    24.975767 0.0044292226  0.010524156 0.0070622453 
  841000    312.95337    7867.9815     3048.625    21.052064  0.031245577 -0.011888802 0.0041044221 
  842000    330.72557    2539.3261     3048.625    19.463903 0.0029422951 -0.043914871   0.03039644 
  843000    290.42852    4834.1678     3048.625     21.09106  0.047990842 -0.028922708  0.016936048 
  844000    305.15404    512.84312     3048.625    24.369441 0.0051196112 0.00017971422  0.010895602 
  845000     315.4014    10545.411     3048.625    29.701158 -0.0036345764 -0.0087374351 0.0050930335 
  846000    326.54743    5522.3316     3048.625     34.13856  0.055414109 -0.031826255  0.041548132 
  847000     323.3542     6719.381     3048.625    36.088773  0.016022682 -0.022623998 0.0090508728 
  848000    311.58901    9942.4028     3048.625    34.232739 -0.013652843 -0.026429611 -0.022376214 
  849000    317.25314    2175.0215     3048.625    30.307925  0.040558382 0.0076652883 -0.002298951 
  850000    314.93567   -1371.7776     3048.625    27.768857 -0.014171773 -0.0038366308  0.017557113 
  851000    320.58445   -421.01874     3048.625    28.550545 -0.026514461 -3.0228267e-05  0.029937293 
  852000     332.8466   -1181.6651     3048.625    32.220159 -0.034985454 -0.00024410717 0.0023146169 
  853000    304.35477    7993.6468     3048.625    34.787408 0.0025569434 -0.0042687029 -0.011137456 
  854000    316.95757    2172.2192     3048.625    31.720606 0.0013467976 -0.022024349 -0.016957024 
  855000    324.92414   -4667.1236     3048.625    25.441231 0.0058828408 -0.053093462  -0.02409783 
  856000    336.50624    3639.3786     3048.625    22.552558 -0.014895944  0.018775248  0.015366814 
  857000    325.36014    12048.544     3048.625    25.113211 -0.016108733 0.0060431635  0.015294701 
  858000    327.80051    9564.0792     3048.625    28.383293 -0.051924088 -0.011725561 -0.034096271 
  859000    330.69651   -662.27792     3048.625    27.947949 -0.049640099 -0.026874073 -0.0018401319 
  860000    330.67341    2530.4314     3048.625    24.802664 0.0072439811  0.027893136  0.040133482 
  861000    318.46674    3717.0895     3048.625      22.7617  0.005047259  0.051915841  0.002451002 
  862000    312.85168    3527.8928     3048.625    21.645936 0.0032376836 -0.014329434 -0.012534722 
  863000    335.60067    7452.5687     3048.625    21.364795 -0.019707842 -0.017253968 -0.044538918 
  864000    335.89535    126.59386     3048.625     20.38687 -0.035209999 -0.0032247751 0.0046503212 
  865000    308.94688    4070.8616     3048.625    21.587438  0.031180223 -0.0068517863  0.010352717 
  866000    318.11765    2676.1444     3048.625    27.667297 -0.016008363 -0.0037535457  0.010658067 
  867000    315.31202    634.83113     3048.625    30.600415 -0.0020093269 -0.015020994 -0.012474285 
  868000    340.67623    8899.9574     3048.625    27.183227 -0.019377009 0.0042646265 -0.028460489 
  869000    323.78654    6736.8851     3048.625    22.215449 -0.047983882 -0.043534991  0.039307259 
  870000    338.92673    3434.4536     3048.625    22.297065 0.0069300731 -0.0069228772 -0.014630959 
  871000    302.03488    4240.3702     3048.625    25.466164 -0.010548007 -0.0063824013 -0.029158353 
  872000    317.76034    2813.8303     3048.625    27.636124 -0.014156251 -0.0088013336  0.015225832 
  873000    310.96516    3589.2015     3048.625    26.260765 0.0039298144 0.0082192934 -0.012039589 
  874000    304.30766    5047.0331     3048.625    26.430612 0.0085950419   0.06120025  0.038944047 
  875000    319.18968    2008.0614     3048.625    31.699902 -0.010253023  0.015465608  0.039277026 
  876000     325.4387    5437.3471     3048.625    35.693498  0.013087373  0.020536746 -0.0040316376 
  877000    331.37074    5398.3678     3048.625    31.479005  0.029096145 -0.021094286 -0.020710029 
  878000     333.0596       8388.6     3048.625    25.042684   0.01684763 -0.022094894 -0.0014523035 
  879000    319.00264    1204.5578     3048.625    24.525261 -0.011351388 -0.0070136261 0.0058610323 
  880000    297.53305    8410.9006     3048.625    28.117336 -0.0042462277  0.015415895  -0.03615811 
  881000    325.85615    5289.1604     3048.625    30.283883 -0.0075158188 0.0038652466 0.0036949258 
  882000     333.1273    3093.7514     3048.625    30.020183 -0.0044427878 0.0094916549 -0.013681643 
  883000    333.51623   -212.43313     3048.625    29.839713  0.013890847 0.0048852524 -0.018081305 
  884000    321.55777    8535.4312     3048.625    31.301516  -0.03375306 -0.042525568 0.0088615101 
  885000    317.30435    10067.006     3048.625     32.35583 -0.023240353 -0.034712317  0.019795009 
  886000    318.20104    4604.7929     3048.625    31.692975 0.0021843017 -0.0082016321  0.021650233 
  887000    315.74733    3753.0243     3048.625    28.723077   -0.0217592 -0.0025005573 -0.013946657 
  888000    295.87283    1320.5885     3048.625    27.608955  0.032748321 -0.029721328  -0.05128727 
  889000    332.44338    1860.3413     3048.625    27.525771 -0.026052352  0.032637384 0.0070554036 
  890000    303.97437    10063.181     3048.625    29.196717 -0.022185655 -0.024211108 -0.017470743 
  891000    311.27264    5585.1306     3048.625    29.083681 -0.0031627308 -0.022886683  0.034384103 
  892000    320.02225    6830.7244     3048.625    29.280499 -0.021077485 -0.019432397  0.020090776 
  893000    319.15295   -422.50482     3048.625    29.863232  0.010949447  0.024547841   0.00673263 
  894000    304.80773    12243.118     3048.625    29.413041 0.0032663963  0.011601863  0.025226212 
  895000     300.8227    5941.9766     3048.625    29.183622  0.040696313  0.025288516 -0.006964737 
  896000    316.87894   -3585.7619     3048.625    30.793076  0.014392366 -0.043494995 -0.0095624738 
  897000    323.70805    1751.8587     3048.625    31.820207 -0.0019745629  0.026582421 -0.023194745 
  898000    310.61797     12879.64     3048.625    33.051335  0.026877579 0.0015632741 0.00029359874 
  899000    297.26719    10187.322     3048.625    34.269098 -0.0018146104 -0.017966005  -0.05323942 
  900000    313.74439   -968.36292     3048.625    35.296722  0.033398295 -0.0024508694 -0.0099912181 
  901000     328.6945    4074.1823     3048.625     36.09512 -0.012908756 -0.032130969 -0.018229503 
  902000    307.30535     5068.298     3048.625    36.183622 -5.9585962e-05 0.0019907899  0.010031594 
  903000    312.03103    4081.3783     3048.625    35.834857 -0.0010424674  0.013927729 -0.0051672821 
  904000     294.4303    1830.4149     3048.625    35.169404 -0.037148164 0.0037865812 -0.00038251405 
  905000    294.88434    3262.4771     3048.625    32.322662 -0.050035059 -0.044518675  0.018602968 
  906000    313.95659    10274.056     3048.625    28.553841 0.0084019702 0.0082672259 -0.026077465 
  907000    328.24628    7057.4723     3048.625    25.147716 -0.032365492 0.00091356605 0.0074720439 
  908000    313.77186   -2195.3989     3048.625    24.588178 0.0051985416 0.0071685703   0.01417961 
  909000    316.50624    1265.5201     3048.625    25.206838 -0.0072419742  0.031275886  0.037532734 
  910000    291.27948     10831.95     3048.625    25.193029  0.016313235  0.010588824  0.034165913 
  911000    315.94205     5967.361     3048.625    26.309378 -0.029477919 -0.055363053  0.006507407 
  912000    319.57945    2167.5528     3048.625    25.857821   0.01469859 0.00081032369  0.016379029 
  913000    312.15695    331.44689     3048.625    25.357767 -0.0090989592 -0.011623103 -0.011767759 
  914000    328.29514    10154.638     3048.625    26.128863  0.010837829 -0.025699434 0.0055813748 
  915000    321.12105    14422.559     3048.625    29.866147 -0.040772969 -0.023103701 -0.030914112 
  916000    326.89627   -5824.0268     3048.625    33.456783 -0.019591104 -0.0040841296 -0.010531907 
  917000    293.65479    4230.7561     3048.625    33.671764 -0.053527181  0.027425183 -0.012845934 
  918000    300.03547    14315.818     3048.625    32.622942 0.0036270269 -0.0083484491  0.003042891 
  919000    332.25633    1865.8546     3048.625    30.373857  0.020596357 0.0064523482 -0.023670124 
  920000    299.39026    2942.9419     3048.625    26.617171 0.0098291029  0.019783451   0.00286705 
  921000    336.46347   -238.01677     3048.625    22.252656 -0.0081063983  0.011654052 0.0081942336 
  922000    319.32081    3284.7785     3048.625     20.00791 -0.012957214  0.026503566 -0.0025765702 
  923000    291.09692     11161.16     3048.625    21.897325  0.015477892 -0.0021509382 -0.031626677 
  924000    300.37695    1967.2232     3048.625    27.296264 0.0032388667  0.010254701 -0.0052370565 
  925000    301.48244    3238.5506     3048.625    32.423662  0.054911398  0.018184059 0.0003142123 
  926000    294.62374    6956.9584     3048.625    34.859491 -0.002707412 -0.0023338426 -0.016790178 
  927000    319.04271    2136.7075     3048.625     34.84207   0.02877192  0.025433834  0.012043716 
  928000    303.73816    3320.6464     3048.625     32.28989  0.057012024 -0.0048158563  0.012824597 
  929000    302.45347    14652.136     3048.625     28.71947 -0.051801831 -0.001184149  0.003066228 
  930000    298.77893    5244.5371     3048.625    25.672224 -0.020541431 0.0065597953  0.036011285 
  931000    312.73738   -6332.2064     3048.625    23.021388 -0.050090698 -0.002290328 -0.0034746469 
  932000    312.13951    6903.9052     3048.625    22.194919 0.0031609278  0.017546719 -0.030590414 
  933000    309.79547    12112.984     3048.625     22.45132 -0.0074190783  0.042444233 -0.008053183 
  934000    319.78688    7563.9751     3048.625    23.718525  0.027586417 -0.025156267  0.031638123 
  935000    303.41698    475.59187     3048.625    26.272168  0.045763854 -0.023976087 0.0083195485 
  936000    296.40531    1139.4158     3048.625    27.826443  0.027566772   0.04987598  0.028441025 
  937000    309.70827    7977.5124     3048.625    26.425119  0.014070648 -0.035661626 -0.025983417 
  938000    292.90627    12660.631     3048.625    23.894945 -0.0028168969  0.011336273 0.0027528668 
  939000    299.25041    1577.3305     3048.625    21.394776 -0.033719101   0.02232146 -0.050712841 
  940000    286.12978    580.81681     3048.625    22.601785  0.014374097  0.012039691 -0.016179857 
  941000    292.80458    1525.6576     3048.625    26.022103  0.038883494   0.03151805 -0.0034006887 
  942000    313.31634    9731.8132     3048.625    30.183465 -0.015319512  0.023708559 -0.012144632 
  943000    323.61927    14208.997     3048.625     33.79236 0.0027641067  0.032803895 0.00099042009 
  944000    325.38591    5276.3167     3048.625    34.378857 0.0055826641 -0.0035668202 -0.00043026165 
  945000    308.04015   -4353.7683     3048.625    32.116107 -0.023523101  -0.01866006 0.0071784914 
  946000    317.49536    4062.0004     3048.625    28.981622 -0.025649771 0.0044937813  -0.02077717 
  947000    320.48297    15767.729     3048.625    25.670412 -0.023939371 -0.014567871  0.004342473 
  948000    318.29999    14911.193     3048.625    24.546792 -0.015502665 -0.032262109 -0.0073162346 
  949000    312.49498   -7383.1108     3048.625    26.103118   0.01757685  0.030838968 -0.0062844313 
  950000    311.53856   -283.66396     3048.625    27.629145 -0.00050800753 -0.011545069 -0.014017819 
  951000    321.16176    7279.2187     3048.625    29.621388 -0.010231267  0.012480646  0.023106775 
  952000    309.41171    14273.476     3048.625    31.723232 -0.017496129 -0.014457216  0.010441907 
  953000    312.32611   -5542.1202     3048.625    31.440235 -0.007871229  -0.03343907  0.019971295 
  954000    307.76012   -2389.3247     3048.625    28.268874 -0.015035653 -0.015964696  0.027549547 
  955000     303.4621    6173.2775     3048.625    25.210655  0.016085265  0.016414181 -0.041674608 
  956000    318.58924    9766.6813     3048.625    23.547538 -0.017585555 -0.027219456  0.021520965 
  957000    334.38523     6088.116     3048.625    22.735462  -0.03731773  0.011915023 0.0081191786 
  958000    303.72265    8023.1838     3048.625    24.030976   0.01222539  0.012951227   0.00337452 
  959000    313.74003    6034.9715     3048.625     25.78948  0.015077294 -0.014880453  0.010515629 
  960000    313.02769    3978.6537     3048.625    27.634002   0.05396989  0.022801707 -0.0080050675 
  961000    316.04109     1031.373     3048.625    28.253734  0.024100456  0.015177741 0.0036983351 
  962000    314.54085    3748.4144     3048.625    27.327662 -0.041368865  0.023764422  0.015520714 
  963000    311.73504    2172.6453     3048.625    24.694918 0.0069191217 0.0049543965 -0.045816922 
  964000    324.90911     7546.007     3048.625    22.171547   0.01738433 -0.035994108  0.050531124 
  965000    349.12436     8190.047     3048.625    22.233909  0.030339431 -0.033559627   0.00830729 
  966000    301.28987    3983.0225     3048.625    25.045869  0.030921992 -0.023267768  0.018375079 
  967000    296.40379    6075.1141     3048.625    28.354423  0.014063552 -0.0084625838  0.021703122 
  968000    302.33895    9705.8186     3048.625    30.807167 -0.024499233 -0.0037783025 0.00066511919 
  969000    320.95196     2485.611     3048.625     31.51708 -0.0045817823  -0.02040858 0.0096456681 
  970000    330.75855   -2835.2157     3048.625    32.331985  0.035389381 -0.021612315 -0.017574463 
  971000    306.57054     3977.415     3048.625    33.085266 -0.023939064  0.031616799  0.024181603 
  972000    302.92762     9320.761     3048.625    33.082637 0.0035427852 -0.0064329093 -0.0046970783 
  973000    314.19596    3741.9942     3048.625    32.413343 -0.018126273  0.019173832 -0.0060555845 
  974000    329.28173    6044.4688     3048.625    33.581868 -0.0027947515  0.017160606 -0.024950189 
  975000    339.86026   -932.25963     3048.625    35.154146 -0.0096474463   0.00341684  0.044744357 
  976000    292.65942    1697.6505     3048.625    36.136853 -0.011967583  0.037423565  0.057892864 
  977000    283.52699    6663.0324     3048.625    36.116026 -0.045942037  0.003339106   0.01956036 
  978000    296.30266    7311.9604     3048.625    34.515088 -0.010252318 -0.036200027 -0.0028407896 
  979000    309.05445    1501.8587     3048.625    32.689327 -0.022768545 -0.0049116515 -0.021831835 
  980000    294.48226    894.09741     3048.625    29.744527 -0.0059182313 -0.021953334 0.00099002002 
  981000    304.86686    12478.583     3048.625    29.390617  0.021756751  0.019539127 -0.0087645176 
  982000    312.20778    6277.0938     3048.625    29.310914 -0.0068868753 -0.0074689431  0.013553434 
  983000    295.15782    5945.4185     3048.625    26.637193   0.02325123  0.015779479 0.0060612467 
  984000    287.89069    1857.8598     3048.625    24.634102 -0.0015018064  0.044638239 -0.013761211 
  985000     299.6109    6970.6255     3048.625    24.165621  0.014882618 0.0062703476 -0.014160437 
  986000    313.61227    8761.6243     3048.625     25.66807 -0.00098011297 -0.010149172 -0.0028006646 
  987000    311.33697    6869.5531     3048.625    27.690768  -0.01495206 -0.030942197 -0.020158876 
  988000    320.25833    3066.9117     3048.625    29.274003 0.0021075098 -0.0060277535 -0.011223602 
  989000    298.71326    8560.7796     3048.625    27.207415 -0.0024187712 0.0009492664  0.019995025 
  990000    295.22857    4327.8219     3048.625    25.013051  0.021917247 -0.0046496533  0.030845775 
  991000    325.00457    3257.6044     3048.625    23.879928 -0.0096730434 -0.037562634  0.005775272 
  992000    316.72927    4747.0424     3048.625    24.825999 -0.0041201175 -0.046945168 0.0036272015 
  993000    318.56915     6519.596     3048.625    26.183481 -0.034310608 0.0087114956  0.006536584 
  994000    303.27454   -1592.8985     3048.625    26.724158 -0.022559931 0.0020374144   0.01531786 
  995000    303.07965   -741.48957     3048.625      26.5692 -0.0089396418  0.031815226 0.0026443178 
  996000    316.96788    622.76479     3048.625    25.736549  0.024162534  0.038666523  0.011232972 
  997000    312.84025    12656.404     3048.625    25.345192  0.065148125 -0.013646971  0.014674195 
  998000    304.42913    10489.524     3048.625    25.060089 -0.011537737 -0.0051299567 -0.0065709862 
  999000    308.13415   -3876.5496     3048.625    25.092599  0.015837026 -0.035486014 0.0080798788 
 1000000     301.8907   -6734.8691     3048.625    25.758318 -0.083127757  0.011049003 -0.014857172 
Loop time of 10936.7 on 1 procs for 1000000 steps with 240 atoms

Pair  time (%) = 10793.5 (98.6908)
Bond  time (%) = 0.24307 (0.00222253)
Neigh time (%) = 46.667 (0.426702)
Comm  time (%) = 30.1961 (0.276099)
Outpt time (%) = 0.213351 (0.00195079)
Other time (%) = 65.8634 (0.602226)

Nlocal:    240 ave 240 max 240 min
Histogram: 1 0 0 0 0 0 0 0 0 0
Nghost:    5820 ave 5820 max 5820 min
Histogram: 1 0 0 0 0 0 0 0 0 0
Neighs:    87899 ave 87899 max 87899 min
Histogram: 1 0 0 0 0 0 0 0 0 0
FullNghs:  175798 ave 175798 max 175798 min
Histogram: 1 0 0 0 0 0 0 0 0 0

Total # of neighbors = 175798
Ave neighs/atom = 732.492
Ave special neighs/atom = 0
Neighbor list builds = 6577
Dangerous builds = 0
#	run			10000
	unfix			1
	uncompute		myKE
	uncompute		myPE
	uncompute		myStress
	uncompute		flux
	uncompute		myDis
	unfix			JJ

	next seed
	next iseed
jump lmp.in.gk loop_seed
variable iseed loop 10
variable seed index 11111 22222 33333 44444 55555 66666 77777 88888 99999 11110
clear
###########################################################################
#x0
###########################################################################
units 			metal
atom_style		full
read_data		fort.26.nonbonded
  0 = max bonds/atom
  0 = max angles/atom
  0 = max dihedrals/atom
  triclinic box = (0 0 0) to (14.5 14.5 14.5) with tilt (0 0 0)
  1 by 1 by 1 MPI processor grid
  240 atoms
  0 bonds
  0 angles
  0 dihedrals
  0 = max # of 1-2 neighbors
  0 = max # of 1-3 neighbors
  0 = max # of 1-4 neighbors
  1 = max # of special neighbors
group         		C type = 1
60 atoms in group C
###########################################################################
#OLPS
###########################################################################

################################################################################
#### Pair potentials
################################################################################
pair_style hybrid/overlay tersoff lj/cut 12.0
pair_coeff * * tersoff C.4.tersoff 1 2 3 4
pair_coeff 1 2 lj/cut 0.0007000000 3.5500000000
pair_coeff 1 3 lj/cut 0.0007000000 3.5500000000
pair_coeff 1 4 lj/cut 0.0007000000 3.5500000000
pair_coeff 2 3 lj/cut 0.0007000000 3.5500000000
pair_coeff 2 4 lj/cut 0.0007000000 3.5500000000
pair_coeff 3 4 lj/cut 0.0007000000 3.5500000000
special_bonds lj 0.0 0.0 0.0 coul 0.0 0.0 0.0

#pair_style tersoff
#pair_coeff * * C.4.tersoff 1 2 3 4

#pair_style lj/cut 12.0
#pair_coeff 1 1 0.0700000000 3.5500000000
#special_bonds lj 0.0 0.0 0.0 coul 0.0 0.0 0.0
###########################################################################

#--------------------------------------------------------------------------
#variables
#--------------------------------------------------------------------------
variable   	dt 		equal 0.001
#--------------------------------------------------------------------------
#kappa parameters
#--------------------------------------------------------------------------
variable    	p 		equal 100000 	# correlation length
variable    	s 		equal 10  	# sample interval
variable    	d 		equal $p*$s 	# dump interval
variable    	d 		equal 100000*$s 	
variable    	d 		equal 100000*10 	

#--------------------------------------------------------------------------
variable 	T_run 		equal 300
#--------------------------------------------------------------------------

log 	log_heat_${iseed}.lammps
log 	log_heat_4.lammps
