	reset_timestep  	0
	fix 			1 all nve
	compute   		myKE all ke/atom
	compute   		myPE all pe/atom
	compute   		myStress all stress/atom virial
	compute   		flux all heat/flux myKE myPE myStress
	variable  		Jx equal c_flux[1]/vol
	variable  		Jy equal c_flux[2]/vol
	variable  		Jz equal c_flux[3]/vol
	fix       		JJ all ave/correlate $s $p $d c_flux[1] c_flux[2] c_flux[3] type auto file J0Jt_${iseed}.dat ave running
	fix       		JJ all ave/correlate 10 $p $d c_flux[1] c_flux[2] c_flux[3] type auto file J0Jt_${iseed}.dat ave running
	fix       		JJ all ave/correlate 10 100000 $d c_flux[1] c_flux[2] c_flux[3] type auto file J0Jt_${iseed}.dat ave running
	fix       		JJ all ave/correlate 10 100000 1000000 c_flux[1] c_flux[2] c_flux[3] type auto file J0Jt_${iseed}.dat ave running
	fix       		JJ all ave/correlate 10 100000 1000000 c_flux[1] c_flux[2] c_flux[3] type auto file J0Jt_7.dat ave running
	compute 		myDis all msd
	thermo_style 		custom step temp press vol c_myDis[4] v_Jx v_Jy v_Jz
	thermo			1000
	timestep		${dt}
	timestep		0.0010000000000000000208
	run			1000000
Memory usage per processor = 7.90665 Mbytes
Step Temp Press Volume myDis[4] Jx Jy Jz 
       0      275.232    17742.568     3048.625 3.1743022e-31  0.011332189 -0.020339924 -0.019311322 
    1000    277.97282     14343.54     3048.625    11.303287 -0.013042938 -0.00053973119  0.016735047 
    2000    308.97639    8925.5266     3048.625    28.894751 0.0083365403 0.00076014742 -0.010234594 
    3000    318.66745    14981.171     3048.625    34.354408 -0.056659304 -0.0033878076 -0.031358946 
    4000    294.96312    5362.9065     3048.625    23.375777  0.012808832 0.0036387823 -0.028427216 
    5000    273.98841    15633.597     3048.625    11.170948 -0.014605477 -0.0017095402  0.018086415 
    6000    279.51022    14268.879     3048.625    15.378554  0.021980482 -0.018989717 -0.0036978687 
    7000    309.17854    8091.9415     3048.625    28.573146 -0.030057762 -0.00096814922 0.0035126117 
    8000    308.33233      12989.4     3048.625    35.924663 0.0084346115 0.0061697503  0.053714817 
    9000    272.94211    14977.067     3048.625    31.774679 -0.028339659  0.026115555 -0.019822895 
   10000      274.111    13176.387     3048.625    24.574678 -0.027614301  0.038025568 -0.011833832 
   11000    312.08767    12666.503     3048.625    26.575876  0.041408925 -0.010713162    -0.015958 
   12000     251.5272    11670.376     3048.625     34.52421 -0.039520213 -0.0020557172 -0.014824166 
   13000    294.96166    8910.8641     3048.625    32.840827 -0.027618663  0.030421845 -0.020928985 
   14000    311.69406    10486.749     3048.625    24.392751  0.013019756 -0.022686968 -0.013081305 
   15000    288.33836    10826.126     3048.625    26.295545 0.0070495692 -0.023243961 -0.042639159 
   16000    296.02895    15162.703     3048.625    31.791788 -0.001504111  0.040396279 0.0050014487 
   17000    315.67414    7051.1668     3048.625    29.135452 0.0066755158 -0.020833613 -0.029863469 
   18000     325.6231    4478.7143     3048.625    23.949264  0.011405224  0.037544526 -0.0010270516 
   19000    292.80728    9149.0213     3048.625    26.352967 -0.0058478928 -0.015370176  0.017950292 
   20000    287.20715    13289.224     3048.625    31.338227  0.010360402 -0.011302205 -0.0041219603 
   21000     299.5517    7099.0517     3048.625    31.255174 -0.041507967 0.0029876583 0.0027856368 
   22000    304.14312    6564.9094     3048.625    31.428948  0.013741985  0.034469457 -0.021043054 
   23000     288.1269    14784.431     3048.625     31.74611 -0.020419008  -0.03085093 -0.0098163806 
   24000    287.29468    7000.9382     3048.625    31.084087   0.02159883 -0.0070769173 -0.024481847 
   25000    315.07166     11752.95     3048.625     30.82349 -0.022083529  -0.01917012  0.018486138 
   26000    305.98019    1467.7572     3048.625    32.265524 -0.037561494 -0.047875023 -0.0032215983 
   27000    308.25011    7451.6484     3048.625    32.338936  -0.03227351  0.024480945 -0.037389288 
   28000    316.42133    8754.5922     3048.625    27.743415 -0.0037935401 -0.031591189  0.042697044 
   29000    285.12715    6429.2766     3048.625    28.023314 -0.046914562 0.0090267283 -0.0061954688 
   30000    300.80738    8543.0932     3048.625     34.40518 -0.026545665 -0.00074083833 -3.1586275e-05 
   31000    297.01579    8839.7713     3048.625    34.547525 -0.010796967 -0.015892173 -0.0078147234 
   32000    289.16937    11116.459     3048.625     29.03364  0.033706763 -0.030758995 0.0067237525 
   33000    311.09626    7672.6168     3048.625    28.575383 -0.0095012065  0.040018094  0.016544115 
   34000     289.5464    8076.5878     3048.625    29.157587 0.00031336147  0.030124136 -0.029300301 
   35000    286.79243    10022.962     3048.625    26.254503  0.014283242 -0.012830474 -0.033888406 
   36000    297.81734    12778.533     3048.625    26.014888 0.0025970564 -0.0088053116  0.033086083 
   37000    298.50438    6004.0628     3048.625     30.41479 -0.014300514 -0.0090968388 -0.0059620845 
   38000    315.33456    8683.9606     3048.625    32.144335 -0.029201732   0.03068604  -0.02331212 
   39000    319.73665    2860.5428     3048.625    30.508079 -0.046609307 -0.0083289493 -0.010062115 
   40000    315.94581    10279.396     3048.625    26.784992 -0.013952928 -0.045359255  0.013579191 
   41000    271.58856    8792.6565     3048.625    29.043794  0.017529699  0.015481463 -0.022881782 
   42000    289.41109    9115.3205     3048.625     34.72089 -0.016644051 -0.024681536  0.028219825 
   43000    318.02123    10250.532     3048.625    34.823246  0.003128583 -0.024528892 0.00076891421 
   44000    310.18006    5965.3152     3048.625    31.552853  0.015169037 -0.010543295 0.0040827369 
   45000    289.10402    2947.6588     3048.625    30.445644 -0.0043730875  0.018205692 -0.036527463 
   46000      299.149     12678.57     3048.625    32.541377 -0.039518038 -0.065330266 0.0024315111 
   47000    303.84215     6699.734     3048.625    31.817813  -0.01067368  0.014909246  0.020594886 
   48000    320.59465    927.71133     3048.625    29.006422 -0.013571193 -0.0029149085  0.002373561 
   49000    309.16551    16318.045     3048.625       30.885 -0.013803392 0.0079719822 -0.011009375 
   50000    299.67749    191.90999     3048.625      31.5518 -0.0028082316 -0.0040066909 0.0018047829 
   51000    332.13518    6444.9283     3048.625    32.182104  0.014115218 0.0071687574 -0.022533904 
   52000    312.48636    4546.3223     3048.625    33.431646 -0.031045642 -0.032285516  0.021737628 
   53000    314.40323    6153.2424     3048.625    30.171898  0.021397687 -0.00046050629 -0.044550447 
   54000    312.81003    11515.202     3048.625    27.141983 -0.011460285  0.013628872 -0.0097007776 
   55000    310.39365      4844.93     3048.625    31.109128 0.0001724727 -0.0071106222  0.011594254 
   56000    302.69489    11106.159     3048.625    35.100898  0.020619704 0.0065891961 0.0034778742 
   57000    290.65668    8513.8353     3048.625    32.618684  0.011525154 0.0099225841  0.010510459 
   58000    289.68605    11850.483     3048.625    29.428077   0.03061658 -0.053203547 -0.026198314 
   59000      293.404    8806.5115     3048.625    27.533347 -0.0097312644 -0.043689142 -0.038043888 
   60000     302.6242    5632.0888     3048.625    25.685998 -0.023452183 -0.0037186456 -0.0052181026 
   61000    274.61377    14219.046     3048.625     27.85942 -0.017756059 -0.0059454883 -0.027144704 
   62000    275.43345    13202.966     3048.625    31.353687 -0.014062075 -0.015655065 0.0020647402 
   63000    283.38109    8309.4977     3048.625    32.724934 -0.015569966  -0.02147443 -0.017820807 
   64000    291.40225     18085.36     3048.625    32.570816 -0.012699495 -0.012386811  0.031948025 
   65000    312.80197    6830.2073     3048.625    34.240954 -0.035584889 -0.0031644565 -0.016952999 
   66000    307.71099    4272.5277     3048.625    32.482526 0.0010027099 -0.0011533381 -0.015533863 
   67000    319.46364    12734.127     3048.625    29.994852 -0.0026975213  0.059679878 -0.029189323 
   68000    327.77165    5702.1673     3048.625    29.452638 -0.0078763133 -0.020442436 -0.028415068 
   69000    305.00236    7156.5569     3048.625     29.70362 -0.013139465 -0.033016735 -0.015421005 
   70000    298.22912    10624.841     3048.625    31.646267  0.018272916 -0.017796148 -0.024849427 
   71000    313.01583    7094.4116     3048.625    30.117232  0.064923273 0.00029480243  0.036132115 
   72000    303.12477    7279.1633     3048.625    26.767657 -0.012775642 -0.032862657 -0.0046107083 
   73000    278.49292    7462.0295     3048.625     29.04586  -0.03292601 -0.012673874 -0.012377368 
   74000    304.51006    4323.3399     3048.625    31.243653   -0.0126173 -0.030670233 -0.008311023 
   75000    293.53526    14304.583     3048.625    28.024229  -0.04643593 -0.020963062  0.024276799 
   76000    297.82757    2991.5712     3048.625    25.318637 -0.00062699579 -0.046552011  0.011337545 
   77000    306.62702    9004.2412     3048.625    26.493972  0.005822786 -0.037361323  0.016875183 
   78000    299.32104    13875.017     3048.625    26.276033 0.0091123641 -0.0039296006  0.011801944 
   79000    284.55925    1696.3487     3048.625    26.789683  0.013288531 -0.018700357  0.028824816 
   80000    292.29472    15214.226     3048.625    31.955277 0.0044069082 -0.0046179614  0.012708115 
   81000    306.34222    4860.4345     3048.625    30.296982 -0.0030979386  0.014919277  0.017599792 
   82000    307.40575    7081.7048     3048.625    21.923426 -0.0051165659 -0.00066204369  0.021237659 
   83000    309.57486    11052.494     3048.625    23.615566 -0.011963643 -0.046049143  0.015328435 
   84000    293.10845    9394.7075     3048.625    33.237986 -0.0059356926 0.0040400001 0.0028626103 
   85000     286.0467    8568.8279     3048.625    34.146877 -0.009702499   0.01419413 -0.00010347978 
   86000    262.32577    20408.324     3048.625    26.526467  -0.02892794  0.028032779 0.0015355879 
   87000    262.66883    10490.261     3048.625    23.739225  -0.02873919 0.0023124177  0.014493867 
   88000     276.4804    13537.812     3048.625    28.258275 0.0069733583 -0.049837409 0.00055220933 
   89000     287.5715    13426.659     3048.625      33.7229 -0.0086761811 -0.0038177602 -0.028861132 
   90000    285.11505    10289.896     3048.625    35.407624  0.016301395 -0.015387102 -0.013361479 
   91000    293.57964    8591.1954     3048.625    33.383373 0.0022466087 -0.0059934957 -0.0091495945 
   92000    287.79275    11178.158     3048.625     28.73397 -0.0073513617 -0.017082723 -0.019760284 
   93000    291.02019    16873.536     3048.625     23.62595  0.019157887 -0.040652687  0.047165965 
   94000    281.26341    12648.041     3048.625    22.200153 0.0048733336   0.01710951 -0.000603188 
   95000    287.54146    11619.327     3048.625    22.852598 -0.023118411 -0.004253635 -0.0065241246 
   96000    304.26646    6478.5433     3048.625    25.785869 -0.012576913 0.0096600836 0.0081409641 
   97000    290.37739    8703.8102     3048.625    27.979409 -0.061232377 0.0075447454 0.0013142305 
   98000    290.82436    7411.7239     3048.625    30.807864  0.026558128 0.0034695612 -0.0036077771 
   99000    295.73777    9209.3819     3048.625    32.559424  0.020613053 -0.030059064  0.043311961 
  100000    291.16906     20090.86     3048.625    33.077447  0.019804761  0.029336392 -0.015744535 
  101000    285.19081    3534.9185     3048.625     30.17987 -0.0054432642 -0.014061176 -0.011508644 
  102000    257.78631    15302.483     3048.625    28.743321  0.013831141 -0.041307826  0.034337746 
  103000    311.34682    6049.5666     3048.625    32.998025  0.037131141 -0.020595297 -0.0080923104 
  104000    273.64101    16286.237     3048.625    34.600719 0.0075985152  0.044220984  0.011892047 
  105000    313.65969    5747.6877     3048.625    32.008087  0.001827499 0.0080859126 -0.0071568009 
  106000    322.00327    10143.438     3048.625    30.033625 -0.0019239556 -0.022695093 -0.035883381 
  107000    269.29047    14902.054     3048.625    32.281111  -0.05166927  0.025503974 -0.026939028 
  108000    297.81749    4276.3951     3048.625    33.087477   0.02712074 -0.043727152 0.0085327916 
  109000    291.98035    11654.475     3048.625     31.66292 -0.0083470028 -0.011389796 -0.010435833 
  110000    246.55317    13626.083     3048.625    31.117754  0.036915755 0.00056533486  0.019113764 
  111000    290.41153    12566.538     3048.625    32.943201  0.012150033 -0.013766613  -0.02364128 
  112000    259.43895    17458.659     3048.625    34.414731 -0.031637964 -0.00064341747 -0.0031012804 
  113000    290.43371    8585.1856     3048.625    31.854379 -0.0035938892  0.026903586 -0.010766312 
  114000    286.13082    10957.246     3048.625    28.383141 -0.011740315 -0.0075289087 -0.0041823089 
  115000    282.71803    9741.3413     3048.625    27.295205 -0.023224474 -0.011461176 -0.013708877 
  116000    268.26077    14572.176     3048.625    28.757529  0.020946702 -0.016803346 -0.007908037 
  117000     287.0857    2023.4318     3048.625    28.648683 0.0056550374  0.016528026 -0.010105577 
  118000    268.74687    17831.139     3048.625    26.802325 -0.011838919 -0.010371744 -0.029391741 
  119000    257.60337    11053.717     3048.625    24.388301 -0.025823356  0.018456822 -0.011422891 
  120000    273.60665    15919.782     3048.625    24.871579 0.0075832118 -0.0029680005  0.015949738 
  121000    272.85716    10775.551     3048.625    26.157595 0.0028323406 0.00068512299   0.01812899 
  122000     300.4747    3897.7337     3048.625     28.13141  -0.04499034  0.010401888 0.0069048224 
  123000     275.3249    11011.033     3048.625    31.516881 0.0006074932 0.0091539811 0.0040228589 
  124000    303.66064   -2374.5109     3048.625    33.060039  0.014152131  0.052944773  0.017288499 
  125000    307.32054    15515.447     3048.625    29.990577  -0.01538943 0.0048300007 -0.014441312 
  126000    268.40152    12880.507     3048.625    25.695557 -0.0025618678  0.013899742  0.016985648 
  127000    287.74317    15921.305     3048.625     25.39492 -0.014089511 -0.027918516 0.0066269624 
  128000    309.24712    1906.1063     3048.625    30.277974 -0.048803835 -0.030929803  -0.01600729 
  129000    281.26645    12767.762     3048.625    32.174131 -0.0070063974 -0.034467666  0.021663679 
  130000    292.24901     7311.904     3048.625    29.523813  0.023425298  0.043589223 0.0040691589 
  131000    288.33308    3452.8979     3048.625    23.130164  0.035913985   0.01540957 -0.051420944 
  132000    275.28383    16399.946     3048.625    24.103653  0.002362969 -0.013867488 -0.0067896305 
  133000     303.2438    7646.4227     3048.625    28.869565 -0.023077162 -0.016096661  0.030900404 
  134000    281.75517    7088.7065     3048.625    24.921868 -0.034875808  0.010461526 -0.036715748 
  135000     302.7155    8815.1654     3048.625    23.435059 -0.042926203  0.042021388 -0.015285864 
  136000    284.58349    9780.9486     3048.625    28.010839  0.016837463  0.055766345 0.0056954165 
  137000    266.02194    10097.074     3048.625    28.995524 0.0083909101  0.047500036 -0.0075657154 
  138000    307.97684    8711.4845     3048.625    22.619702 0.0075689913  0.033572664  0.024962139 
  139000    290.90621    2721.1116     3048.625     21.62948  0.014937935   -0.0087763  0.024102445 
  140000    293.62128     5511.531     3048.625    26.696142   0.01015222  0.007057696  0.024705806 
  141000    282.68153    8579.1639     3048.625    29.972252  0.038632305  0.045176213 -0.024165789 
  142000    301.27342    11457.529     3048.625    25.598315 -0.019247504 -0.029825701 -0.008322792 
  143000    297.92585    6036.6366     3048.625    18.948117  0.022252404 0.0032137792  -0.01308579 
  144000    294.57492    7978.5875     3048.625    23.591278 -0.026581144  0.046069351 0.0047017956 
  145000    300.89584    12516.049     3048.625    32.926627 -0.028164074 -0.034377452   -0.0172329 
  146000    279.66606   -744.22063     3048.625    27.322017  -0.02295903  0.012376048 0.0072233183 
  147000    294.84131    8588.3433     3048.625    21.512159  0.019577125  0.009067713  0.010307493 
  148000    289.37126    16151.404     3048.625    24.733742 0.0017754466 0.0039805023  0.018085733 
  149000    321.15924   -1240.6148     3048.625    25.670155 -0.027678616 -0.0041634602 -0.023206904 
  150000    308.33181    7474.5154     3048.625    26.313275 -0.015938093  0.024695372   0.02254354 
  151000     300.3781    9046.3652     3048.625    29.041502 -0.0057302682 -0.0027854115  0.043813023 
  152000    292.84312    4357.5124     3048.625    25.005561 -0.017805421  0.029705052 0.0010402373 
  153000    305.07839    10992.682     3048.625     21.09413 -0.028492839  0.025400857 -0.029341648 
  154000    297.49873    5893.2086     3048.625    29.313004  0.009402459 -0.012851263   0.03114613 
  155000    304.64031    101.06781     3048.625    32.882511 0.0077212829 -0.0067056983  0.068158381 
  156000    315.73585    9688.0791     3048.625    23.016002 -0.0064514549  0.045563129  0.026354385 
  157000    283.13224    5321.1198     3048.625    20.366014 -0.032121877  0.024161367 -0.052460036 
  158000    282.69973    10300.432     3048.625     23.70335 -0.027767931   0.02491023 -0.038305786 
  159000    290.49808     9103.916     3048.625    22.593285 -0.013433978 -0.0088234413 0.0091042748 
  160000    306.04922     5193.915     3048.625    23.125867 -0.004229608 -0.018637915   0.01877149 
  161000    297.85751    6288.7745     3048.625    26.670013 0.00062013275  0.039401819 -0.0011786441 
  162000    318.03222    2336.5688     3048.625    24.785741 -0.010627483  0.023432001  0.025683605 
  163000    297.60142    8720.2045     3048.625    28.255357 -0.032286878 -0.011325702 -0.0094766027 
  164000    295.16731    3304.3943     3048.625    33.628976 0.0023724733  0.019071003 0.0043588425 
  165000    312.93756    4724.7219     3048.625    27.317396 -0.013003172 -0.0041958445 0.0051161905 
  166000    306.66714    7150.6931     3048.625    22.393245  0.019873091 -0.015168533 0.0074517839 
  167000    300.34107    2807.2138     3048.625    32.068666 0.0044401791 0.0065078703  0.025498059 
  168000    287.34558    5574.2146     3048.625    33.163123 -0.019603408  0.060713487 0.0082854553 
  169000    287.56885    13331.107     3048.625    22.977051  0.018148753 0.0035704294 -0.0050403769 
  170000    290.08361    5720.6763     3048.625    25.237218 -0.028160648 -0.017044898 -0.026537559 
  171000    288.18447     7980.167     3048.625    31.699256  0.016044196 -0.010074392 0.0037140833 
  172000    287.41392    11518.983     3048.625     26.80012 -0.025611616   0.02496072 -0.0032572782 
  173000     292.3351    6851.8322     3048.625    21.780535  0.039429108  0.040458911 -0.0043776111 
  174000    300.66159    7645.0256     3048.625    27.647019 -0.0059057939 0.0034662028 -0.023470622 
  175000    283.26545    5710.5221     3048.625    32.450881 0.0033167488  0.017247428  0.017665955 
  176000    297.02579     3701.894     3048.625    27.304457 -0.016562698  0.038751737  0.029975452 
  177000    300.73554    10657.796     3048.625    22.466486  -0.01640832  0.026636208 -0.029908045 
  178000     306.5165   -327.88162     3048.625     27.30011 -0.017726591 -0.0031242021 -0.019177943 
  179000    298.03917    6416.8884     3048.625    31.604235 0.0019409607   0.01284967  -0.01983344 
  180000    299.07428    6458.2282     3048.625    30.182248 -0.016581989 -0.0072742752 0.0019412784 
  181000    311.96488    7774.2941     3048.625    29.156851  -0.01494355  0.054068094  0.015752402 
  182000    294.40319    8828.5322     3048.625    30.728723 -0.0061600986 -0.031471694 -0.0011748672 
  183000    301.23954    5859.8432     3048.625    31.618343 -0.016913493  0.012453675   0.01590758 
  184000    295.40786    2212.3768     3048.625    27.934167 -0.012114254 -0.011315854   0.04738388 
  185000    297.71926    10143.921     3048.625    25.117271  0.038936239  0.011069804  0.017906101 
  186000    293.27548     5904.497     3048.625    26.906113 0.0028540289  0.019072642 -0.053901908 
  187000    286.31803    12003.673     3048.625      27.7971 -0.014683341 -0.026099943 -0.025513516 
  188000    285.50562    7608.2051     3048.625    25.114444 -0.034958113 -0.0036221232  -0.03420349 
  189000    275.94291    13905.143     3048.625     18.97335 -0.026384577  0.019046569 0.0097450053 
  190000    282.42134    8574.4642     3048.625    18.824496 -0.005103739  0.027070365 -0.032160684 
  191000    287.80968    9365.1211     3048.625    28.205653 -0.0093342155 0.0091874206 -0.042053465 
  192000    285.47048    9649.8727     3048.625    33.133201 -0.029334577 0.0023471546 -0.013902271 
  193000     297.6184     8369.308     3048.625    25.012895   0.02543737 -0.011480476 -0.021028308 
  194000    299.79691    7296.3738     3048.625    15.878838 -0.016805639 -0.040755207 0.0093241138 
  195000    300.34279    6652.2639     3048.625    20.251373  -0.03168324 0.0097263245  -0.02713079 
  196000    270.96292    9179.8328     3048.625    29.987933 -0.023519582  -0.01902449  0.010542873 
  197000    315.80972    6884.6721     3048.625    31.823897 -0.028113248 -0.024053436  0.042006956 
  198000    314.68592     7169.766     3048.625    29.368895 0.0076943901 -0.0051857674 -0.0033540428 
  199000    317.53645    5143.9739     3048.625    26.713986  0.047683559 -0.0067312476 -0.027527377 
  200000    322.76241    2835.5847     3048.625    25.354322 -0.0053668646 0.0042068906 -0.0077436898 
  201000    313.45847    6451.8107     3048.625    22.201895 0.0027765061   0.02547137 -0.0070518227 
  202000    286.48735    7759.7674     3048.625    24.995316 -0.015211675   0.02243232 -0.015497313 
  203000    262.71906    5374.3447     3048.625    32.388739 -0.015802808 -0.013331955 -0.0042893532 
  204000    250.80762    18493.316     3048.625      34.6376  0.030861047 -0.0012838015 0.0071010506 
  205000    289.60666    9056.1458     3048.625    29.849192 -0.013047794 0.0055779407 0.0081659753 
  206000    299.33329    3606.2595     3048.625    24.209293 -0.017577912 -0.013582062  0.018243924 
  207000    311.90089    8456.7328     3048.625      25.7424  0.042352655  -0.01851606 -0.013512709 
  208000    301.00461    834.39772     3048.625    30.144487  0.028006866 -0.0036306366 0.0078877492 
  209000    287.98121    8277.4381     3048.625    29.597821  0.015825298 -0.027829702  0.023863845 
  210000    310.45853    11181.436     3048.625    27.365659 0.0017429394  0.014176001  -0.02901178 
  211000    278.21892    4460.7671     3048.625    28.678838  0.008313244 -0.020532089 -0.0018958443 
  212000    285.67008    11161.083     3048.625    24.354911 -0.023143264 -0.010289445 -0.029425161 
  213000    290.47244    15020.164     3048.625     25.50132 -0.0041514485 -0.00041673517 -0.045776568 
  214000    301.63802    2818.9493     3048.625     34.17994  0.017326628  0.028565567 -0.051156731 
  215000    293.12581    10136.192     3048.625    29.975952  0.019895904  0.010906548   0.01017403 
  216000    288.24609    9717.9053     3048.625     24.24668 0.0056657059  0.019805251 -0.018241595 
  217000    289.63667    6635.5639     3048.625    26.488926 -0.012492811 0.00051416971 -0.043753436 
  218000    290.47161     8872.477     3048.625    26.109849 -0.0032717407 -0.0083306758  0.037073425 
  219000    277.98131    11031.799     3048.625    29.265545  0.022404492 -0.040972812 -0.0085399302 
  220000    297.78444    7711.1698     3048.625    34.046745 0.0076108766  0.024225737  0.029180235 
  221000    307.76077    3914.3725     3048.625    27.260702  0.034953708 0.0015949424  0.037417617 
  222000    304.22836    7063.6468     3048.625    24.251435  0.016653683 -0.020646747 -0.0073482444 
  223000    279.16812    16683.468     3048.625    29.580634  0.011577691 -0.0026777782   0.04300338 
  224000    276.79273    5244.2283     3048.625     32.77995  0.024555998 -0.025046281 -0.022033452 
  225000    280.91186    12587.355     3048.625    28.506967 0.0047793182 0.0043880478 -0.020297239 
  226000    275.97131    12631.111     3048.625    23.725243  0.020668952 -0.018912418 -0.00062767606 
  227000    298.54959    9647.2405     3048.625    27.075475 0.0052757086  0.003551514 -0.041174242 
  228000    302.39948    2091.4634     3048.625    32.483761 -0.0059010305 -0.015054625  0.003072269 
  229000    300.31378    2925.9669     3048.625    30.619556 -0.014622037 -0.018507389 -0.016287662 
  230000    283.52133    13451.753     3048.625    23.473429 0.0053193389 -0.0049363983 0.0024161949 
  231000    279.77823    8756.2147     3048.625    21.059063   0.02000171 0.0044301944 -0.044139294 
  232000    298.69134    6854.8596     3048.625    26.149681  -0.01599376 -0.022985907  0.027862431 
  233000    299.03964    7506.8928     3048.625    32.088671  0.021932546 -0.032974225  0.012117901 
  234000    281.32144    12933.619     3048.625    30.133401 0.00047814367 -0.046967404    0.0235086 
  235000    257.64026    11616.152     3048.625    25.940927 -0.0062229197 -0.025903757  0.008342953 
  236000    293.34532    12390.409     3048.625    28.568807 -0.014516305 -0.00036809535 -0.026147434 
  237000    280.76898    4696.0667     3048.625    31.846071 0.0086585969  0.025689721 -0.031019233 
  238000    283.13684     9733.015     3048.625     28.97917 -0.035704797 -0.011108388  0.017016586 
  239000    300.35679    9915.5348     3048.625    25.487577 -0.030590839 -0.0066721228  0.020699448 
  240000    291.30284   -199.49817     3048.625     33.40156  0.010419758  0.018096787  0.014068563 
  241000    281.20964    11306.456     3048.625    33.131831  0.017289727 -0.017469471 -0.026422531 
  242000    278.19259    11405.126     3048.625    27.132347 -0.0044113536  0.014428906 -0.015184828 
  243000    299.53928    5909.3323     3048.625    31.088998  -0.03851361  0.012504934  -0.03184577 
  244000    314.78201    4240.6562     3048.625     34.23007 0.0043748306 -0.023027791   -0.0106143 
  245000    301.74379    5878.8602     3048.625    29.131674 -0.040350627  0.019610151 -0.017877053 
  246000    280.70796    7181.7355     3048.625    26.381207 -0.033553206  0.017356045 -0.0090675384 
  247000    270.79004    9485.6212     3048.625    32.475134   0.01345379   0.02059417  -0.02242218 
  248000    258.82453    6577.7824     3048.625    34.173437  0.031574479 -0.0013729962 -0.019186413 
  249000    280.68467    14238.017     3048.625    27.293151 0.0033502288  0.012797317 -0.027603118 
  250000    314.98187    2895.9109     3048.625    26.796483 -0.0042856807 0.0013830416 -0.053223818 
  251000    302.74703   -1166.5596     3048.625    32.968947 -0.0048018751 -0.024912013 0.0079861197 
  252000    273.43517    16121.098     3048.625    29.988187 -0.010459612 0.0012489695  0.013237521 
  253000    274.29483      8627.73     3048.625    26.276372  0.024801874  0.008442897 0.0095319421 
  254000    277.68488    7035.9526     3048.625     28.95466  0.040281579 -0.0018062045 0.0091418213 
  255000    266.76997    8377.4502     3048.625    28.636458 -0.025585585 -0.015946628  0.025133034 
  256000    277.28931    4860.7332     3048.625    21.422123  0.011403138 0.0014089346  0.015045618 
  257000    298.72195    5283.1412     3048.625    14.687431 -0.007057477  0.010228624  0.054619733 
  258000    304.07105    7438.3796     3048.625    19.303515 -0.014895831 -0.011949291 -0.0078660159 
  259000    311.34655     6076.012     3048.625    28.935956 -0.0063684003 0.0056488316  -0.02784859 
  260000    287.97278    6396.8845     3048.625    32.468092 -0.032847439 -0.028981431 -0.014023606 
  261000    284.74227    7418.2454     3048.625    24.325016  0.015791608 0.0096608088 -0.029508943 
  262000     263.5243    9408.8058     3048.625    19.768563  0.030808909 -0.0047960818 -0.013054521 
  263000    267.63686    6440.7081     3048.625    21.938161 0.00079776226  0.018424705  0.038347783 
  264000    299.96234    6790.8118     3048.625    22.712643  0.022660457 -0.0046638603 -0.032078735 
  265000    287.56878     7130.788     3048.625    18.680191 0.0094679476 -0.034065172 -0.038309195 
  266000    265.54512    11723.774     3048.625    17.922289  0.009774575   0.00311843 -0.047743964 
  267000    250.64081    16337.324     3048.625    20.037593 -0.00076446332 -0.031840973 -0.018270986 
  268000    257.07306    11236.671     3048.625    19.222427 -0.010152175 -0.0025974767  0.044232989 
  269000    266.18371    14566.581     3048.625    15.468459 -0.016443637 -0.020215663 -0.023224372 
  270000     284.1312    1833.7049     3048.625    15.133478  0.017182433  0.077156249  0.026588843 
  271000    296.18028    10380.789     3048.625    20.864399 0.0093503114 -0.0046818992 -0.032892135 
  272000    299.26011    10301.805     3048.625    23.088164 -0.0066122499  0.011649897 -0.007768203 
  273000    280.46777    5991.8937     3048.625    15.188187  0.012915941 0.0091837279 -0.015052987 
  274000    291.59019    10439.145     3048.625    12.497904 0.0084778753  0.014294788 -0.013268131 
  275000    301.17161    7481.9243     3048.625    23.035861 0.0059731078 -0.013468732 -0.0076231625 
  276000    282.45044    5750.6654     3048.625    32.206262 -0.012033785  -0.02249811 -0.018892964 
  277000    267.38859    11867.591     3048.625    32.040555 -0.0080359051 -0.043749377 -0.0066407839 
  278000    285.95811    10428.326     3048.625    24.335389 -0.039837886 -0.0044724801   0.02078418 
  279000    268.23357    10653.331     3048.625    18.185246 0.0085524552 -0.0011304802 -0.039549816 
  280000    277.85897    6396.3738     3048.625     17.76118 -0.019952711 -0.013492946 -0.016524137 
  281000     262.9114    7962.2695     3048.625    18.981228  0.027163794 0.0042265502  0.041586598 
  282000    288.24406    5073.6803     3048.625     22.64493 -0.030446223 -0.038734576  0.002281628 
  283000    284.99365    13595.848     3048.625    27.132383 -0.018029383 -0.014845468 -0.0054804315 
  284000    272.04102    6459.5872     3048.625    30.449864 0.0086730952 -0.038387469 0.0074406439 
  285000    284.13342    12429.355     3048.625    30.659766 -0.035998162  0.036334453 0.0075121282 
  286000    283.87113     925.9902     3048.625    24.075083  0.039739299 -0.019785901  0.040649434 
  287000    271.81376    12736.189     3048.625    15.541604  0.033795255 -0.015382013  0.019783004 
  288000    268.88976     6115.936     3048.625    18.429591 0.0030858523 -0.0039225329 -0.0010018455 
  289000    294.01807     5740.195     3048.625    30.635413 -0.033317662 -0.035302347  0.018044118 
  290000    289.75556    8252.1937     3048.625    33.401919  0.038785531 -0.016741152 0.0031139086 
  291000    282.87701    8152.2906     3048.625     25.30815 -0.0091885165 -0.015605961  0.011554872 
  292000    286.56531    8738.3069     3048.625    23.436502  0.001425962   0.04229073 0.00030485532 
  293000     279.3459    6918.8391     3048.625    32.147378  0.021862521  0.051045847 -0.0071087194 
  294000    300.83991   -1804.2579     3048.625    33.018002 -0.0061977171 -0.032132435  0.004094965 
  295000    265.53886    19314.366     3048.625    26.585619 -0.042624811 -0.0032277136  0.057952173 
  296000    265.65916    2593.6383     3048.625    26.404234 -0.015194499  0.033038207  0.021030502 
  297000    291.99776    8520.4152     3048.625     29.79555 0.0042043361  0.014917369 0.0085507968 
  298000    297.43694    4021.4233     3048.625    29.893825  0.011198258  0.030917088 -0.0060889834 
  299000    289.04809     1000.681     3048.625    29.235226 -0.015149297 -0.022620817 0.0044989019 
  300000    303.50411     10677.73     3048.625     28.25038 -0.0083937377 0.0023301684  0.051696333 
  301000    264.65116    9061.3623     3048.625    26.705884 0.0071059118 -0.020411324  0.042171042 
  302000    288.79496    5138.6524     3048.625     27.15457  0.020159972 -0.0084636464  0.033824046 
  303000    307.33797    4891.5381     3048.625    28.872883 -0.026171429 -0.0054271769 -0.0037899654 
  304000    306.64264     5939.757     3048.625    28.150762  0.013924723 -0.0013208505  0.015978027 
  305000    299.77714    3988.4685     3048.625    27.078303  0.023018363 -0.035055886   0.02514744 
  306000    283.81365    13057.096     3048.625    28.446936 0.0077369824  0.054136645  0.027145125 
  307000    280.90119    8989.4778     3048.625    28.670081 -0.0094573762 -0.012093018 -0.001987252 
  308000    290.48183    974.46684     3048.625     25.72114 0.0090273487 -0.039137974  -0.01174355 
  309000    279.25843    14146.233     3048.625     26.37618 -0.011190967 -0.011198932  0.014071934 
  310000    290.22125    4215.8525     3048.625    29.881419  0.019174121 0.0023390671 -0.011819276 
  311000    289.47327    3569.0532     3048.625    29.785209 -0.0042792305 -0.013150556  0.032277051 
  312000    302.59546    7329.8583     3048.625     23.12898  0.026742485  0.013825857  0.001527024 
  313000    283.91238    6441.5607     3048.625    17.837072  0.010470822 -0.017313918 -0.015194944 
  314000     286.3945     5319.246     3048.625    23.526244 0.0013939939  0.027123106  -0.00306531 
  315000    281.77679    2861.2252     3048.625    33.404655 -0.0028044279 -1.0372597e-05  0.034797237 
  316000    300.97069    8706.9676     3048.625    32.922293 -0.027017444 0.0064531461  0.011228531 
  317000     288.9815    2728.7858     3048.625    21.995488 -0.038677232  0.019408149 9.455205e-05 
  318000    309.83044    4440.6742     3048.625    15.854405 -0.008252623  -0.03976337  0.020721331 
  319000     299.5032    2718.4442     3048.625    24.260534 -0.038112075 -0.013783312 -0.016533396 
  320000    280.96956    7993.0855     3048.625     35.05783 0.0080961918  0.015254284 0.0030820782 
  321000     266.6585    12054.591     3048.625    34.524129  0.025259593 -0.031438132 0.0069213228 
  322000    277.98435    4884.8229     3048.625    26.311035 -0.0051601796 -0.021901682 -0.041564427 
  323000    314.56819    2970.0288     3048.625    22.049971 -0.019819069 -0.0017304602 -0.031968632 
  324000    299.31865    6002.3224     3048.625    26.472625  0.019884785 -0.0095936635  0.011335594 
  325000    278.89221    8597.7878     3048.625    33.366673 -0.029174669 -0.016249757 -0.015841827 
  326000    291.20205    6397.9918     3048.625    35.825819 -0.018306987 -0.024873815 -0.022499325 
  327000    284.90049     4682.513     3048.625    31.158222 0.00040704915 -0.032255266 -0.0057147905 
  328000     269.2705    8036.4427     3048.625    24.213909  0.014093269  0.014641147 0.0028761882 
  329000    296.72061    9123.2837     3048.625    22.883399  0.034775847  0.022036424 -0.0080110469 
  330000    296.65117    3847.6156     3048.625    29.577956 -0.0084586114 -0.013372768 -0.023082768 
  331000    304.83769    10712.135     3048.625    33.453733 -0.0036957302 0.0090373188 -0.022992612 
  332000    275.43871    13559.147     3048.625    31.867423 -0.0050168808 -0.015714251 -0.022288284 
  333000    276.34341    9262.8704     3048.625    28.504858 -0.001295674   -0.0248104 -0.0082940056 
  334000     263.6049    8976.0837     3048.625    30.076808 -0.0046713003 -0.0080696466 -0.041007524 
  335000    299.46238    2060.4194     3048.625    31.739471 -0.0054579379  0.006375494 0.0098758351 
  336000    293.00101    9401.8804     3048.625    30.934518 -0.0029768192  0.052661862 -0.0055873246 
  337000    280.25484    3178.8527     3048.625    29.069331  0.009661097  0.022814267  0.018981697 
  338000    246.68514    16512.617     3048.625    28.169016 0.0021238628  0.018241279  0.055072712 
  339000    284.77983    16905.262     3048.625    30.387366  0.018489676  0.030165911 -0.015197978 
  340000    263.14003    11367.372     3048.625    31.430051 -0.021313982 -0.010357474 -0.012579928 
  341000    254.82577    16482.047     3048.625    29.692153  0.010526741  0.030135875 -0.017152834 
  342000    293.59754    5278.2314     3048.625    30.043145 -0.0040147652  0.016132797   0.00346427 
  343000    254.68401    9805.4772     3048.625    31.269938 0.0012093055  0.014282591  0.002986421 
  344000    271.43561    13619.196     3048.625     34.00312 0.0030100415 0.0098879344  0.023926814 
  345000    279.51132    3347.4313     3048.625     36.00121 0.0081299544 -0.012458157  0.020040023 
  346000    301.34551    8293.0114     3048.625    35.142766   0.03163053  -0.00603451 -0.028595436 
  347000    277.30081    8707.1047     3048.625    32.041699 0.0081789601   0.02646845   0.01615873 
  348000    244.85085    16284.264     3048.625     28.32158 0.00064363814  0.012717701 -0.0078617618 
  349000    237.32927    11099.985     3048.625    26.605434   0.03890181 -0.012645416 -0.0055034032 
  350000    242.68655    10326.276     3048.625     27.37353  0.018360323 -0.016622004 -0.011874226 
  351000    271.78429    15088.691     3048.625    30.270449  0.031237212 -0.005837267 -0.017804521 
  352000    301.20681    2263.5257     3048.625    30.701495 -0.012011302  0.022800044 0.0044833582 
  353000    281.57398    8719.8656     3048.625    29.100703 0.0015868205  0.025997106  0.045312751 
  354000    284.74728    15590.369     3048.625    30.101626 -0.022795183 -0.0086646386  0.041343355 
  355000     262.8919    1032.5729     3048.625    31.138503 -0.014877531 0.0078603351   0.03527485 
  356000    268.79313    19012.385     3048.625    31.945307   0.02937842  0.015802742 -0.039147732 
  357000    259.19382    11327.523     3048.625     32.67653  0.020512772 -0.018021015 -0.016225876 
  358000    277.86551    8229.9601     3048.625    33.961756 -0.0023971971 0.0072182795 -0.0052359631 
  359000    241.20675    19928.209     3048.625    33.570266  0.018880676 0.0011231183 0.0027856184 
  360000    245.15601    13010.654     3048.625    31.232875  0.014445976 -0.029576103 -0.0076710935 
  361000    252.83683    13821.199     3048.625    28.798033 0.0080417946 0.0058714122  0.024568694 
  362000     268.8814    15847.812     3048.625    27.819408 -0.010164474 -0.016185264 0.0073848402 
  363000    251.20455    12502.862     3048.625    26.982118 -0.0085064124 -0.00075830379  0.023347652 
  364000     232.1925    13578.868     3048.625    27.548951  0.028738244 -0.019896512  0.005017991 
  365000     260.9788    13387.892     3048.625    27.554078  0.005307571  -0.01961961  0.014747074 
  366000    264.49329    8022.6393     3048.625    25.966942 0.0064671938 -0.0075812823  0.031537908 
  367000    272.48438    10188.331     3048.625    25.001445 0.0068829037 -0.020674374 -0.011420726 
  368000     290.4073    6440.2014     3048.625    25.489199 -0.030373481 -0.016725929 -0.012332047 
  369000    291.37094    12213.072     3048.625    26.405304  0.013963516 -0.021517441 0.0063124672 
  370000    284.05761    6271.7746     3048.625    27.312349 -0.021995005  -0.02049393  0.028188877 
  371000    291.85873     5782.423     3048.625    27.291254 0.0015564439 0.0083264012  0.028434635 
  372000    258.63768    16468.927     3048.625    23.961334  0.019160509  0.012915346 0.0016239403 
  373000     252.2677    13783.471     3048.625     23.87549   0.01405088 0.0019701658 0.0061234011 
  374000    264.48412    16096.732     3048.625     27.93162 -0.012540774  0.022181364  0.036500918 
  375000    289.68519    9156.3313     3048.625    31.766972  0.037544752 -0.0099552683 -0.0034094687 
  376000    288.41377    3187.0291     3048.625    31.057634  0.049940682 0.0033507119 -0.019898462 
  377000    299.38802    15513.841     3048.625     26.65499  0.030421604  0.012066228  0.027306796 
  378000    300.24519    5592.9762     3048.625    24.640413 -0.0062065439 -0.0014950923 -0.018831589 
  379000    284.79886    3024.0078     3048.625     24.82766 0.0036446135 0.0040172916  -0.01167243 
  380000    260.08449    11311.093     3048.625    24.198058 -0.017943605  0.034884774 -0.018340985 
  381000    268.85927    16846.769     3048.625    22.551578 0.0039108893 -0.037173911 -0.012800781 
  382000    271.25557    8032.7234     3048.625    21.026209  0.038180618 -0.00071126984 -0.017689571 
  383000    263.75113    4513.2953     3048.625    18.698245 -0.043923868 -0.026641385  -0.02116022 
  384000    249.40484    17656.503     3048.625    17.394936 -0.010459282 -0.028384349  -0.03238803 
  385000    278.34901     6667.563     3048.625    20.088232 -0.036797958  0.015364254  0.013602468 
  386000    261.03119    12714.617     3048.625    26.427718 -0.015189378 -0.0048650045 0.0072598482 
  387000    270.80665    9494.2285     3048.625    29.061022 -0.040690258 0.0094966427 -0.010940566 
  388000    294.23728    3147.7754     3048.625    25.821588 -0.016966809   0.00697089  0.024366426 
  389000    282.58383    10597.054     3048.625    24.014391 -0.0096714397 -0.029520874  0.017599391 
  390000    262.21644    14334.676     3048.625    28.057271 -0.030984237 -0.020483178 -0.012514019 
  391000    262.49876    12335.534     3048.625    33.110196 -0.0069038781 -0.025920714 0.0088232714 
  392000    276.15289     10273.25     3048.625    33.042437  0.024919285 -0.019686885 0.0042549159 
  393000    281.31498    11084.174     3048.625     30.23794 -0.0019685073  0.024096481 -0.058613518 
  394000    280.56689    5944.5288     3048.625    28.263948 -0.014152145  0.034597644 -0.012531127 
  395000    272.90176    13919.706     3048.625    28.215934  0.024589183 0.0075192799 -0.013436429 
  396000    270.73988    4172.2694     3048.625     27.13178  0.015333269 -0.0024683739 0.0038755716 
  397000    284.44994    10366.528     3048.625    25.658479  0.022821667  0.031162431 -0.0018265514 
  398000    272.07652    14774.774     3048.625    26.703147 -0.0094861718  -0.02692979 0.0095242396 
  399000    264.33587    5748.4724     3048.625    28.770163 0.0078173417  -0.02445317 -0.025089384 
  400000    264.97655    6813.1011     3048.625    28.197583 -0.011936749 -0.0038460382 -0.0074349356 
  401000    284.57951    10766.956     3048.625    24.621278 0.0050837583  0.030739085   0.01609661 
  402000    288.29986    2537.4989     3048.625    21.273578 -0.0019661527  0.035429852 0.0018088972 
  403000    256.64399    10688.587     3048.625    24.047319 0.0079818386 0.0051169578 -0.015144809 
  404000    270.84342    15596.163     3048.625    30.918537  -0.00694009 -0.0099890828 0.0029780243 
  405000    295.37846     7363.889     3048.625    34.541822 -0.018027439  0.023775522 -0.020162291 
  406000     295.0718   -481.11904     3048.625    32.445597 -0.0029311054  0.011492885 -0.010105942 
  407000    289.77078    4609.6515     3048.625    30.047714  0.020264225 -0.012822333  0.010599271 
  408000    264.63706    16438.163     3048.625     31.98219  0.028137682  0.030610802 0.0066032044 
  409000    266.79892    3927.1511     3048.625    30.109977 0.0091850315 -0.019369778 0.0071487649 
  410000    277.06645    11961.406     3048.625    27.182115 0.0037851508 -0.012622917  0.020600599 
  411000     284.1699     16176.85     3048.625    27.402746  0.019416618 -0.0028203131 -0.016913305 
  412000    268.20149    2076.4977     3048.625    29.656099 0.0096213621 -0.023436107  0.004273657 
  413000     265.8887    9877.2326     3048.625    30.124066 0.0086759647 0.0022473599 -0.044085734 
  414000    268.52801     3443.206     3048.625      27.1748  0.026752948   0.02634994 -0.017749108 
  415000    290.50114    7821.9489     3048.625    25.774752    0.0201906  0.018139516 0.0025642055 
  416000    269.74513    3556.9664     3048.625    25.186901 0.0022810908  0.021154634 0.0086468798 
  417000    275.61556     12020.25     3048.625    26.182827  0.011568052 -0.029511661 -0.00084198643 
  418000    267.81986    7731.5441     3048.625    30.179696  0.009761208 -0.017666219 -0.040215201 
  419000    293.59408   -842.20949     3048.625    34.105547 -0.021237353 -0.0024969559 -0.021028195 
  420000    259.05186    17544.217     3048.625    34.464832  -0.04864131 -0.057241119 -0.0046086295 
  421000    273.73437    7713.9122     3048.625    29.279688 0.0052684149 -0.0055390149  0.015148204 
  422000    282.04025    5587.2541     3048.625    22.656095   0.03548914  0.014924221 -0.042994288 
  423000    289.41107     3039.726     3048.625    19.192563  0.035383308  0.016561987 -0.010720707 
  424000    292.60554    10795.893     3048.625    19.350924  0.049188698  0.014011735 0.0098622033 
  425000    278.63867    5140.3836     3048.625    21.849373 -0.0066000052 -0.021564841 -0.013034879 
  426000    295.84361    7401.3645     3048.625    24.044103  0.024295889  0.042055134 -0.031528418 
  427000    285.24824    6748.4621     3048.625    23.700941 -0.0048680695  0.014983816 -0.0011995251 
  428000    276.96517    9756.6367     3048.625    23.933034 -0.0098638354  -0.05651556 -0.022868038 
  429000    264.15371    15590.192     3048.625    27.212101 -0.0059673248 -0.014069988  0.036123004 
  430000    263.93923     8600.111     3048.625    30.298549 0.0082448857 0.0045072441  0.027067209 
  431000    288.61106   -1755.2527     3048.625    32.335167 -0.00050747191  0.041327337 -0.0051599858 
  432000    297.52447    13640.725     3048.625    35.326372 -0.0066082824  0.075925324 -0.0077644406 
  433000    279.68739    11090.015     3048.625    34.112389 -0.023915716 0.0068362123  0.020804018 
  434000    273.32803   -2209.0482     3048.625    27.309346 -0.0056181031  0.034709386 -0.011486085 
  435000    275.71797    18324.403     3048.625    21.568622 0.0074230667 -0.0091400788 0.0094529697 
  436000     286.8101    9204.9477     3048.625    20.569876 -0.026708239 -0.020728184 -0.0064215159 
  437000    293.97155   -3925.9664     3048.625    23.119188 -0.0027261621  -0.04610973   -0.0176677 
  438000    268.12764    16502.677     3048.625    26.625769  0.023459255   0.01833641 0.0082090537 
  439000    270.14818    9647.0125     3048.625    28.581977  0.043199768  -0.01996933 -0.027588978 
  440000    263.45084   -810.62922     3048.625    29.848557  0.018484349 -0.025544645   0.01023227 
  441000    284.40101    11353.257     3048.625    27.997432 -0.0072027379 0.0032987523  0.010484511 
  442000    275.66248    -1083.541     3048.625    24.474692  0.014774684  0.021252961  0.013624347 
  443000    295.36597    5230.7705     3048.625    24.394114 -0.0055864324 -0.0091932682  0.032381338 
  444000    291.86041     9472.561     3048.625    24.526894  0.047661085 -0.0089424264  0.045219852 
  445000    268.77414   -417.40768     3048.625    25.528452  0.009466111  0.034202984 0.0059751096 
  446000    285.77117    334.33774     3048.625    23.877342 0.0089750639 -0.0090251814  0.020602842 
  447000     286.7286    13613.549     3048.625     20.56861  0.028566311 -0.027763774 -0.010299854 
  448000     292.2935    5737.0052     3048.625    22.565221 -0.051045011 -0.022130658 -0.012905229 
  449000    293.36447    6002.8075     3048.625    27.638694 0.0014612032 -0.0044400116  0.026267816 
  450000    285.09504    6097.1941     3048.625    32.656367 -0.011607651  0.027739813 -0.012050379 
  451000    275.07707    5976.1639     3048.625    30.299533 -0.027996795 -0.0022875541 -0.00066561453 
  452000    266.61666    12976.935     3048.625    24.536417  0.000298556 -0.010797845 -0.045160208 
  453000    282.56926    2238.1092     3048.625    21.882716 -0.0057416231 0.0039637654 -0.022986588 
  454000    287.15415    5014.4463     3048.625    23.080928  0.053341501 -0.039285422  0.030619781 
  455000    264.81641    12476.929     3048.625    25.442257 -0.0038076452 0.0012979885  0.012235686 
  456000     270.5936     8147.775     3048.625    26.124771 0.0056796248  0.003815543  0.014621924 
  457000    251.41848     13846.03     3048.625    25.487109 -0.00090286638  0.010183269  0.023568339 
  458000     288.2292    5393.7038     3048.625    27.618448  0.002174782 0.0032495594 -0.0032680861 
  459000    272.96524    4853.5952     3048.625    29.574626 0.0038514732  0.005377166 0.0057601729 
  460000    265.04986     8892.665     3048.625    28.372633 -0.0065510549 -0.021763507  0.019730177 
  461000    278.71414    14611.475     3048.625    25.492305 0.0069438731 0.0079173368 -3.1061201e-05 
  462000    275.91396    6798.1625     3048.625    27.579165 0.0056166249  0.022533979  0.015765559 
  463000    267.95978    2030.7617     3048.625    30.434516  0.026880758 -0.0093556212 0.0070584332 
  464000    280.00871    11254.555     3048.625    31.869748  0.009322487  0.013180685 -0.0049706378 
  465000    247.93256     8161.144     3048.625    32.111722 -0.036963461  0.011562857 -0.0015459901 
  466000    267.54908    12766.903     3048.625    31.014559  0.026081553  0.036555765  0.024064977 
  467000    267.65703    9789.6479     3048.625    31.932867 -0.0088129225 0.0021052457 -0.0081180343 
  468000    268.84809    3171.0649     3048.625    34.938485 -0.00035406237  0.027493476 -0.008808993 
  469000    282.67218    14578.661     3048.625    34.878801 -0.032404399  0.009829985 0.0084722993 
  470000    280.52626    11014.076     3048.625     29.17145 0.00093810306 -0.0092440321 -0.026295965 
  471000    288.67833    4402.2671     3048.625    24.763219 -0.011407096 -0.014034671 -0.0016360639 
  472000    277.77379   -938.43103     3048.625    26.485445  0.034241132 0.00098601303 -0.015990366 
  473000      290.984    10985.072     3048.625    30.086157 -0.027841336  0.010224312 0.0097437669 
  474000    289.85902    3219.7907     3048.625    31.175474 -0.045964773 -0.013271815 -0.034805683 
  475000    295.87766    4858.8004     3048.625    29.716303 -0.024111775   0.01586801 -0.022660073 
  476000    276.13934    12530.912     3048.625    28.922373  -0.01421929 -0.071976367 0.00085886797 
  477000     276.8912    11175.433     3048.625    26.512833 -0.062577153 -0.021345939  0.017675995 
  478000    262.38927    8322.4432     3048.625    21.919913  0.019945077 -0.0077272284 0.0060254391 
  479000    283.20625    5574.5946     3048.625    21.269263  0.003023942 -0.035650344  0.031854715 
  480000    293.84064    8427.4604     3048.625    25.697782 -0.017813948 -0.0071623288  0.033262369 
  481000    290.10256    4310.6119     3048.625     30.36466 -0.0068893663 -0.0023976731 -0.0071021626 
  482000    290.64976   -364.11623     3048.625    26.807315 0.0053127372 0.0032586271 -0.011848006 
  483000    262.02244    12568.648     3048.625    20.250398 -0.0086661442   -0.0276754  0.013397692 
  484000    261.65681    4221.2332     3048.625    18.294867  0.023285845 -0.00085248959  0.012016238 
  485000     275.0705    7677.0118     3048.625    22.646221 -0.0016471119 0.0014396493  0.018961598 
  486000    275.31572    13601.384     3048.625    28.146704 -0.00097656239  0.012218525 0.0044490628 
  487000    281.20955    4844.2413     3048.625    28.501929 0.0087003146 -0.043023016  0.028442631 
  488000    262.03092    8635.3382     3048.625    28.802256  0.026362506  0.011981007 -0.010921204 
  489000    282.24152    10240.518     3048.625    32.318328  0.019784503 -0.019874231  0.018220753 
  490000    297.68706   -779.62234     3048.625    32.482955  -0.01307785 -0.014341553  0.016755213 
  491000    272.52744    3470.9466     3048.625    28.820554 -0.004018394   0.07109083  0.031849727 
  492000     271.5281    13156.943     3048.625    23.461566 -0.013738314 0.0033042767 -0.016980927 
  493000    282.38229    10826.247     3048.625    22.218822  0.023216958 0.0011183853  -0.02857743 
  494000    276.04704    4788.9631     3048.625    24.863742  0.018021855 0.0022457521 0.0050851247 
  495000    291.88844    5906.9241     3048.625    26.658087 0.00035967922  0.017393086 0.0062065261 
  496000    273.79194    9348.8864     3048.625    24.463676 -0.00024776608 -0.018741148 -0.0079353893 
  497000    276.23741    4921.5703     3048.625     20.31422 -0.012240166 -0.0068421848 -0.021889684 
  498000    275.28144    14601.804     3048.625    22.027873  0.012248684  0.052906856 -0.022006239 
  499000     260.5358    6033.3792     3048.625    26.696741 -0.0016934511  0.020688121 0.0022949939 
  500000    288.31014    6163.0302     3048.625    31.186634 0.00050672213  0.018507163  0.017719972 
  501000    282.89558    18234.813     3048.625    34.492326  0.015613398    0.0081281  0.024244785 
  502000    297.39096    901.33349     3048.625    34.795596 -0.022822106  0.027058006 0.00045613216 
  503000    301.37873     6706.176     3048.625    30.742743 0.0044603602  0.012260316  0.017029101 
  504000    295.87439     10726.82     3048.625    25.880866  0.005686463 -0.031977284  0.011207607 
  505000    275.36576    3054.8244     3048.625    22.853727 -0.011119876 -0.039235134  0.029516128 
  506000    275.21233    9234.3677     3048.625    21.695824 -0.026367385 -0.0080874753 0.0032552228 
  507000    267.77522     11734.17     3048.625    22.322392  0.024290149 0.0081824529  0.014700091 
  508000    277.73003    2201.9513     3048.625    26.823551 0.0087052072 -0.0019302278 -0.0036553917 
  509000    272.85188    6936.7848     3048.625    32.941128   0.00877297  0.010201142  0.014218101 
  510000    278.06961    10902.477     3048.625    34.655941 -0.0017738088 0.0098359415 -0.024727245 
  511000    276.95546     5527.021     3048.625    31.783471  0.060664474 -0.00024692896 -4.0563866e-06 
  512000     280.7897      3434.48     3048.625    27.466101 -0.0042254533  0.014978559 0.0086823918 
  513000    279.23045    3747.9485     3048.625    23.816036 0.00057817289  0.029032005 0.0004315257 
  514000    292.62582    6312.6463     3048.625    24.305387 -0.011416536 -0.020943001 -0.016780183 
  515000    287.67602    4323.6592     3048.625     30.22331 -0.036963889   0.01111361  0.018297666 
  516000    285.21888   -1033.3469     3048.625    35.471189  0.034328896  0.034428705 -0.010848478 
  517000     297.9684    11983.995     3048.625    35.189799 -0.0078634831 -0.044431495  0.016080589 
  518000    291.29995    8834.5505     3048.625     29.20583 -0.012699957 -0.018524439  0.012201982 
  519000    276.98939    -4188.071     3048.625    25.883159 -0.0028081683 0.0093689085 -0.0067128467 
  520000    311.45837    828.27061     3048.625    28.281215 -0.037180512 -0.012093999   0.01224779 
  521000    284.87017     13480.45     3048.625    31.893221 -0.049733177 -0.0088617243 -0.032487202 
  522000    290.31913    10731.216     3048.625      33.9513 -0.0060780452 0.0053503636 -0.022437829 
  523000    307.79808    2094.4403     3048.625     33.20637 -0.010526435 -0.0066979325   0.01014336 
  524000    283.06283    3689.8156     3048.625    32.191352  -0.00873797 -0.0068709594 0.0047615651 
  525000    292.07783    10335.191     3048.625    30.849128 -0.0010430926 -0.040179833  0.032605092 
  526000    285.18904    566.88172     3048.625    28.487968 -0.012110742  0.007053359  0.017378111 
  527000    280.31698    2035.1076     3048.625    26.651346 0.0095740689 -0.0079456054  0.012396644 
  528000    291.10126    8969.9459     3048.625    26.657367  -0.01546461 -0.031215596  0.010782619 
  529000    279.18509    1822.7273     3048.625    31.330607 -0.054180469  0.015623226  0.041774503 
  530000    281.68319   -208.18167     3048.625    35.420621  0.030071999 -0.0053069983  0.037943636 
  531000    308.92704     6987.248     3048.625    34.283661 -0.0057273897 -0.043564428 -0.010955011 
  532000    292.85283    3259.4842     3048.625    29.878299  0.012706898 -0.013680882  0.020916334 
  533000    296.57529   -2830.3833     3048.625    28.366805 -0.052472248 -0.028094187 0.0098110504 
  534000    295.83976    4843.2635     3048.625    29.196843 -0.025890535  0.011848089 -0.015928553 
  535000    285.06273    9904.2696     3048.625    32.093241 -0.00077973769 0.00049653734  0.013910364 
  536000    287.72969    2930.4584     3048.625     34.34519 -0.027128513 0.0023705146  0.011641198 
  537000    283.95645    5304.6917     3048.625    35.295407  0.033833499 0.0076063608 0.0024314998 
  538000    305.18714    10100.603     3048.625    33.838837  0.033242908 -0.026573299    0.0236108 
  539000    287.41257    46.192924     3048.625    31.255691   0.04206436   0.02680239 -0.037903889 
  540000     288.1105    7103.1235     3048.625     30.02979 -0.0083393442 -0.042782668 -0.016963822 
  541000    288.46673    2541.0885     3048.625    32.127526 -0.011871015 -0.0078364028 0.0089361298 
  542000    286.33398     9071.046     3048.625    34.786901  0.019120522   0.01409053  0.012480298 
  543000    275.59448    9284.0759     3048.625     34.47509 -0.011234563 0.0050558982 -0.0071824425 
  544000    289.62957    1837.3395     3048.625    31.396051  0.052424973  0.024172899  0.008921033 
  545000    272.17271    3769.6854     3048.625    27.911051 -0.025595849 -0.017009568   0.01369576 
  546000    297.71451    9928.5288     3048.625     27.48187 -0.028529016 -0.020413617 -0.029995327 
  547000    286.54172    3754.2713     3048.625    33.178466  0.008290852  0.028651942 -0.0069091295 
  548000    279.85487   -2051.9937     3048.625    36.108909  0.045924503 0.0086190111  0.011989903 
  549000    288.02119     11051.74     3048.625    34.813021 -0.012603773 -0.025857434 -0.046686987 
  550000    294.18765    6521.5625     3048.625     32.98148  0.013550137   0.01512207  0.049203023 
  551000    283.99414   -138.09962     3048.625    32.658673  -0.03982119 0.0012835461  0.026049784 
  552000    312.80455    3797.8022     3048.625    33.857494 0.0069702095 -0.017775483 -0.022965988 
  553000    257.50119    12324.362     3048.625    30.737694 0.0068598068  0.010739729  0.011225845 
  554000    269.23989    6989.4852     3048.625    28.545579 -0.042721682 -0.0014793799  0.056433343 
  555000    286.38939    4978.9306     3048.625    28.931276 0.0072387511  0.010380763 -0.016871053 
  556000    279.04518    8371.5244     3048.625    32.592816 0.0033926003 0.0068715851 0.00047641529 
  557000    288.42162     3019.048     3048.625    33.175438 -0.010506578 -0.025673865 -0.031907284 
  558000    278.59782    8321.6438     3048.625    31.625549  0.029875974  0.012029561 0.0021673425 
  559000    271.02662    8352.1909     3048.625     33.21385 -0.0024553161  0.014177742 -0.029061193 
  560000    262.93751    3156.8634     3048.625    34.532724 -0.041672686 -0.001031918 -0.0091697784 
  561000    277.66827    1231.1027     3048.625     32.32109  0.029791777 -0.0031989697 -0.00069764357 
  562000    263.26873    9656.6436     3048.625    30.231771 -0.024301448 0.0036033416 -0.0040473698 
  563000    279.70451    7938.6907     3048.625    29.898595 0.0021067931 -0.0023107922  0.019845968 
  564000    276.10106    1942.6316     3048.625    29.254305 0.0073424103  0.015263401 0.0060934877 
  565000    262.10143    15711.039     3048.625    28.317298 0.0054417793 -0.0052677565  0.027752151 
  566000    249.29837    16571.807     3048.625    28.809056 -0.013644667  0.042750192 -0.016139008 
  567000    268.85044    1989.1528     3048.625    29.010649 -0.038479927 -0.0012669214  0.015710863 
  568000    273.74081    8138.2884     3048.625    28.706314  0.006736624 -0.0017944712 -0.015690303 
  569000     277.3595    9626.9624     3048.625    29.706757 0.0074893138 -0.023855841 0.0086793212 
  570000     258.6647     4015.099     3048.625    28.720872 0.0096293257 -0.0028473084  0.014653635 
  571000    284.58589    6305.7038     3048.625    25.129675  0.027397558 -0.020034972 -0.022302505 
  572000     284.4182     6413.255     3048.625    22.239542 -0.0094192715  0.033111395 0.0094862817 
  573000    279.38664    2577.6366     3048.625    20.698076 -0.0040357547 -0.017913015 -0.021779552 
  574000    286.60693    6130.7308     3048.625    20.632676 -0.0082823503  0.013064642  -0.02882328 
  575000    289.79671    1380.5783     3048.625     23.35338 0.0028012155  0.028250353  0.032864943 
  576000     268.6009     6975.048     3048.625    27.250451 -0.0062628678 -0.039900032 -0.0014694606 
  577000    274.65793    11687.501     3048.625    31.572283  -0.02862321  0.013537633  0.012749321 
  578000    287.28566    3397.3903     3048.625    30.510162 0.00064124656 0.0079833986  -0.02318966 
  579000    278.65571    7857.5545     3048.625    25.480325 0.0038852503 -0.051530477 -0.0056230421 
  580000    275.93905    11840.737     3048.625    21.403623 -0.0035609189 -0.011938153 -0.014048051 
  581000    276.22417    10864.748     3048.625     22.41976 -0.039108393 0.0029558691 -0.023116693 
  582000    268.41794    11010.802     3048.625     24.42282 -0.043882552 0.00071074982 -0.0016613599 
  583000    274.96185    11573.096     3048.625    27.949783   0.01604443 0.00047041909 -0.0031786942 
  584000    278.10412     5247.103     3048.625    30.832715 -0.022461973 0.0048168306  0.040043203 
  585000    277.94588    9642.7148     3048.625    31.729776 -0.022279097 -0.015240839 0.0081911276 
  586000    280.89108    8130.2514     3048.625    30.663392 0.0074601714  0.025485963  0.015412022 
  587000    264.65355     2372.957     3048.625    30.698822 0.0028544662  0.001425878  0.012260167 
  588000    270.73377    14177.342     3048.625    31.924366 -0.0026962192 -0.018961233 0.0022393972 
  589000    254.76807   -1716.4915     3048.625    32.242033 -0.0013008588 -0.012029764 0.0013281698 
  590000     276.1531    7856.1242     3048.625    31.097347 0.00066436291 -0.00011608357  0.016449427 
  591000    275.50921    11507.205     3048.625    30.085708 0.00055720753 -0.0081323215 -0.0040758547 
  592000    286.74852    4086.1477     3048.625    29.527919 0.0061768238  0.038085714  0.025888595 
  593000     272.4444   -852.49049     3048.625    29.577795  0.010050586  0.001541046   0.00883479 
  594000    287.58048    14642.912     3048.625    30.200172 -0.016335403 -0.0062222768 0.0026117059 
  595000    291.07038    4054.6706     3048.625     30.93306  -0.01138992 0.0014460336 -0.016746272 
  596000    290.69844   -2046.3456     3048.625    31.899922 -0.018576103  0.033971516 -0.0079953661 
  597000    286.88449    9393.8977     3048.625    33.694938 0.0048707462  0.011435395  -0.01875806 
  598000    262.64655    10980.901     3048.625    33.811455 -0.027255588 -0.0060997001  0.016917464 
  599000    249.61362    7426.2366     3048.625     33.97892 0.0040843012  0.041953739  0.024610734 
  600000    270.25682    14212.041     3048.625    32.884013 -0.011594785 -0.052201266 -0.023395776 
  601000    255.74614    3293.0043     3048.625    30.166325 -0.012512858  0.011067763 -0.031399152 
  602000    263.92219    5966.3522     3048.625    26.825345 -0.030644301 -0.033221773 0.0051195512 
  603000    269.31502    10610.478     3048.625    22.449485 -0.020779567 0.0092764598  0.028363127 
  604000      279.338    3517.1895     3048.625    23.025668 -0.036705611  0.019136916  0.025495579 
  605000    281.21452    10947.777     3048.625    26.781024 0.00072040822  0.024992723 -0.014755098 
  606000    282.93068    12074.568     3048.625    30.849809  0.010554373   0.03405232  0.023622747 
  607000    277.34019    6894.9582     3048.625    32.681381 -0.0030949743 0.0091611018  0.010429884 
  608000     246.9585    3212.8543     3048.625    33.579499  0.035554028 0.0089908689 0.0088841844 
  609000    267.23953    10502.157     3048.625    32.796467 0.0033366894 -0.0052993849  0.013278912 
  610000    259.43962    10117.899     3048.625    30.431573 -0.039766714 -0.010203106  0.014009629 
  611000    267.19386   -1868.1267     3048.625    28.328268 -0.053546567 -0.010775155  0.014790218 
  612000    286.15698     12229.26     3048.625    26.582729 0.0029512853 -0.021879812  0.017158395 
  613000    268.62404    7276.3798     3048.625    26.239595  0.032992194   0.01499233 -0.0013684728 
  614000    301.70564   -734.26163     3048.625    26.430715 -0.014655296  -0.04535899 -0.0064099558 
  615000    294.08822   -223.81582     3048.625    23.434386  0.041553818 -0.012179289 -0.049604672 
  616000    255.61817    9201.1924     3048.625    20.134894 -0.0063225043  0.052881457 -0.014853048 
  617000    294.23332    3697.9762     3048.625    18.598946  -0.02172396 0.0020660302  0.007296468 
  618000    279.51202    7318.2255     3048.625    20.182021 -0.026214373 -0.0083977158 -0.0086072564 
  619000    274.43753    8046.9713     3048.625    26.269565  0.012698388  0.015735294  0.001770048 
  620000    265.52779    4506.9162     3048.625    32.739599 -0.019435328  0.013137074  0.013989564 
  621000    287.99859    7009.7292     3048.625    30.382726  0.035347037  0.021639155 0.0033935466 
  622000    277.75687     9950.233     3048.625     23.00627  0.045498054  0.029790366 -0.0094880704 
  623000    287.64384    4552.5845     3048.625    21.075515 -0.032847942 0.0015332758 -0.026356304 
  624000    307.84006   -208.03766     3048.625    22.641542 0.0039071818 -0.016698798 -0.029597405 
  625000    294.56075    8970.7033     3048.625    22.719099 -0.0080773559  0.030392036 -0.010469307 
  626000    289.03599    4491.3697     3048.625    23.364292 -0.025773979 0.0052392549 -0.0050426721 
  627000    293.27663    6647.4873     3048.625    28.867979 -0.043124253  0.006359808  0.019303484 
  628000    270.84168    3739.9716     3048.625    34.573611 0.0090431569  0.031439172  0.033355229 
  629000    276.92461    4410.8733     3048.625    35.296448    0.0342436 -0.0040592004  0.020244725 
  630000    270.78232    4032.1897     3048.625    32.770532 -0.0052730746 -0.0030345766 -0.023522619 
  631000      273.827    9855.4915     3048.625    29.973773 0.0019251031 -0.012807667 -0.011517312 
  632000    280.88539    9471.9768     3048.625    27.985227 -0.013348561  -0.00290599 -0.0068327507 
  633000    273.99779    4156.8546     3048.625    27.734288  0.005577622 0.00061240721 -0.018028051 
  634000    275.38141    176.57396     3048.625    29.103644  0.015209735 -0.014501925  -0.02462513 
  635000    280.31875    6833.8433     3048.625    31.616619 -0.016755581   0.01114884  0.012039714 
  636000    268.83149     14031.35     3048.625    34.616229 0.0072882399 -0.022811799  0.027216913 
  637000    271.27787    3891.5489     3048.625    35.649576 0.0066361738 0.0058919344  0.041479812 
  638000    270.64578     5725.947     3048.625    34.858881  0.027291509  0.017578126 -0.0091876138 
  639000    280.78198     7365.747     3048.625    32.335436 -0.027067325 -0.025664431  0.018942487 
  640000    278.94247    3377.5088     3048.625    29.362383  0.023358702  0.010890188 -0.027757959 
  641000    278.42035    8485.7679     3048.625    28.483795 0.0011302828 -0.0099358849 -0.025624357 
  642000    265.44769    1638.3081     3048.625    28.925865 0.00015011105   0.02560147 0.0036479669 
  643000    274.15825      3737.79     3048.625    30.651643  0.038315079  0.052486945  0.027502652 
  644000    262.92563    14826.608     3048.625    31.870748  0.015886862  0.015590888 -0.0072398463 
  645000      265.794    12335.991     3048.625    30.743596  -0.03118437 -0.011656791  0.010743171 
  646000    255.53818    2633.5718     3048.625    30.789087 -0.022410837   0.02196435 -0.026171068 
  647000     274.7414    9799.4552     3048.625    32.537093 0.0054960428 0.00093750299 -0.014369739 
  648000    275.33075    4295.5347     3048.625    33.326802  0.004846372  0.017066554  -0.06594826 
  649000    275.11008   -232.32987     3048.625    34.758858   0.03110091 -0.0069301444 0.0044642597 
  650000    271.53805    11336.743     3048.625    35.182588 -0.014641655 0.0073371668 0.0082549618 
  651000    283.16756    9055.7401     3048.625    34.265772 -0.012484877 -0.0030582383  0.015504448 
  652000    288.74011    4125.8157     3048.625    33.925472 -0.032923798 -0.0042529696 0.0021278074 
  653000    285.37325    7774.1988     3048.625    33.589289 -0.0015557184  0.014894282  0.016659593 
  654000    279.26716    5737.9125     3048.625    31.039767  0.027953595 -0.0016235022 0.0076644105 
  655000    272.24432    7573.0882     3048.625    27.157434 -0.0066184312  0.039082343  0.019586687 
  656000    265.68051    13076.627     3048.625    25.410465  0.024226029  0.025398187   0.02037025 
  657000    282.37231    7132.1632     3048.625    25.150147  0.035590658  0.014700088 0.0023890984 
  658000    272.01051    5836.0932     3048.625    24.969261  0.017462144 -0.010629527 -0.00096298793 
  659000    296.28009    4834.2873     3048.625    26.449978 -0.0087263177  0.027474134 -0.023882736 
  660000    299.65738    1517.7465     3048.625    26.518702 -0.009652177  0.042665392 -0.0023855261 
  661000     269.4298    4956.8081     3048.625    26.813865  0.017128451 -0.0037192747  0.026336744 
  662000    260.71322    10843.633     3048.625    26.595286  0.010858627 0.0016997233  0.010380075 
  663000    277.64027    6427.3074     3048.625    24.408001 -0.0035959878  0.014600548 -0.0062317707 
  664000     278.2681    8845.6711     3048.625    21.492343 -0.032751324 -0.021839699  0.019632966 
  665000     281.8126    3683.3395     3048.625    20.127901 -0.011220111  0.013767758  0.060680365 
  666000    287.52268    6467.8047     3048.625     21.89272  0.025291523 -0.020243298 -0.033480015 
  667000     270.6207    3113.9203     3048.625    26.915569 -0.0082968164   0.03779381 -0.013766323 
  668000    270.74672     7820.782     3048.625    31.334205 -0.040639661 0.0039944752 -0.029631967 
  669000    276.96074    6361.2784     3048.625    33.556809 -0.0053687515 -0.0066516637  0.030257805 
  670000    276.50491   -1964.0367     3048.625    33.960665  0.036743002 -0.010515501 -0.016411529 
  671000     276.8468    12261.639     3048.625    32.522258  0.023699791 -0.034374508 0.0057078603 
  672000    273.46727    4722.1092     3048.625    30.339904 0.0056416607  0.030986691 -0.0066926025 
  673000    271.96997    5833.9084     3048.625    27.952376  0.064530797 -0.012925021 -0.039159743 
  674000     278.4715    12246.634     3048.625    26.530085 0.0085854915 0.0011422459  0.018147162 
  675000     274.6046    1839.7708     3048.625    27.703475 0.0052266392  0.020647341 -0.025191475 
  676000    280.81828    2846.6475     3048.625    30.919063 -0.017729088 0.0042054146 -0.0088587221 
  677000    273.37046    8191.7536     3048.625     32.78905 -0.011250442 -0.0025612465 -0.015138943 
  678000     277.6475    9252.4303     3048.625    31.110926 -0.026918381 0.0057486088  0.012195228 
  679000     281.5108   -3366.0333     3048.625    28.345296 -0.0056235249  0.020638885 -0.020938249 
  680000    284.42478    4396.3449     3048.625    27.102488  0.040596078  0.028390492  0.044246405 
  681000    280.71385    7502.1976     3048.625    28.205487  0.024416664  0.023398994 -0.036752034 
  682000    270.96295    7811.8055     3048.625    27.975735 0.0086850121  0.014329736 -0.013665059 
  683000    245.68948    4238.1008     3048.625    28.652057  0.020950174  0.022623918  0.005566128 
  684000    262.23408     9825.327     3048.625    29.748482 -0.011467715 -0.0062876695  0.016193532 
  685000    269.71356    10874.419     3048.625    29.974327 -0.016657787 -0.011729886   0.02616592 
  686000    258.04226    6945.1094     3048.625    28.522082 -0.028772201  -0.02335328 -0.021910166 
  687000    280.06107    5583.6969     3048.625     25.38206  0.002087701 -0.012667654 -0.022257013 
  688000    281.02077     12493.46     3048.625    25.084126 -0.034353423 -0.054021038 -0.016274529 
  689000    274.24327    1836.8355     3048.625     28.98961  0.036298896 0.0086045191  0.039861732 
  690000     259.8622   -840.52212     3048.625    33.643627 -0.002033812 -0.0037014826   0.01859845 
  691000    269.20711    14031.735     3048.625    34.643349   0.01048449  0.005939548  0.008707732 
  692000    271.16533    7546.8218     3048.625    31.989844  0.024604621 -0.024038263  -0.03379296 
  693000    279.30324    -1617.592     3048.625    27.559392 -0.016100769  0.011783207 -0.034688719 
  694000    282.43651    6232.5897     3048.625    25.850939 0.0037216616 -0.026731372 -0.032516025 
  695000    280.58872    8105.9572     3048.625    25.866479 -0.049186437 -0.016338963  0.066583284 
  696000    267.91771    6973.2742     3048.625    28.463343  0.035013863 0.0011232978  0.012230315 
  697000      260.355    5354.4553     3048.625    29.656915  0.026336057 -0.025517121 -0.013421859 
  698000     274.3336    6863.3701     3048.625    29.448781 0.0011979996 -0.008091013 -0.034132373 
  699000    264.52659     7193.854     3048.625    28.534046 -0.014222155 0.00093850232 0.0004772924 
  700000    247.69237    6564.6144     3048.625    26.276259 0.0077176518  0.038362118 0.0094805154 
  701000    253.82859    4603.4867     3048.625    26.330752 -0.0020236742  0.026625061  0.017024215 
  702000     265.3065    7966.7444     3048.625    27.269612 -0.0082462259  0.028344598  0.028292255 
  703000    257.08246    11212.019     3048.625     29.14453 -0.017181625 0.0025411063  0.029378748 
  704000    267.86521    1795.6206     3048.625    28.001603 -0.010896885 0.00032467309 -0.0050929002 
  705000    266.60398    5704.9283     3048.625    26.690784 0.00033884767 -0.017573312 -0.0081411193 
  706000    272.46304    4982.6285     3048.625     25.87075 -0.005729763 -0.0083284053  0.050763622 
  707000     248.1196    3610.5143     3048.625    24.778261  0.025175956 0.0030526568 -0.0037607887 
  708000    271.63187    9285.9508     3048.625    21.409728 -0.020834571 -0.033297648 -0.007943801 
  709000    283.68388    8089.7498     3048.625    20.203363 -0.033173336 0.00078863995  0.015436801 
  710000    269.14769    11628.141     3048.625    21.717622 -0.016031241 -0.0011439334 0.0055596745 
  711000    251.07734      7389.65     3048.625    23.959722 -0.0091535521 -0.043100468  -0.04560088 
  712000    248.68775    7945.6025     3048.625    24.018278 0.0038498239  0.019068037 -0.018213611 
  713000    273.70015    5611.1219     3048.625    25.179989 -0.032244007  0.013108633  0.053377709 
  714000    251.50992    7766.0806     3048.625    26.455083   0.01204682 -0.023624068 0.0056723344 
  715000    261.66849    5785.2314     3048.625    26.895828  0.017594124  0.031174742  0.017043723 
  716000    274.04728    14449.972     3048.625    28.143738  0.015793133 -0.018107119 0.00027042362 
  717000    268.23139   -703.50457     3048.625    29.608281  0.033419906 -0.0070456011  0.018361725 
  718000    277.49548     6132.198     3048.625    30.660128 0.0099603612  0.015839455 -0.013306848 
  719000    267.84176    11650.318     3048.625      32.8101   0.01852812  -0.03256501 -0.001695611 
  720000    261.04658    1612.1996     3048.625    34.320602 -0.024898441 0.0017654203 -0.023244545 
  721000    259.76241    12576.368     3048.625     35.39831 -0.0034097583  -0.02078742 0.0040973782 
  722000    258.31407    16717.383     3048.625    34.929184 -0.019914607 -0.0095503257 -0.014368784 
  723000    263.41903    8122.3968     3048.625    33.520831  0.015922823 -0.021239959 -0.012601155 
  724000    270.56676    10694.615     3048.625    32.547788 -0.0041425399  0.011472853   0.04005853 
  725000    278.11827    7847.2298     3048.625    32.050898 -0.048627661 -0.027299553 -0.012757044 
  726000    269.42112    5747.0161     3048.625    32.013468 -0.0077293685  0.028769693 0.0069473718 
  727000    273.09302    5975.0269     3048.625    31.414297 -0.0089014609 -6.2469683e-06 -0.021936406 
  728000    258.07506    15425.468     3048.625    29.512709 -0.043720558 -0.016632765 -0.019294201 
  729000    280.60368    3967.5289     3048.625    31.218944 0.0045496585  0.036008126 -0.0052592372 
  730000    278.20785    3388.1031     3048.625    32.272695 -0.029835551 -0.015582892  0.013426421 
  731000     272.4065    5040.2966     3048.625    31.692445  -0.05055155   0.03278695   0.02503238 
  732000     276.3894    5055.7875     3048.625    31.133534 -0.027788625 -0.018516496 0.00022329364 
  733000    263.88139    473.42421     3048.625    31.027066 -0.036164055 -0.016545621 -0.0079982099 
  734000    262.31566    16695.964     3048.625    30.931239   0.03969074 -0.0063197833 -0.025018815 
  735000    283.30401    8679.3357     3048.625    32.043475 -0.0039727202 -0.022336299 -0.016849953 
  736000    256.75983    5260.5615     3048.625    31.630438  0.025282053 -0.010223496 -0.018616359 
  737000    256.87791    6010.0578     3048.625    28.841008  0.022229743  0.026203068 -0.0028200945 
  738000    244.52475    14234.709     3048.625    24.757603 -0.00041133982 -0.041059943 -0.027125565 
  739000    263.66176     6036.296     3048.625    22.734758  0.051505144 -0.020350293 -0.016963687 
  740000     264.0389    7133.4333     3048.625    24.213792  0.014639745 -0.0082979956 -0.017529339 
  741000    275.48189    10163.817     3048.625    28.149785 -0.010766305 0.0072920305   0.02539954 
  742000    273.24572    7988.2814     3048.625    32.409433  0.017470904 -0.029561482 -0.010074948 
  743000    275.50537    6979.8876     3048.625    32.846447  -0.03008919 -0.023468093 0.0091883695 
  744000    265.72318    11150.287     3048.625    27.757723 -0.022878329  0.020126129 -0.004808047 
  745000     273.9405    6697.6058     3048.625    24.059436 -0.0087296488 0.0056703319  0.010324834 
  746000    264.72175    7611.7878     3048.625    26.102511  0.012371262  0.011396289  0.016789677 
  747000    283.30547    3077.8275     3048.625    30.668373  0.037061817 -0.012624888 -0.0096154888 
  748000    262.10235     2664.013     3048.625     30.92958 -0.0086645482 -0.0043343957 0.0067141287 
  749000    287.31461    8029.8669     3048.625    25.051596 0.0011888555 -0.017981114  0.014903163 
  750000    292.86521    5715.4336     3048.625    18.104437 0.0066284415 -0.031096677 -0.035765465 
  751000    281.61219     2760.062     3048.625    16.788733 -0.0045094306 -0.011942051 -0.014161791 
  752000     275.5347    4681.2441     3048.625    21.633529 0.0065895222 -0.041085267 0.0036726733 
  753000    272.70195     12836.22     3048.625    28.809566 -0.0097308567 0.00052251911 -0.0054818945 
  754000    254.58322    4757.1919     3048.625    29.169336 0.0029269179  -0.01685583  0.016308801 
  755000    265.56934    3521.0696     3048.625    21.480051 -0.0066827128  0.033313529 -0.013599309 
  756000    290.29464     7309.412     3048.625    13.987737 0.0004270638 -0.0075744543 -0.014298523 
  757000    274.91175    6376.3963     3048.625    16.195711 -0.0014099524  0.027281114 -0.014569188 
  758000    274.05086   -245.02469     3048.625    23.937647  0.024058138 0.0075277408 -0.0054633066 
  759000    267.89352    3740.7707     3048.625    29.873478   0.03467697 0.0056496159 -0.010417802 
  760000     277.7369    3463.1831     3048.625    30.245542 -0.0013295001  0.010142253  0.008721947 
  761000    273.24648    9463.9713     3048.625     29.09604 -0.0059519242   0.02350191 -0.024428656 
  762000    269.28896    4271.2716     3048.625    28.334643  0.011277858 -0.031363855  0.024894693 
  763000    265.84683   -2323.2069     3048.625    26.508292 -0.016786731 -0.0016080364 -0.012279485 
  764000    268.74541    7100.3593     3048.625    27.350081 0.0054672387 0.0024925463  0.023271273 
  765000    279.25272    6381.7469     3048.625    29.862325 -0.013614235 0.0032227644  0.036895767 
  766000    269.72607    4319.1026     3048.625    30.150794 -0.010391233 -0.0079558881 -0.0067737789 
  767000    271.61117    3115.4369     3048.625    25.823765  0.027676098 -0.0069928521  0.012269172 
  768000    272.50058    7607.8282     3048.625    22.960659 -0.022012391 0.00020104948 -0.039228318 
  769000    298.23392   -1365.5452     3048.625    24.378261 -0.0092707018 -0.00055415771 -0.0025270303 
  770000    277.30625    55.830835     3048.625    27.253213 0.0071787609 -0.027374429 -0.036327615 
  771000     263.1309    7408.5094     3048.625    24.486829 -0.0038482264 -0.0029679569 0.0037578064 
  772000     287.5022    9997.4331     3048.625    19.990218  -0.01528924 -0.0032614566 0.0074700006 
  773000    281.20754   -401.32451     3048.625    19.454601 -0.003221688  0.016561515 0.0028443343 
  774000    262.23322    7610.3749     3048.625    25.651582 0.0038291779  0.012578186 0.0075804443 
  775000    284.84782    7137.2609     3048.625    31.515123 -0.0084128651  0.019411849  0.016946259 
  776000    273.11894    1652.5516     3048.625    28.111652  0.024387862 -0.017825423 -0.038571637 
  777000    279.59852    3632.1319     3048.625    20.740525 -0.025168006 -0.0066408051 0.0056554196 
  778000     273.9489    10532.229     3048.625    19.063567 -0.050317729 -0.0027395518 -0.024304264 
  779000    278.45969    4566.3975     3048.625    26.754051  0.010333479   0.02745821 -0.013858962 
  780000    279.47957    2979.2548     3048.625    32.880402 -0.0079659277 -0.013576053  0.012856654 
  781000    266.71323     3647.265     3048.625    30.354589 0.00052415089 0.0062736466  0.025762405 
  782000    276.47889    10372.462     3048.625    21.411554 0.0066680189  0.020254961 0.0055805451 
  783000    285.78987    5825.4964     3048.625    18.674127 0.00067354936   0.02559761 -0.0065370885 
  784000     266.9341   -155.89826     3048.625    25.454262 -0.020404614 -0.0049023732   0.03240354 
  785000    261.21518    5820.5964     3048.625    31.859362 -0.029963241  0.035718069  0.055081712 
  786000    257.52971    6763.5494     3048.625     31.00977  0.044819207  0.013148352  0.003983194 
  787000    274.19217    247.45588     3048.625    24.097692 0.0080102198 -0.0050669342  0.013163641 
  788000    266.38849    4291.5202     3048.625    17.184562  0.020591476  0.002597706 -0.010688416 
  789000    262.87609    13069.725     3048.625    18.848466 -0.010571097 -0.026084011 -0.018626126 
  790000    263.21067    7541.4351     3048.625    26.231688 -0.0099721455 -0.031205037 -0.0047983628 
  791000    253.39499    1442.1256     3048.625    33.643645    -0.035681  0.021005024  0.026008391 
  792000    262.95814    4813.8542     3048.625     34.83092 -0.0070848711 -0.0086038276  0.037283382 
  793000    258.77355    11851.414     3048.625    30.705407 -0.024637831 -0.0060030919  0.024800078 
  794000    255.54476     3190.096     3048.625    24.018583 -0.0030568292  0.013805688  0.034142172 
  795000    258.15641    1657.9489     3048.625    18.906669 -0.0077959056 -0.007958515 -0.0050469911 
  796000    259.97316    6811.5145     3048.625    17.137771  0.027494994 0.0014912913 -0.00034345996 
  797000    267.48002    7757.2734     3048.625     16.75994 -0.002064423 -0.0085612978 -0.016448963 
  798000    265.84072    5208.9204     3048.625     19.30546   0.01507771 -0.025281345 -0.0029616572 
  799000    263.91519    9924.9387     3048.625    20.621979  0.015339386 -0.004270267 -0.0051564588 
  800000    262.88871    977.34564     3048.625     20.47367  0.014265791  0.012686019  0.017216236 
  801000     266.5224    3061.3852     3048.625    21.344121 -0.011538671  0.016906771 -0.026887154 
  802000    290.83006    10590.099     3048.625    27.245639  0.031302789  0.017942235  0.029294996 
  803000    272.70147    818.01626     3048.625    31.371506 0.0016879359  0.031908456 -0.0077756246 
  804000    276.23274    6908.8923     3048.625    27.946744 -0.033145616  0.016179561 -4.5312455e-05 
  805000    267.16455    10065.259     3048.625    22.527974 -0.00042734474  0.015833179 -0.00064660508 
  806000    276.61082   -4356.2004     3048.625    21.829124  0.016156178 -0.022768309  -0.01015453 
  807000    289.31298     2774.013     3048.625    24.835009 -0.015152985  -0.01186001 0.0099803296 
  808000    269.11469    10774.177     3048.625    27.766013  0.046401762 -0.017183194  0.039122543 
  809000    260.72606    7936.6936     3048.625    29.757224 0.0015225191 0.0011764275 -0.00072517654 
  810000    283.96161    8989.5946     3048.625    31.356782 0.00050471681 0.0036317501 -0.019831598 
  811000    274.29982   -1795.5312     3048.625    33.509163 -0.032354173 0.0056685452 -0.00073756945 
  812000    278.64486    1041.3514     3048.625     32.50911   0.02276643  0.014630072    0.0302369 
  813000    276.57586    8557.6345     3048.625    27.815443 0.0029307321  0.047541308  0.029918032 
  814000    289.15158    3079.3174     3048.625     22.69887 0.0070899662 -0.010663709 -0.00040507762 
  815000     265.7506    5088.3626     3048.625     22.83149  0.031140716 -0.030854474 -0.0066013377 
  816000    276.98184    1571.0375     3048.625     29.10339 -0.013221325  0.014800982  -0.03579604 
  817000    282.40478    7218.3636     3048.625    33.536508 -0.0021694013  -0.02080786 -0.018340934 
  818000    283.46379    332.18544     3048.625     30.72362  0.022841961  0.007348496 -0.018620357 
  819000    287.57038    540.08611     3048.625    25.428074  -0.02125915 -0.025017067 -0.0086878726 
  820000    286.35473    7430.9512     3048.625     23.57656 -0.028214591 -0.018731363 -1.8021819e-05 
  821000    293.95131    7374.8441     3048.625    23.791554 -0.022951919 -0.043357421 0.0091971103 
  822000    279.86593    650.29849     3048.625    25.309788 1.2862142e-05 0.0047180728  0.014622612 
  823000    307.76449   -4488.2053     3048.625    27.764007 -0.037506354  0.006843429  0.012873244 
  824000    290.53657    8771.4319     3048.625     30.32507   0.01785202 -0.012761599 -0.0039539034 
  825000    267.02417    14294.088     3048.625    32.086959 -0.008189488 -0.023611999 0.0050873344 
  826000     282.6711   -2505.5754     3048.625    32.440825 -0.051717454  0.022430737  0.020303887 
  827000    287.83889   -536.75875     3048.625     31.66892 -0.00067810377 -0.010802644  0.024867482 
  828000    258.52501     15933.14     3048.625    30.444888  0.014783761 -0.011028473 0.0050169035 
  829000    283.67882     6293.818     3048.625    29.789129  0.033142215  0.017767073  0.007216658 
  830000    269.56809    5728.2489     3048.625    29.683658 0.0037882481   0.01170928  0.030634307 
  831000    275.40695    4058.6802     3048.625     30.05506 -0.0032794316 -0.0043808249 -0.0099719513 
  832000    278.00409    4256.0729     3048.625    32.134367  -0.01436232 0.0072326611  0.040294983 
  833000    260.29191    6755.6988     3048.625    32.333635 -0.030471391  0.008493881 0.0067014269 
  834000    269.76975    5432.2385     3048.625    30.830031  0.011544515 -0.0017881679  0.010126353 
  835000     272.8902    3845.6661     3048.625      30.9365 0.0061966296 -0.020797064  0.014343406 
  836000    271.94953    7556.0009     3048.625    31.032189   0.02815962  0.055216754 0.0053223396 
  837000    274.88721    7338.1018     3048.625    30.683058 -0.0058751267  0.021777923 -0.026698305 
  838000    297.47448    3134.9258     3048.625    29.950508 -0.0011525371  0.020566906  0.019014419 
  839000    279.90164    4541.6925     3048.625     29.73262 -0.030509532 0.0073443208 -1.2252297e-05 
  840000     289.0564    4667.4627     3048.625    30.359326 -0.021880275 -0.027790728 -0.0016517736 
  841000    276.80959    9044.9842     3048.625    32.387193  0.021979586 -0.019692338 -0.082287119 
  842000     281.7734    4897.1148     3048.625    33.533001  0.016559229  0.017355772 -0.031683272 
  843000    261.77669    1048.7925     3048.625    32.353471 -0.022235584  0.028901233 0.0049171107 
  844000    274.16493    4070.8385     3048.625    27.994942  0.036854603  0.013213256  0.010099787 
  845000    280.69207    5442.7635     3048.625    25.405623 -0.0046635497  0.028597481 -0.0096456753 
  846000    271.29006    1590.8871     3048.625    27.673192  0.018903738   -0.0017479 -0.017709929 
  847000    272.88276    1906.3257     3048.625     28.34398  0.019430032  0.008610653 -0.023610275 
  848000    268.38138    9743.1976     3048.625    27.285417 -0.040850732 -0.0064154804 0.0059836435 
  849000    282.00746    4220.5385     3048.625    24.756628 -0.0043481902  0.016454839 -0.027695842 
  850000     289.5412    4812.8627     3048.625    23.723927 -0.0011006814 0.0064560266 -0.014417397 
  851000    269.58191     4727.499     3048.625    25.618396 -0.0058719474 0.0072700634 -0.0067998553 
  852000    287.98209    1971.2262     3048.625    27.127186 -0.0069753367 -1.2896702e-05 0.0080587417 
  853000    268.76829    7948.4562     3048.625    26.320333 0.0094840943 -0.013981987 0.0084336272 
  854000    266.44229    7387.9337     3048.625    24.633347 0.0013404248  0.025813848 0.0022877259 
  855000    270.68992    6406.2504     3048.625    26.231905  0.017220399 0.0037087933  0.022240702 
  856000     263.5197    469.21466     3048.625     30.35241  0.023128363  0.013470105  0.036317316 
  857000    265.05353    11672.664     3048.625    31.625261 -0.0027991034 -0.027353266 0.0037992913 
  858000    272.32424     2958.284     3048.625    28.142918  0.015960491 -0.020568893  0.010906615 
  859000    273.07149     2787.574     3048.625    26.315065 -0.0092418945  0.013276159  0.010684513 
  860000    277.49142     8609.559     3048.625    30.442138  0.019411492 0.0058504521 -0.0025728599 
  861000    261.73972    5760.3952     3048.625    31.746048 -0.011206796   0.03453721 -0.019095749 
  862000    278.70164    7326.6982     3048.625    26.812427  0.026691152  0.030832657 0.0040952267 
  863000    257.33963    8725.3287     3048.625    20.024304 -0.017446635 -0.017025773  0.013224957 
  864000    301.55374    239.69334     3048.625    18.854727 0.00084546883   0.00997769 -0.016741188 
  865000     265.9952    6815.2039     3048.625    26.125618  0.022354273 -0.010202048 -0.018326988 
  866000    283.29292    5185.2328     3048.625    30.598692 0.0086629833  0.003377965 -0.015448282 
  867000    276.01227     4424.882     3048.625    28.171938 -0.0016664748 0.00083348475  -0.02214405 
  868000    264.18175    3697.6174     3048.625    29.057998  0.022736129 -0.0079916523 -0.0011434422 
  869000    275.21348     5675.758     3048.625    34.299739 -0.029369545  -0.01186272 -0.009149053 
  870000    273.13446    4762.8973     3048.625    35.800064  -0.01102843 -0.015181101 -0.020847082 
  871000    265.00565    4454.8966     3048.625    32.786279  0.060672947  0.014565763  0.017769423 
  872000    263.77851    9247.5567     3048.625    28.933019 -0.0037673972  0.039709191  0.012921435 
  873000    281.52144    6994.6215     3048.625    28.289178  0.060338742  0.023710087 0.0081538841 
  874000    267.93697    4826.1937     3048.625     30.79291  -0.02560265  0.032070926 -0.017444565 
  875000    270.00771    7059.4107     3048.625    29.854144 -0.012772843  -0.01316277  0.017620501 
  876000    287.21218     4077.992     3048.625    25.429329 -0.026589504 -0.013972333 -0.015142253 
  877000    270.46419    3498.0588     3048.625    22.848008 0.0096396055 0.0019120808 -0.0073677534 
  878000    265.01016    3536.9342     3048.625    24.683751  0.019787239  0.018165895   0.00263792 
  879000    262.22375    4649.9821     3048.625    26.623768  0.021244331 -0.015765791 -0.0052300631 
  880000    262.12836    9969.8008     3048.625    24.598714   0.01604082 0.0053656266 0.0081409048 
  881000    267.73251    2695.7606     3048.625    19.907439  0.012986875  0.027280113 -0.013505534 
  882000    262.86539    1605.4382     3048.625    16.724252 -0.0030493584 0.0083603803  0.016793673 
  883000    279.03672    9999.9395     3048.625    17.672091 -0.027956418 -0.010292152 -0.024285538 
  884000    271.86585    6251.5854     3048.625    23.178958  0.020828667 0.0076801072 -0.0039075813 
  885000    255.00662   -2851.2473     3048.625    27.519221 0.0025583502  0.017289953 -0.00015028646 
  886000    276.57875     7956.904     3048.625    28.027441  0.012864148 0.0076966922   0.02161568 
  887000    274.96176    6565.1169     3048.625    26.017398 -0.035142012 -0.003643944 -0.011933209 
  888000    277.42635   -3556.3081     3048.625    23.820333 -0.016499952 -0.022391962 -0.0061809367 
  889000    262.87189    9052.0544     3048.625    22.890499 0.0011678113 -0.0030081569  0.029663801 
  890000    261.43347    10032.179     3048.625    22.310842  0.015754068 -0.001748272 -0.019327105 
  891000    254.48517     7773.899     3048.625    23.080227  0.012624166  0.013068743 0.0047177391 
  892000    249.78593    8063.5624     3048.625    23.542654  0.038389612  0.026874864  0.018264057 
  893000    258.83403    8036.3218     3048.625    25.084265 -0.0073862483   0.02419324 -0.020682526 
  894000    270.62037    15101.123     3048.625    28.333968 -0.018212466 -0.0031475357  -0.00248441 
  895000    268.16759    2958.6027     3048.625    28.321566 0.0030292467 0.0043624867 -0.024387084 
  896000    244.76402   -1516.3408     3048.625     26.35832 0.0058252121 -0.0059724815  0.016614419 
  897000    265.89715     7262.083     3048.625    26.071639  0.023255964 -0.007137605 -0.022919871 
  898000    278.98149    11909.483     3048.625    27.068969 -0.015956806  0.016664328 0.0097529338 
  899000    266.88168     -1466.44     3048.625    27.300397  0.024578302 -0.015681587  0.031384757 
  900000    262.36923     7497.652     3048.625    25.269018 -0.027633596  -0.03005461    0.0191074 
  901000    290.86792    9207.4738     3048.625    22.950498 0.0024685664 0.0069808979 -0.0038387955 
  902000     290.5273    1529.5417     3048.625    23.246465 -0.037798195 0.0027522067  0.013226786 
  903000    271.80097    2027.2295     3048.625    27.318074  0.022042121 -0.010889339 0.0098602437 
  904000    268.27244    9577.6029     3048.625    32.870052  0.015856829 -0.010930622  -0.01133036 
  905000    272.55431    7805.3724     3048.625     34.72973  0.016427118 -0.034231129 -0.0025387161 
  906000    283.16103   -1727.0017     3048.625    31.003642  0.013126829  0.033320667 -0.018037313 
  907000    263.79334    10399.455     3048.625    25.307383 0.0063254137  0.024802113 -0.0021217344 
  908000    279.86274    5855.5474     3048.625    22.167308  0.056896988 -0.025739801 0.0012969538 
  909000     278.2599    3736.8388     3048.625    20.342839  0.012105658  0.013539703 0.0089669682 
  910000    272.30747     4887.142     3048.625    18.100968 -0.025125701 -0.008062398  0.018347706 
  911000    263.61361    5211.1554     3048.625    18.474166 0.00099387569  0.046091362 -0.011169711 
  912000    269.29732    9103.9953     3048.625    24.241716 -0.0093728012  0.009470393  0.022474885 
  913000    281.39728    1188.6082     3048.625    30.958678  0.012195664  0.027509525  0.021664084 
  914000    273.98465    4529.0871     3048.625    34.352301 -0.029730413  0.023767818 -0.026252023 
  915000    249.37479    10033.885     3048.625    33.873007  -0.01486058  -0.02175219  0.024030516 
  916000    258.06438    5518.1168     3048.625    32.814115 -0.0037489828 -0.014252379  0.034821535 
  917000    284.97352    3296.2305     3048.625    31.471878 0.0063799511 0.0081366783  0.072563065 
  918000    283.80468      6617.56     3048.625     29.48912 -0.015784416  0.032347695  0.014596453 
  919000    274.74153    9190.1118     3048.625    26.218621 -0.023993931  0.013606857  0.027146714 
  920000    267.58466     3887.052     3048.625    24.917063 -0.033200379 -0.0035130741  0.025917158 
  921000    263.19877    2992.5994     3048.625     25.09853 -0.011172706 -0.007072684 -0.017148577 
  922000    292.47041     6841.976     3048.625     26.03092  0.010979538 -0.0089943743  0.013317277 
  923000    271.05143    363.24614     3048.625    27.684633  0.020517574  0.028254324  0.058094985 
  924000    276.93525    7803.2797     3048.625    27.941115 -0.0012594309  0.036485244 -0.013702693 
  925000    263.10161    4409.0615     3048.625    25.984524 -0.024005244    0.0227931 0.0064356235 
  926000    290.28487    5768.7583     3048.625    25.402931 -0.0048219324  0.020606044 0.0038942764 
  927000    267.53144    2620.4439     3048.625    25.805195  0.016540686 -0.010309908  0.028336198 
  928000    283.68551    4842.5112     3048.625    25.436587 -0.001869811  0.007328987  0.025838671 
  929000    275.26242    9862.7957     3048.625    25.696647 0.0075386448  0.026162516 -0.0065865682 
  930000    269.95356    9941.1437     3048.625    26.293284 -0.015985446  0.021567827 -0.0082981048 
  931000     257.4669    6956.7013     3048.625    27.674415 0.0014169529  -0.03451732 -0.00062861624 
  932000    273.11928    7343.9685     3048.625    30.843247  0.030508187  0.001191169 -0.0036631749 
  933000    266.83364    847.31275     3048.625       33.263 -0.018765853 -0.022841759  -0.02659262 
  934000    285.08699    6794.5903     3048.625     33.23761  0.022829932  0.020674068 -0.021049676 
  935000     255.5641    5507.2543     3048.625    32.513026 0.0075167094 -0.012599369 -0.042855994 
  936000    258.46475    4538.7966     3048.625    34.130996 -0.035355151  -0.03362359 -0.011501307 
  937000      265.615    6004.7658     3048.625    35.117001 0.0081809138 0.0078487258  0.008042783 
  938000    267.75269    6544.2302     3048.625    32.897171  -0.01840338  0.019451899  0.044926393 
  939000    278.24693    3466.2383     3048.625    25.493793 -0.012167276 -0.0085075343 -0.027410726 
  940000    250.03788    5964.9144     3048.625    19.817961 -0.0022915468  0.039025556 -0.014931964 
  941000    261.05317    4451.0432     3048.625    19.683567  0.015432288 -0.050473352 -0.0019284546 
  942000    265.22676    9148.3233     3048.625    23.544036 0.00064215841 -0.019900411  0.037720103 
  943000     244.8614    6052.0999     3048.625    28.233366 -0.0084020633 0.0039743077  0.059941614 
  944000    264.14117    7787.3087     3048.625    30.758496 -0.0017942464 -0.021451091  0.032041867 
  945000    268.83299    7641.5885     3048.625    27.072757 -0.014859312  0.012344632 0.0008023061 
  946000    254.38712     2533.648     3048.625    21.243181 0.0032306513   0.01809516 -0.023608583 
  947000    269.57129    14252.895     3048.625    18.344429 -0.041998477 -0.004454085 0.0083942423 
  948000    271.96856    4558.7761     3048.625    19.447809 -0.021620771  0.013027993 0.0059813124 
  949000    277.76402     2339.242     3048.625    20.960373 0.0065705852 -0.020601975 0.0044593325 
  950000    258.70073     1914.046     3048.625    21.786462  0.032539356 -0.016096308 -0.00057101752 
  951000    264.03304    5056.4768     3048.625    20.181479  0.025412659 -0.056759801 -0.034207384 
  952000    277.40539    9664.6921     3048.625     20.09155 -0.013571953 -0.030660797 -0.0013926968 
  953000    279.31561    1820.2471     3048.625    22.407299 -0.035907326 -0.0088823141 -0.027841212 
  954000    278.05358    4435.4985     3048.625     26.92232 -0.0062017093 -0.034572543 -0.0063737115 
  955000     271.1454    3215.4284     3048.625    30.715642 -0.032810996  0.027367098 -0.0072594916 
  956000    281.17065    9301.4705     3048.625    29.632752  -0.01367669  0.018373492    0.0190743 
  957000    266.32657    8453.8645     3048.625    24.993735 -0.046755194 -0.0035911015 -0.027891743 
  958000    259.60223    6779.7493     3048.625    18.888387 -0.046608312 -0.0047330742  0.009160615 
  959000    267.38598    2079.4207     3048.625    15.360513  0.001340563 -0.00080530617 -0.001055301 
  960000    239.43767    12280.464     3048.625    17.268574 -0.013182521  0.030011565 -0.0032799223 
  961000    267.26556     3514.113     3048.625    23.055852 0.0088582509  0.026543308  0.019705475 
  962000    257.71468     947.6571     3048.625     31.06204 0.0086005031 -0.0032659474 -0.032645733 
  963000    263.29495    5798.5024     3048.625    35.979187  0.012194409 -0.015799013 -0.0048534121 
  964000    269.91678     9883.312     3048.625    32.463431 0.0042643164 -0.0098619836  0.038875962 
  965000    270.83412    7011.4323     3048.625    23.538438 -0.035546762  -0.01740981 -0.0036368768 
  966000    267.61816   -3697.8734     3048.625    16.695635 -0.032650436  0.024229007 -0.016770775 
  967000    284.30935     8684.569     3048.625    15.867854 -0.00030923619 -0.040446967 0.0021147589 
  968000    277.56571     4702.616     3048.625    23.573504 -0.040223726 -0.015633917 -0.001961071 
  969000    260.98069    2252.5291     3048.625    32.151656 -0.006553093  0.031668553  0.029973767 
  970000    274.22652    5481.4772     3048.625    35.151985 -0.020231945  0.030589614 -0.0037359054 
  971000     273.8138    3462.6789     3048.625    31.457587 -0.028645482 0.0066568222 -0.0013900482 
  972000    279.70942    11025.009     3048.625    24.814682 -0.035731637 -0.0044848641  0.019796149 
  973000    276.61245    8101.3831     3048.625    20.847518 0.0006455982 0.0027562923 -0.020449632 
  974000     270.7066     900.5879     3048.625    22.759528 -0.0082634534 -0.0043743666 -0.0062009149 
  975000    278.07404      2886.57     3048.625    26.363639  0.034221602  0.037564731 -0.0025007062 
  976000    281.68968    4995.4032     3048.625    26.683529 0.00089518878 -0.032702804 -0.025944266 
  977000    271.07232    7158.7516     3048.625    24.031839 -0.026819677 -0.0043415237  0.021859275 
  978000    260.62799   -658.28049     3048.625    23.138001  0.023827648 -0.011436006 -0.0043850258 
  979000    275.89582    -926.8944     3048.625    24.731325 -0.0080699613 -0.014272772 -0.0020980281 
  980000    273.82878    7185.4295     3048.625    27.226462  0.024844575    0.0472387 -0.021012255 
  981000    267.47275    10455.044     3048.625    26.911193 -0.021212365 0.0017676304 -0.013562992 
  982000    275.58358    3644.1474     3048.625    25.602947 0.0040657464  0.026907576  0.042324893 
  983000    268.43414    4568.3648     3048.625    26.800262 -0.0085266457  0.016639172  -0.03275588 
  984000    260.00544    3441.9955     3048.625    29.298422  0.011124549 0.0073338907  0.036042173 
  985000    275.27436    3527.1954     3048.625    30.640653  0.026911872  0.036370924  -0.01896791 
  986000    273.70644    4730.4496     3048.625    30.126992  0.012254242  0.022294298  0.025220276 
  987000    277.61808    7758.8002     3048.625    28.005178 -0.0059954527 0.0014980443 -0.0065445832 
  988000     277.7104    1236.3306     3048.625    25.838713 0.0028039498 -0.028868673  -0.01018341 
  989000    280.55654    5663.6207     3048.625    27.532422  0.010775138 -0.040131693 -0.047036142 
  990000    284.55044    3489.9808     3048.625    30.873378  0.032949177 -0.0045088461 -0.005324569 
  991000    258.13901    2507.7801     3048.625    32.074261 -0.026300358 -0.023479401 -0.044012105 
  992000    272.59055    4768.5878     3048.625    30.082414  0.026718465  0.016044849 -0.0023480051 
  993000    280.36655    7935.7366     3048.625    25.841366 -0.0043943329  0.010855616  0.011941064 
  994000    260.39147    6611.1471     3048.625    22.939779  0.028401289 0.0068457364   0.01334598 
  995000    278.78358    4354.2464     3048.625    24.963442 0.0073487809 -0.0018797765 -0.0060719335 
  996000    276.90929    729.75791     3048.625    30.860541  0.028967943   0.01154253 -0.0066917211 
  997000    275.70402   -397.49076     3048.625    35.166161 0.0042332334 -0.012548274  0.017851514 
  998000    266.89841    13067.598     3048.625    33.449263 -0.0093409912  -0.01785488 -0.021791768 
  999000    276.69649    5408.0775     3048.625    28.649722 -0.014553389  0.001210532 -0.011063068 
 1000000     276.7081   -1133.1968     3048.625    25.909799 0.0019950973  0.010746063  0.031678706 
Loop time of 11071.9 on 1 procs for 1000000 steps with 240 atoms

Pair  time (%) = 10924.9 (98.6727)
Bond  time (%) = 0.258876 (0.00233814)
Neigh time (%) = 49.7168 (0.449037)
Comm  time (%) = 30.5272 (0.275719)
Outpt time (%) = 0.212825 (0.00192222)
Other time (%) = 66.2423 (0.598295)

Nlocal:    240 ave 240 max 240 min
Histogram: 1 0 0 0 0 0 0 0 0 0
Nghost:    5793 ave 5793 max 5793 min
Histogram: 1 0 0 0 0 0 0 0 0 0
Neighs:    87815 ave 87815 max 87815 min
Histogram: 1 0 0 0 0 0 0 0 0 0
FullNghs:  175630 ave 175630 max 175630 min
Histogram: 1 0 0 0 0 0 0 0 0 0

Total # of neighbors = 175630
Ave neighs/atom = 731.792
Ave special neighs/atom = 0
Neighbor list builds = 7058
Dangerous builds = 0
#	run			10000
	unfix			1
	uncompute		myKE
	uncompute		myPE
	uncompute		myStress
	uncompute		flux
	uncompute		myDis
	unfix			JJ

	next seed
	next iseed
jump lmp.in.gk loop_seed
variable iseed loop 10
variable seed index 11111 22222 33333 44444 55555 66666 77777 88888 99999 11110
clear
###########################################################################
#x0
###########################################################################
units 			metal
atom_style		full
read_data		fort.26.nonbonded
  0 = max bonds/atom
  0 = max angles/atom
  0 = max dihedrals/atom
  triclinic box = (0 0 0) to (14.5 14.5 14.5) with tilt (0 0 0)
  1 by 1 by 1 MPI processor grid
  240 atoms
  0 bonds
  0 angles
  0 dihedrals
  0 = max # of 1-2 neighbors
  0 = max # of 1-3 neighbors
  0 = max # of 1-4 neighbors
  1 = max # of special neighbors
group         		C type = 1
60 atoms in group C
###########################################################################
#OLPS
###########################################################################

################################################################################
#### Pair potentials
################################################################################
pair_style hybrid/overlay tersoff lj/cut 12.0
pair_coeff * * tersoff C.4.tersoff 1 2 3 4
pair_coeff 1 2 lj/cut 0.0007000000 3.5500000000
pair_coeff 1 3 lj/cut 0.0007000000 3.5500000000
pair_coeff 1 4 lj/cut 0.0007000000 3.5500000000
pair_coeff 2 3 lj/cut 0.0007000000 3.5500000000
pair_coeff 2 4 lj/cut 0.0007000000 3.5500000000
pair_coeff 3 4 lj/cut 0.0007000000 3.5500000000
special_bonds lj 0.0 0.0 0.0 coul 0.0 0.0 0.0

#pair_style tersoff
#pair_coeff * * C.4.tersoff 1 2 3 4

#pair_style lj/cut 12.0
#pair_coeff 1 1 0.0700000000 3.5500000000
#special_bonds lj 0.0 0.0 0.0 coul 0.0 0.0 0.0
###########################################################################

#--------------------------------------------------------------------------
#variables
#--------------------------------------------------------------------------
variable   	dt 		equal 0.001
#--------------------------------------------------------------------------
#kappa parameters
#--------------------------------------------------------------------------
variable    	p 		equal 100000 	# correlation length
variable    	s 		equal 10  	# sample interval
variable    	d 		equal $p*$s 	# dump interval
variable    	d 		equal 100000*$s 	
variable    	d 		equal 100000*10 	

#--------------------------------------------------------------------------
variable 	T_run 		equal 300
#--------------------------------------------------------------------------

log 	log_heat_${iseed}.lammps
log 	log_heat_8.lammps
