	reset_timestep  	0
	fix 			1 all nve
	compute   		myKE all ke/atom
	compute   		myPE all pe/atom
	compute   		myStress all stress/atom virial
	compute   		flux all heat/flux myKE myPE myStress
	variable  		Jx equal c_flux[1]/vol
	variable  		Jy equal c_flux[2]/vol
	variable  		Jz equal c_flux[3]/vol
	fix       		JJ all ave/correlate $s $p $d c_flux[1] c_flux[2] c_flux[3] type auto file J0Jt_${iseed}.dat ave running
	fix       		JJ all ave/correlate 10 $p $d c_flux[1] c_flux[2] c_flux[3] type auto file J0Jt_${iseed}.dat ave running
	fix       		JJ all ave/correlate 10 100000 $d c_flux[1] c_flux[2] c_flux[3] type auto file J0Jt_${iseed}.dat ave running
	fix       		JJ all ave/correlate 10 100000 1000000 c_flux[1] c_flux[2] c_flux[3] type auto file J0Jt_${iseed}.dat ave running
	fix       		JJ all ave/correlate 10 100000 1000000 c_flux[1] c_flux[2] c_flux[3] type auto file J0Jt_6.dat ave running
	compute 		myDis all msd
	thermo_style 		custom step temp press vol c_myDis[4] v_Jx v_Jy v_Jz
	thermo			1000
	timestep		${dt}
	timestep		0.0010000000000000000208
	run			1000000
Memory usage per processor = 7.90665 Mbytes
Step Temp Press Volume myDis[4] Jx Jy Jz 
       0    254.77524    2717.7338     3048.625 3.6249934e-31 -0.0041636209 -0.0036309646 -0.034245632 
    1000    240.85569    15626.633     3048.625    10.001165 -0.010057253 0.0051140532   -0.0219538 
    2000     227.7751    9942.4743     3048.625    26.232687 -0.0039399592  0.027142464  0.012670807 
    3000    240.34032    14704.036     3048.625    30.702915  0.030176825  0.027282913  0.001107115 
    4000    209.25448    17339.515     3048.625    24.303179 -0.019624578 0.0078406981  -0.00228961 
    5000    222.19396    16747.077     3048.625    21.689999  -0.03534925 -0.00023127229  0.021671017 
    6000    249.55347    9792.7052     3048.625    23.441197 -0.018171149  0.012455269 -0.001316976 
    7000     236.7273    14695.229     3048.625    25.199476  0.014422134 0.0084279105 -0.013367087 
    8000    239.56492     15224.73     3048.625     29.06863 -0.00084084783 -0.012366112  0.008813418 
    9000    258.87386    8697.3425     3048.625    32.529416  0.012021675 -0.044788131  0.015295726 
   10000    254.38649    11901.125     3048.625    31.501963 -0.006634185 -0.031373671 -0.0011509637 
   11000    243.30131    12958.285     3048.625    28.115891   0.01109756 0.0011916689 -0.0051479545 
   12000    238.16804     7972.521     3048.625    24.220034 -0.035385274  -0.01312352  0.010039138 
   13000    260.74809    14205.137     3048.625    21.772633 0.0089036254  0.017668959 -0.0031443324 
   14000    275.39368    2434.6781     3048.625    19.078314 -0.014771877  0.014400843 -0.0049044732 
   15000    262.33295    13021.103     3048.625    20.248011 -0.020676634 -0.044333929 -0.0099926654 
   16000    246.51421    13394.155     3048.625    25.438164  0.004519934  0.013087046 -0.0057923753 
   17000    230.92728    7820.6821     3048.625    32.612232  0.007590453  -0.01171018 0.0092483447 
   18000    230.56325    18332.576     3048.625    35.922633 0.0050704231 -0.019381534 -0.027772778 
   19000    256.25071    9087.7535     3048.625    29.563273 0.0034400205 -0.0094912455   0.01438244 
   20000    263.94592    9468.2492     3048.625    19.432489 -0.012804249 -0.028003506 -0.0098701652 
   21000    272.36494    8621.0349     3048.625    17.421707 -0.0020893351   0.01613675 -0.010527282 
   22000    258.61868    6408.0081     3048.625    25.502094 -0.0028350745  0.012860008 -0.027221335 
   23000    246.15626    16574.611     3048.625    32.095949 -0.005383954 0.0017719163  0.019268319 
   24000    249.85482    10568.527     3048.625    33.375474  0.021575826 -0.016809154 -0.0065763612 
   25000    219.67995    18201.155     3048.625     33.58539  0.040776829 -0.0030601134  0.028237406 
   26000    235.35713    7435.8766     3048.625    32.623432  0.037477435 -0.0081389097  0.035243073 
   27000    258.72056    12178.766     3048.625    34.484731  0.013180922  0.021970215  0.047429496 
   28000    282.78861    8912.6973     3048.625    34.750198 -0.006670383  0.023712252   0.02275739 
   29000    286.63124    1251.0108     3048.625    34.339517 0.0043250624 0.0025200132 -0.0050915347 
   30000    280.57478    10759.541     3048.625    32.646032 -0.004623318 -0.0077837875 0.0036260638 
   31000    246.64225    12843.611     3048.625    29.405735  0.010217697 0.0056444706  0.027502201 
   32000    256.76931    4429.0091     3048.625    27.028286 -0.016061921 -0.0099929714  0.015546506 
   33000    267.99148    8587.5428     3048.625    28.296816 0.0088861882 -0.015357077  0.013829114 
   34000    262.26837    10611.649     3048.625     29.39868 -0.010049902 -0.017680718 -0.0089994041 
   35000    240.37517    11594.414     3048.625    27.587908 -0.033755977 -0.010958079 -0.0037062765 
   36000    245.96617    16688.804     3048.625    27.012872    0.0119828  0.014796164  0.028603878 
   37000    241.16383    9042.9588     3048.625    27.948338 -0.010675791  0.031441956  0.033575423 
   38000    242.87059    12548.087     3048.625    24.468672 0.0047337739 -0.044810825 0.0065255443 
   39000    251.89021     12176.77     3048.625    19.751489 -0.014513083  0.015453233 -0.037351795 
   40000    274.85293    8364.8724     3048.625    23.407782 0.0036926449 0.0070661706  0.026864663 
   41000    271.58634    11373.855     3048.625    28.134998 -0.0071542985  0.029849229 -0.0067582381 
   42000    249.07546    15245.407     3048.625    30.588037  0.019195648 -0.0050305343 -0.0027776151 
   43000    252.51752    16518.304     3048.625    28.671293 -0.038477437  0.013186895  0.038029955 
   44000    253.74758    2419.6052     3048.625      24.6092  0.012141728  0.014674359 -0.067277351 
   45000    259.51195    11761.751     3048.625     25.19678  0.014687637  0.032178184 -0.013066585 
   46000    243.44103    9167.8858     3048.625    31.174388 -0.00061686406  0.038281468  0.024397737 
   47000    260.66605    3636.8016     3048.625    34.333192 -0.017475319  0.031237583 -0.019508914 
   48000    256.75725    13294.407     3048.625    31.817129   0.03820409 -0.026267195 0.0065216535 
   49000      243.548    8783.5924     3048.625    27.944137  0.027257441  0.033829592 0.0030139421 
   50000    238.34555    12700.339     3048.625    25.016208 -0.0017800888 0.0075406416 -0.025934865 
   51000    256.33993    13352.161     3048.625     24.26125  0.010838585  0.020532118  0.025571532 
   52000    242.70136    12802.455     3048.625    27.276805 -0.019796647 0.0090209704  0.027328655 
   53000    228.02947    16038.723     3048.625      31.5608 -0.020016652 0.0095774797  0.014525013 
   54000     258.4408    12940.012     3048.625     31.10984 -0.018614469 -0.0087905298  -0.01035683 
   55000    253.58934    8589.2719     3048.625    28.644836 -0.0046254249 -0.022895089  0.011930566 
   56000    214.47893    10084.386     3048.625    26.901131 0.0090181167 0.0028011827   0.02361647 
   57000    245.35192    14946.523     3048.625    26.167868   0.01164645 -0.0019681054 -0.029679244 
   58000     236.2195    11808.995     3048.625    27.304557 -0.033084999 0.0021623295 -0.002361722 
   59000    251.80171    7349.0145     3048.625    21.252219 0.0092886032  0.022922726 -0.0072154064 
   60000    247.46968    10309.966     3048.625    19.238422  0.012088971 0.0024879514 -0.016263138 
   61000    245.92665    13673.882     3048.625    25.608681 -0.033917358 -0.005266651 -0.0097653022 
   62000     244.1705     13966.49     3048.625    31.975597 -0.013427426 -0.0067926005  0.022617088 
   63000     251.3895    10788.417     3048.625    33.775933 -0.010239793 0.00041521093   0.04048214 
   64000    244.94086    6656.9902     3048.625    32.038942  0.027086122 -0.012207876 -0.027048546 
   65000    277.61879    11741.827     3048.625    30.373942  0.015283308 -0.014591746 -0.015458864 
   66000    262.78273    9003.7903     3048.625    31.125358 -0.0063191877  0.017015226 -0.0060085088 
   67000    242.09818    10284.271     3048.625    33.226773 -0.0083436468 -0.0077989734 0.0097883397 
   68000    269.97329    6908.0577     3048.625    35.660651 -0.00085625169  0.028732538  -0.03651477 
   69000    268.91068    11028.453     3048.625     34.60524 -0.00015220418 -0.040085191 -0.023886854 
   70000    255.20436    3657.5216     3048.625    27.615014 -0.0080089547 0.0073791735 -0.033166349 
   71000    254.15229    9981.3026     3048.625    22.968035 -0.013581091  0.045315972 0.0041628967 
   72000    258.04365    9683.9622     3048.625    25.813155 0.0030399827 0.0079945573 -0.0019665274 
   73000    268.12464    761.65014     3048.625    31.144358 -0.0048190994 0.0053096471 -0.016502897 
   74000     249.7361      9476.21     3048.625    29.480608  -0.01393749  0.027030439 0.0034845294 
   75000    241.22481    14621.684     3048.625    24.857339  0.034685587  0.011003719 0.0021281582 
   76000    263.12018    8946.8783     3048.625    25.074328  0.044953818  0.017145072   -0.0220372 
   77000    268.21217    8415.0847     3048.625    27.816069 -0.0019389196 -0.015638564 0.0037001806 
   78000    249.09652    8191.9665     3048.625    26.493182 0.0070564956 -0.033471804 -0.015016698 
   79000    263.08219    14320.534     3048.625    26.502001  0.013632255  0.026229697 -0.027179882 
   80000    278.00289    4629.4232     3048.625    30.276022 -0.0037796687  0.015019136  0.025377258 
   81000    265.37333    9558.3764     3048.625    31.722111   0.02180416 -0.0030677309  0.020890981 
   82000    260.62159    10468.202     3048.625    29.756973  0.035086462 -0.010531073  0.025344788 
   83000    237.52338    5297.9611     3048.625    26.893968 -0.014102658  0.011931317  0.011851586 
   84000    264.49167    12963.437     3048.625    23.918928 -0.027990745 0.0015337806 -0.0092845497 
   85000    244.56624    4551.1802     3048.625    25.287356 0.0099218914 -0.040056859 0.0054529846 
   86000    244.24516    12572.427     3048.625     31.97063 0.00097825269 -0.0067442865  0.039031467 
   87000    274.35754     6991.804     3048.625    33.807994 0.0037280823  0.011634987 -0.018773225 
   88000    278.79925    8174.1482     3048.625    29.126253   0.02856652  -0.01204657  0.017158011 
   89000    231.52419    14136.958     3048.625    24.416136 -0.0048374018  0.026178813 0.0032453879 
   90000    259.44802    7518.2197     3048.625    28.663382 0.00096628293  0.020665963 -0.006597548 
   91000    254.78894    13305.832     3048.625    34.409365 -0.0079336541 -0.029877945 -0.033756268 
   92000    249.50935    9034.2497     3048.625    33.710644 -0.036413346  -0.04103965  0.009316573 
   93000    251.10123    7888.8681     3048.625    30.028209 -0.010738184  0.023419781 0.0066628141 
   94000    252.70666    11161.349     3048.625    24.766916 0.0043277071 -0.00057100767  0.040979666 
   95000    261.37809    4060.3107     3048.625    20.833864  0.028986934 -0.015884119 -0.0015464774 
   96000    264.79786    6940.6892     3048.625    25.825325 -0.010776028  0.010537765  0.011956704 
   97000    248.34778    8649.8122     3048.625     30.31535 0.0026212139 -0.0045203843 0.0010081545 
   98000    247.39864    10575.519     3048.625    27.595003 0.0063410478 0.0042694255 -0.0076493071 
   99000    234.19266    5377.1938     3048.625    30.083121 -0.044662304 0.00050506909 -0.028839017 
  100000    272.56188    6029.9053     3048.625    32.207742   0.02049665 -0.010555674  0.024645132 
  101000    243.52349    15314.794     3048.625    24.128326  0.021119255 -0.022606652  0.026264347 
  102000    242.63153    9204.8787     3048.625    23.489721 -0.037766095 -0.0055410014 0.0073430334 
  103000    277.02775    8337.9864     3048.625    25.516547 0.0040791016  0.024025215  0.044951351 
  104000    263.08099    2248.5861     3048.625    20.859888 0.0079221333 -0.0017133364 0.0078399792 
  105000    278.25819    10710.852     3048.625    23.951319 0.0099408115  0.014523334 0.0049329607 
  106000    262.42308    14200.309     3048.625    34.863095 -0.0088420963  0.044449557 -0.039072251 
  107000    238.46849    14381.615     3048.625    31.728216 -0.039507698  0.005275111 -0.0018921248 
  108000    245.96791    4994.5251     3048.625    26.434674  0.021868414  0.023280046  0.028896085 
  109000    252.12659    7215.5075     3048.625    26.223515  0.011593952 0.0061796502 -0.022981301 
  110000    258.41219    8804.8621     3048.625    20.618248  0.020561419  0.019071024  -0.01488592 
  111000    235.42225    10720.325     3048.625    18.630859 0.0055831095 -0.0070598571 -0.0011116528 
  112000    250.36539    8030.5045     3048.625    24.294029 0.00082015816 -0.011832833 -0.0016224848 
  113000    233.62393    18737.277     3048.625    26.505044 -0.024368515 -0.020803327  -0.01609209 
  114000    230.50658    5015.0736     3048.625    25.863087 0.0037285015 -0.020145071 -0.0087320447 
  115000    262.38859    12080.948     3048.625    25.678751 -0.00091614007 0.0047717663 -0.037458165 
  116000    249.43126    12260.424     3048.625    28.634781 -0.0078111075  0.023315013  0.017334842 
  117000    259.07092    8133.1263     3048.625    30.001504  0.013611225 -0.019306918 -0.0014292238 
  118000    255.75079    9007.0286     3048.625    24.904582 -0.033960528  0.035584249  0.004060273 
  119000    242.68214    12927.589     3048.625    17.973285 -0.056036202   0.01743181 0.0015201661 
  120000     243.5549      11783.5     3048.625    16.095493 -0.022374682 -0.010558143  0.007413753 
  121000    251.21319    7462.3341     3048.625    23.183465   0.03885226  -0.02538003   0.02528089 
  122000    256.69511    9826.8674     3048.625    31.927873  0.015119002  0.024801777 -0.0016292702 
  123000    243.21447    9633.4888     3048.625    30.874636 0.0062741578  -0.02829036 -0.015330209 
  124000    223.87553    18446.741     3048.625    23.671569 -0.044228048  0.011833542  -0.02179422 
  125000    239.98538    16302.254     3048.625    20.730826 -0.034073995  0.013697424 0.00081254653 
  126000    263.01244     3627.145     3048.625    22.450156 0.0026542162 -0.0081054456 0.0051462976 
  127000    257.91591    13101.125     3048.625    23.025564 -0.012417363 0.0023046581  0.012666475 
  128000    256.87433    8184.9365     3048.625    23.273444 0.0041497117 0.0083569525  0.029090671 
  129000    251.03347    10036.513     3048.625    23.138795 -0.0079243872 -0.021419673  0.050556177 
  130000    243.70739    14593.902     3048.625    24.876385  0.021530813  0.020538524   0.01405186 
  131000    246.92794    8154.9858     3048.625    24.067544 0.0097700448 0.0048561224  0.015543923 
  132000     235.0413    8525.4403     3048.625    24.387049 -0.00053051343   0.04763619 0.00023478035 
  133000    256.37395    10524.981     3048.625    28.191703  0.026009086 0.0094482487 -0.0011368108 
  134000    244.84597    9812.0192     3048.625    27.588945 -0.022637002 0.0090360281 -0.0060847054 
  135000    253.68305    3118.6537     3048.625    25.191548 -0.0095505889 0.0096722214 -0.0094412389 
  136000    255.22282    15853.092     3048.625    26.088823 -0.001637441  0.029592947 0.0004404751 
  137000    253.52826    1938.0457     3048.625    25.146875 -0.014979299  0.017950331  0.030145956 
  138000    246.50628    7930.6922     3048.625    23.714622  0.053826937 -0.0097133937  0.030454992 
  139000    248.16261    13567.632     3048.625    21.281915  0.011945622 -0.0056035173 -0.016292397 
  140000    261.53836    4716.4194     3048.625    20.308889   0.01117207  0.023545842  0.029874733 
  141000    252.51012    9518.3267     3048.625    24.131059  0.030902198 -0.044084322  0.025724605 
  142000    249.81324    11876.087     3048.625    26.343823 -0.0080518839  0.016926531  0.025454721 
  143000    237.24337    13425.066     3048.625    22.910137  0.026513866  0.020201991  0.013223195 
  144000    248.83205    6637.5153     3048.625     20.82487  0.014526418  0.013333804 0.0041688605 
  145000    268.54229    11798.357     3048.625    28.512529 -0.0062378183  0.016061331 0.0083655161 
  146000    254.43974     5717.733     3048.625    35.624297 0.0038038804 0.0043146474  0.054764739 
  147000    265.21715    10408.464     3048.625    31.753102 0.0043126094 0.0013168318 -0.0095991054 
  148000    246.23819    7059.7943     3048.625    24.489425  0.015318994 -0.0057941479 -0.016219292 
  149000    258.09149    7299.7804     3048.625    24.193389 -0.012637321 -0.0060046221 -0.0017421416 
  150000    272.36763    5446.9139     3048.625    29.546603 -0.010544396 -0.019944796  0.016897713 
  151000    256.42347    10681.064     3048.625    33.723488  0.017710824  0.010734597  0.012494959 
  152000    240.87798    11247.084     3048.625     31.63887  0.015868913 0.0038597845  0.037106684 
  153000    240.73771    14428.473     3048.625      28.7473 -0.022242314 -0.024900063 -0.007747367 
  154000    233.47764     2145.543     3048.625    27.259797 -0.043369876 -0.016303733 -0.028914062 
  155000    267.88052     8699.584     3048.625    27.961358  0.009127839 -0.013616023 -0.031289625 
  156000    258.14118    10952.452     3048.625     29.56452   0.02296549 -0.0040780019 0.0055313752 
  157000    261.55243    6472.0402     3048.625    34.020815  0.015990722 -0.015545741 -0.026021069 
  158000    243.56808    14108.235     3048.625     34.44295 0.0049547628  0.010871303 -0.037578956 
  159000    224.16756    9680.7524     3048.625    28.394089 -0.022379519  0.016855721   0.01182131 
  160000    227.05564    15961.115     3048.625    24.072743 -0.016316791  0.013540718  0.033991378 
  161000    250.05283    9461.1496     3048.625    28.261139 0.0094409013 -0.027034722 -0.022182541 
  162000    236.28736    5675.4031     3048.625     30.49371  0.014821613 -0.0027961914 -0.0045109268 
  163000    226.59593    17886.671     3048.625    26.442911 -0.012307211   0.02743714 -0.0033992128 
  164000    251.39633    3082.5595     3048.625     20.80475 -0.0037434507 0.0043655155 0.0051360317 
  165000    243.10802    7424.1861     3048.625    21.101267 -0.0079467037 0.0020062035 -0.015606691 
  166000    256.41584    8590.3381     3048.625    24.417951 -0.032819685  0.034025538 -0.002628951 
  167000    261.66902    10223.844     3048.625    26.531154  0.033101798 0.0068745707 -0.012114192 
  168000    228.03762    18495.935     3048.625    25.199533  0.012326129 -0.016754756  0.034187785 
  169000    242.89654      7711.69     3048.625    19.400261 0.0034563681 -0.00039360955  0.012965393 
  170000    254.59465    5018.1207     3048.625    20.437772 -0.024865139 0.0048774451  0.007259901 
  171000    266.99761    4765.5768     3048.625    29.140816 -1.4409369e-05 0.00052918413 -0.028602629 
  172000    261.88925    10624.019     3048.625    30.248942 -0.0044934654  0.021072438  0.045642101 
  173000    245.63265     11039.06     3048.625    26.810071 -0.0086621155 -0.010005909 -0.0046558783 
  174000    253.74812    5421.2746     3048.625    25.056395 -0.033602874 -0.0099401638  0.012617075 
  175000    268.60618    10450.611     3048.625    23.780942 0.00078930287 0.0025930323 -0.017843001 
  176000    267.23026   -621.73328     3048.625    24.062758  0.022678485 -0.0030531122 -0.0089264136 
  177000    258.98031    8991.6166     3048.625    29.670173  0.018106264 -0.019731095 -0.013313412 
  178000    262.71343    7628.1107     3048.625    34.950481 0.00079925511 -0.0083987773 -0.033875238 
  179000    262.61354    4343.6104     3048.625    31.772456 -0.0078678512 -0.023759123 -0.0093694462 
  180000    278.92998    7617.1013     3048.625     29.69145 -0.0074588408   0.01464001 -0.014899129 
  181000    271.27995    4130.4984     3048.625    24.201507 -0.018438624 0.0058360218 -0.0091533843 
  182000     249.5213    5430.5575     3048.625    15.169342  0.002327297  0.011253551  -0.01872771 
  183000    267.79207    6203.5384     3048.625    21.603124 -0.014888765 0.0086769797  -0.05214996 
  184000    263.15162    4921.0348     3048.625    25.916458 0.0010932218 0.0035747126 -0.018779812 
  185000    267.79837    7945.6812     3048.625     23.32958 -0.016987602 0.0013994865 -0.011737009 
  186000    263.74296    11471.685     3048.625    27.686627 0.0074337994  0.022620514 -0.045468884 
  187000    249.88806    7165.5251     3048.625    24.655367  0.036366439  -0.01491075 -0.0066243572 
  188000    263.49981    4865.0201     3048.625    16.534316  0.006465908 -0.0095896011 -0.012930009 
  189000    270.70565    8512.1118     3048.625    19.502259 -0.0030203758  0.020499671 -0.019955654 
  190000     259.1958    11381.224     3048.625    19.620114 -0.017557158  0.011430591 -0.0044262259 
  191000    250.06437    548.11547     3048.625     21.34106 -0.019819562 -0.013613099 -0.0078246452 
  192000    247.95359    13740.617     3048.625    31.624192 -0.0015443824 -0.0023877138 -0.050018432 
  193000    251.98254    8732.0669     3048.625    34.893154  0.011498777 -0.0064045278 -0.029082927 
  194000    256.56731    5436.2441     3048.625    30.927878 0.0086927141 -0.019288892 -0.026962834 
  195000    262.15784     13615.21     3048.625    30.408783 -0.020592823 0.0063974991 0.0069581151 
  196000     258.7152    2090.0956     3048.625    32.445032 -0.032186777  0.017165615  0.034170375 
  197000    249.45847    9071.9256     3048.625    30.319757 -0.013455923 -0.0098161016 -0.022412747 
  198000     249.5513    7098.4679     3048.625     26.67605 0.0088794614   0.03610307  0.016662725 
  199000    257.95404    8624.4944     3048.625    26.790253  0.024886281  0.035204488 -0.0030648552 
  200000      252.796    9519.7443     3048.625    30.117506 -0.0029370209 -0.0068282268  0.042173119 
  201000    268.21431    2685.7077     3048.625    30.541908 -0.039807016 -0.010085422 0.0045098094 
  202000    228.39654    6271.9055     3048.625    29.171192 -0.022805666 0.0037007673 -0.0063088478 
  203000    255.98496    4830.8755     3048.625    27.798858 -0.057050998 -0.022890401  0.013166799 
  204000     264.4462    7648.1152     3048.625    26.180602 -0.019336034 -0.014914474 0.0063552723 
  205000    238.40529    9372.7404     3048.625    23.138268 -0.0048791556  0.035427312  0.036586012 
  206000     255.7408    9106.9375     3048.625    20.371995 -0.012152271 -0.0088671108  0.018765672 
  207000    268.52976    2658.7131     3048.625    21.957978 0.0010944231 -0.0040944302   0.02804898 
  208000    265.31902    87.570279     3048.625    28.279407 -0.023086991 -0.00070483672  0.011434199 
  209000    253.14812    12826.567     3048.625    32.289337 -0.0070218977 0.0034472221 -0.0048339224 
  210000    258.90675    7119.5667     3048.625     31.38515 -0.0006236137 -0.017229607 0.0097562087 
  211000    246.04377    10987.737     3048.625    26.995247 -0.0081838486  -0.01398655 -0.0063137501 
  212000    254.07496    8504.1515     3048.625    26.387723 -0.019151954  0.016152334 -0.005821278 
  213000    256.48331    4798.2141     3048.625    27.936068 -0.022689726 0.0028774027   0.00693059 
  214000    247.43904    10652.642     3048.625    31.794721 -0.012237253 0.0042116376  0.012168983 
  215000    245.23346    9773.1506     3048.625    35.332176 -0.031612286  0.010034274 -0.028773528 
  216000    267.07757    10053.244     3048.625    34.285568 -0.023324547 -0.015857078  0.010899287 
  217000    257.50587    2376.5884     3048.625      30.6836 0.0097009197  0.017838999  0.049887764 
  218000    265.60642    12259.422     3048.625    28.083551 0.0061191296  0.048929655  0.012455567 
  219000    247.52777    8098.3864     3048.625    29.773889  0.031921211  0.038287768  -0.01933744 
  220000     263.7184    3791.0693     3048.625    33.748908 -0.018494965 -0.034722238 -0.0019145852 
  221000    251.64412    11615.461     3048.625     35.94971 -0.017669352  0.021159173 -0.013084012 
  222000     252.5258    6870.2984     3048.625    35.211392 -0.0022182618  0.010729607 -0.016842566 
  223000    240.01014    14040.805     3048.625    33.025074  0.030876747  0.013251795 -0.0042356369 
  224000    249.24269    8686.5303     3048.625    29.963207  0.044057786  0.026292841  0.018805731 
  225000    249.30468    10804.416     3048.625     23.91083 -0.0045547265  0.050797717  0.018619772 
  226000    255.80779    71.083792     3048.625    21.052743 -0.011554705 -0.013173254  0.018151316 
  227000    240.28104    12549.274     3048.625     24.05019  0.013545517 -0.020993279 -0.021877804 
  228000    253.17465    13829.294     3048.625    28.552676 -0.0035123609  0.046380977 -0.00050356256 
  229000    258.57481    852.91755     3048.625    30.285981 -0.039044705 -0.023124447 -0.023012342 
  230000    254.55127    10088.081     3048.625    30.725045 -0.013259732 -0.012883669 -0.016850767 
  231000    249.01559    6154.0706     3048.625    33.595162 -0.012036828 0.0096601155 0.0025437217 
  232000    266.95911     3405.233     3048.625    35.592987 0.0097882464 -0.0017621719  0.025828121 
  233000    246.96775    3903.6467     3048.625    32.994982 -0.037370282  0.030102025  0.039098518 
  234000    255.86901    8422.7208     3048.625    26.116166 -0.0084902078  0.030677444 -0.00098482863 
  235000    256.34902     4376.629     3048.625    24.234671 -0.0017587432  0.049290622  0.010690339 
  236000    239.18542     7487.366     3048.625    26.942875 -0.0087038078  0.026470708 -0.015225433 
  237000     264.5748    9761.0786     3048.625    31.259189  0.018703405 0.0069272893  0.012664225 
  238000    256.65557    3636.0717     3048.625    30.367311 -0.0041377594 0.0036309946  0.023615797 
  239000     260.7383    4549.0838     3048.625    26.186088 -0.0040194433 -0.0086314235  0.016371796 
  240000    266.56283    5575.7996     3048.625      24.5429  0.014426284 -0.0061956139 0.0042477466 
  241000    260.04709    4403.9476     3048.625    27.897586 0.00041492058 -0.010351422 0.0052865352 
  242000     266.4613    8015.9211     3048.625     28.67439  0.012321182 0.0070185423  0.053067693 
  243000     243.1083    2348.9642     3048.625    22.591114  0.011840845 -0.0028548614  0.036709164 
  244000    256.89541    9729.2088     3048.625    23.039559  0.010708103  0.021674135 -0.0047510962 
  245000    268.02678    2495.0485     3048.625    31.221709  0.013922271  0.020081254 -0.0068617351 
  246000    257.29478    9528.0971     3048.625     28.06504  0.029362595  0.042018626 -0.013091076 
  247000    257.63284    2207.4491     3048.625    22.457897 0.0092983298  0.015176927  0.010782099 
  248000    259.21046    5130.3393     3048.625    28.382189 0.0071544752 0.0029673028 -0.012157809 
  249000    247.30513    11070.686     3048.625    30.540201 0.0028878401   0.01001239 -0.017730472 
  250000    264.78013    7750.0702     3048.625    23.362094   0.00340547 0.0019835306 -0.014162786 
  251000    263.79705    1859.8147     3048.625    24.009892  0.019542306 0.00076522919 -0.016371114 
  252000    261.83498    6509.6554     3048.625    30.955763  0.042693581 -0.024763253 -0.013599169 
  253000    268.04612    5836.0144     3048.625    29.487824 0.0044723328 0.0058693569 -0.0084725663 
  254000    260.91323     9135.572     3048.625    25.905524 0.0099141411   0.02282779 -0.014630139 
  255000    269.66755    3333.4489     3048.625    28.971305   0.01719532 -0.021457368 0.00067699249 
  256000    257.48383    6753.8146     3048.625     33.91017  0.010883703 -0.021056588 -0.0033904559 
  257000      260.548    14822.524     3048.625    27.789699 -0.028487015 0.00066474301 -0.017601602 
  258000      266.667   -297.34029     3048.625    19.693977 -0.020804588  0.013783824 0.00067452091 
  259000    263.57926    5071.5706     3048.625    23.476522 -0.011170189  0.016965492 -0.019580479 
  260000    251.02812    13099.584     3048.625    28.938178  0.012456268  0.020481759 -0.0058270886 
  261000    235.29846     6878.667     3048.625    29.187514  0.015009388  0.025583328 0.0071571197 
  262000    211.83116     9117.797     3048.625    27.703569  0.011118373  0.014326545  0.019206652 
  263000    217.15072    11826.396     3048.625    28.162796  0.015010363  0.050772924  0.026092606 
  264000    232.77919    6944.0879     3048.625    29.568901  0.024047281  0.031499102  -0.02033256 
  265000     242.2041    13668.662     3048.625    26.877295 0.0047198838  0.021010114  0.027813496 
  266000     242.9809    9343.7267     3048.625    21.116013 -0.00029207535 -0.019199388  0.036824607 
  267000    252.06677    12067.031     3048.625    17.313019  0.013932869 0.0025869826  0.010154893 
  268000    219.97378     6090.197     3048.625    14.526285  0.016021247 -0.041081936  0.011155874 
  269000    216.86389    15657.887     3048.625    18.940089 4.8751039e-05  0.011780109 -0.018977488 
  270000    215.46261    10322.714     3048.625    24.074123  0.020285643  -0.02370223 -0.015219555 
  271000    251.79441    5928.7496     3048.625    26.904547  0.035763195 -0.0019537023   0.00224797 
  272000    222.41915    11814.197     3048.625    29.784921 -0.0081545103 0.0061970699  0.004983117 
  273000    253.09628    7518.9204     3048.625    30.276701 -0.016197287 0.0069823204  0.041313712 
  274000    240.99407    6442.6481     3048.625    31.587573  0.022758679 -0.004708077 -0.030555985 
  275000    230.70641    17676.433     3048.625    32.538594  0.033154679 0.0076470696 -0.0040699618 
  276000    246.12794    8679.6905     3048.625    32.199568 -0.0019941044  0.010063393 -0.0055852432 
  277000    246.57798    -529.8032     3048.625    30.160075 -0.041672116 0.0017876563 -0.014180364 
  278000    251.75262    8305.9011     3048.625    27.931185 0.00055737308  0.025405343 -0.035855395 
  279000    258.77395    9418.4834     3048.625    29.669222  0.032392648  -0.01371951 -0.041933558 
  280000     257.8526    5991.3955     3048.625    33.316779 -0.045408837  0.018859704 -0.013352527 
  281000    257.76789    6937.0261     3048.625    31.626583 -0.016297128 -0.025688012 0.0056510438 
  282000    235.84232    3652.8649     3048.625    28.278523  0.024341975 0.0076309593 -0.016981987 
  283000    243.04563    14480.639     3048.625    26.580386 -0.014728851 -0.011366544 0.0097746406 
  284000    254.20856    5668.3229     3048.625    28.760897 0.0069857758  0.047002188 -0.0068819776 
  285000    236.19585    4608.5492     3048.625    30.767684 0.0062165514 0.0080425312 0.0071524244 
  286000    242.07485    11435.975     3048.625    28.402029 -0.001076855 0.0010202898  -0.01556741 
  287000     248.2269    2830.7185     3048.625     30.16681 -0.010847822 0.0027359955  -0.00201168 
  288000    248.33633    8787.1926     3048.625    33.642106 0.00024819972 -0.010236922 -0.009139156 
  289000    234.77604    11055.368     3048.625    32.597652 -0.039440497  0.017615283 -0.018307679 
  290000    249.63431    4085.4002     3048.625     27.78427 -0.022719503  0.011803229 0.0086256992 
  291000    264.36596    9812.1883     3048.625    24.792925  0.008049139 -0.0011971592  0.006346013 
  292000    238.21262    13452.359     3048.625    23.932523  0.002530732 0.0041791075 -0.018024539 
  293000     229.9254    3883.2228     3048.625    21.159694 -0.0065321041  0.010316918 -0.016468295 
  294000    249.96735     7139.109     3048.625    17.792373 0.0013957033  0.012637281 -0.026018126 
  295000    258.72441    10314.195     3048.625    21.655729  0.016676424 -0.0089828119 -0.008943363 
  296000    238.76365    3367.3474     3048.625    29.267414 -0.013217412 0.00050544177  0.024585999 
  297000    278.57791      8030.43     3048.625    33.425037 0.0075301722 0.0050263856 -0.027541106 
  298000    263.19535    5997.3765     3048.625    33.224004 -0.021722573 -0.013627836  0.014199942 
  299000    252.48701     7007.517     3048.625    32.466616 -0.024004279 -0.019529776  0.011796989 
  300000    233.83582    12997.357     3048.625     32.16066 0.0065915695 -0.0095503622   0.04342216 
  301000    257.18561    6639.3187     3048.625    29.675286   0.03554912  0.014099829 0.00070029076 
  302000    254.01114    6534.5456     3048.625     29.11933 -5.6779551e-05 -0.0025052527 -0.0060614138 
  303000    226.55346    5882.4885     3048.625    30.396362  0.021636196 0.0053185036 -0.036851612 
  304000    256.17406    8809.0982     3048.625    31.977141 -0.016348624 0.0022833487 0.0013129659 
  305000    214.78218    16977.611     3048.625    34.134404  0.020843636 -0.0034165148 -0.004992297 
  306000     223.5252    9586.7174     3048.625    31.460126 0.0094964775  -0.00746184  0.008760462 
  307000    235.61074    12211.009     3048.625    26.291255 -0.029479618 -0.022541923 0.0086174456 
  308000    234.97102    10475.035     3048.625    24.325449 -0.020108912 -0.0061311463 -0.0080146629 
  309000    228.09972    12739.808     3048.625    24.646785 -0.0048582376 -0.059413152 0.0086777219 
  310000    230.67559    17900.546     3048.625    27.712992 -0.0060503683 -0.0086842137    0.0440276 
  311000     238.6707    1762.2166     3048.625    31.334444  0.026978297 -0.0074047597 -0.028874605 
  312000    241.58008    10371.284     3048.625    33.695917 -0.013442125  0.016265719 -0.028035997 
  313000    249.15323    9219.1854     3048.625    31.972867 0.0033747833 -0.0037440639 -0.013983023 
  314000     238.7103     5049.296     3048.625    29.061385  0.012492178  0.018299709  0.023225522 
  315000    259.61363    10159.204     3048.625    27.848086 -0.011063584 -0.0046449063 -0.0034916605 
  316000    242.08488    9766.8309     3048.625    24.078551 0.0020310495 -0.011391733 0.0075930354 
  317000     249.3052     5450.262     3048.625    16.657753 -0.043488351 -0.0058752888 -0.026205796 
  318000    258.02286    7777.3245     3048.625    14.526789 -0.0047367971 -0.010746337 -0.018282577 
  319000    273.05043     3081.277     3048.625    19.600945 -0.031443255  -0.03555571 0.0099907533 
  320000    246.79343    4978.7486     3048.625    24.679431 -0.019101409  0.016026397 -0.00011423323 
  321000    251.34671    9698.2641     3048.625    24.843471 -0.0036379278 -0.023031654 -0.010563319 
  322000    250.28712    919.35265     3048.625    25.511352 -0.002329637  0.037887306  0.015766882 
  323000    247.81796    9200.1081     3048.625    30.245962 0.0057308599  0.011039778  0.026868659 
  324000    244.28826    4768.6388     3048.625    29.728888 0.00056727361 -0.022529872 -0.0035044962 
  325000     254.2591    6515.8693     3048.625    24.498876 -0.019122271 0.0052920574  0.017920247 
  326000    238.67802    12529.443     3048.625    20.127657 -0.0078796111 0.0093595381 -0.023768462 
  327000    254.44137    9449.9904     3048.625    21.702688 -0.0077634636 -0.011963381 -0.00016723845 
  328000    261.43135    4221.0678     3048.625    29.139819 -0.018158225 -0.027410706 0.0010809815 
  329000    260.02167    5078.6047     3048.625    32.794483 -0.010547276 -0.021319597 -0.0052869487 
  330000     280.1013    4248.9431     3048.625    29.584975 -0.0040577014 -0.030980112  -0.01615682 
  331000    248.46625    8471.9225     3048.625    24.232097 -0.0023435566 -0.024879445 -0.010055229 
  332000    277.66362    3393.5401     3048.625    23.026743 -0.0023602418 -0.030510007 0.0032737783 
  333000    250.35705    5473.9577     3048.625    26.427427 -0.025591819 -0.0046397916 0.0015544523 
  334000    261.39289    2122.4274     3048.625    27.679165 -0.016248793  0.029095257 -0.0056035488 
  335000    260.67652    11338.551     3048.625    25.302444  0.042575822  0.026853914 -0.039520179 
  336000    267.44897    635.12528     3048.625    22.479416  0.024220319   0.01020723 -0.0071668403 
  337000    246.89455    1666.4997     3048.625    21.668088 -0.0023888469 -0.024515454  0.024152507 
  338000    258.03686    12993.156     3048.625    25.078739 0.0075590814  -0.02582548 0.0060840795 
  339000    243.93619      7232.84     3048.625    32.368855  0.010211164  0.013630153  0.015181372 
  340000     236.8893    3798.4636     3048.625     36.00036 0.0012991933 -0.020201184  0.067109364 
  341000    249.14194    6719.0262     3048.625    30.947381 -0.025015841  0.024254204  0.030593505 
  342000     280.3619    11142.145     3048.625    24.051141 -0.0099564684 -0.036216515  0.038454438 
  343000    257.31119    3479.6736     3048.625    24.403799  0.010402169  0.011374772 -0.017722159 
  344000    264.79745   -3194.6543     3048.625    29.992498 0.0096902056  0.034651229  0.016517992 
  345000    241.47678    15983.138     3048.625    33.476459   -0.0150245  0.016510937 -0.010201791 
  346000    235.70387    8648.8292     3048.625    32.331575  0.022964352  0.051551874 -0.031062062 
  347000    217.99407     1685.647     3048.625    31.329917  0.012735823   0.00378744 -0.026021224 
  348000    268.63226    7972.6754     3048.625    31.557224  0.011314276 0.0061089866  0.019346938 
  349000    259.55701    9606.6889     3048.625    31.036643 -0.0039574229 -0.034380191 -0.0080248148 
  350000    260.43763   -650.41028     3048.625     31.97705 0.0045007826 -0.023380331   0.04602003 
  351000     240.8679    11551.859     3048.625    32.909768 0.0074364671  0.015960824 -0.029404027 
  352000     261.9764    10263.289     3048.625    31.622663 -0.010316452  0.032013248  0.013975365 
  353000    240.35691    2641.0411     3048.625    28.226172  -0.02619745 0.0066205013 -0.014164742 
  354000    244.25115    9805.5575     3048.625     24.04389 0.0077195588  0.019722331 -0.024175269 
  355000    250.46044    7328.2904     3048.625    24.349936 0.0070930959  0.010690908 -0.00024639812 
  356000    253.11132    5384.5035     3048.625    29.328244  0.037149662  0.040137039 0.0026758606 
  357000    258.16149     7128.032     3048.625    34.409104  0.015615865 -0.0059335592  0.013361711 
  358000    265.49375   -442.24322     3048.625    35.269606  0.041709925   0.05135671 0.0095096254 
  359000    257.09182    8158.7716     3048.625    29.914792  0.010829594 -0.0042929911 -0.0029686632 
  360000    237.22223    11239.465     3048.625    22.599617  0.010203606 -0.0062992899 -0.017534411 
  361000    240.84089    7069.9806     3048.625      21.0234 -0.013226726 -0.012852838 0.0055602684 
  362000    246.66395     4931.673     3048.625    25.832701 -0.0058654507 -0.0088488245 -0.022957828 
  363000    241.68089    7982.1972     3048.625    30.995168 0.0017293769  0.032511882  0.021287021 
  364000    254.81015    6774.5844     3048.625    32.207629 -0.032328505  0.018610936 0.0046571886 
  365000    250.20035   -350.63309     3048.625    28.048005  0.036422494 -0.0051575764 -0.0052502636 
  366000    255.69867    10719.243     3048.625    27.620553  0.006042211   0.01228816 -0.021768125 
  367000     261.5362    8165.9974     3048.625    29.211568 -0.038207478 -0.0092416574 -0.017550088 
  368000    264.56393    1285.2482     3048.625    29.735486 -0.017745619  0.010057002 3.9172627e-05 
  369000    234.54186    5470.1854     3048.625    27.252599  0.027462243 -0.011535889 -0.010989192 
  370000    240.77158    12697.708     3048.625    26.409969 -0.0030293645 -0.018574285 0.0013571273 
  371000    232.87622     4612.641     3048.625    30.237563 -0.016032599 0.00048491613  0.012611274 
  372000    262.23879    4776.4028     3048.625    32.190227 -0.0063689275  0.029136399 -0.0094542548 
  373000    239.50837    8335.6061     3048.625    29.820136 0.0062102182 -0.012746679  0.010439474 
  374000    240.64777    4432.7275     3048.625     26.34052 -0.0036637901  0.020630267  0.032363662 
  375000    244.85294    13797.644     3048.625    26.518848 -0.0045939181 -0.0094089432 -0.028286155 
  376000    224.24369    11280.005     3048.625    27.299223 0.0030692781 -0.016866881  -0.01050578 
  377000    210.59205    10357.577     3048.625     28.75379 0.0085353255 0.0092552961  0.012091934 
  378000    244.46419    6406.9119     3048.625    29.138161 -0.0071213008 0.0040862151  0.038884181 
  379000    234.09033     6323.624     3048.625     31.05233 -0.0034483658 -0.014700286 -0.0030456038 
  380000    249.08402    12081.968     3048.625     31.18244 -0.0022613746   0.02055439 -0.020266596 
  381000    257.00977    5262.9887     3048.625    31.164994 -0.007356412 -0.0069731732 -0.025809763 
  382000    267.74521    3023.2511     3048.625    29.930691  0.019340796 -0.031017505 0.00014137185 
  383000    249.18831    12860.625     3048.625    28.686851  0.018995395 0.0028424632 -0.023548562 
  384000    245.82747    2749.0949     3048.625    27.192197 0.0040840712 0.0048510023 -0.011280702 
  385000    234.45796    3835.6655     3048.625    24.924247 -0.0078583095  0.012586266 -0.024858942 
  386000    246.80581    13115.433     3048.625     23.09524 -0.0030589835  0.016803388 -0.0024389327 
  387000    244.20047    4527.0252     3048.625    22.855252 -0.00081745014 -0.014075426 -0.0035997674 
  388000    238.00527    9312.6586     3048.625    24.031087 0.0046838182  0.026376819 -0.016154235 
  389000    263.28218    10116.463     3048.625    23.217978 -0.0075759804  0.020795275  0.031071019 
  390000    246.09754    4633.5013     3048.625    20.545436  0.010054419 -0.028392796 -0.0028442502 
  391000    239.28604    7622.4066     3048.625    20.168627 -0.0083718869 -0.0047628249 -0.029711918 
  392000    236.72713    12159.297     3048.625    21.685776 -0.021926943  0.017036523 -0.014033007 
  393000    230.61967    5671.3535     3048.625    28.565294  0.016114329  0.018436322 -0.0067224347 
  394000    229.52737    3696.2793     3048.625    32.043844  0.006391001 -0.014498568  0.030570747 
  395000    252.09106    14036.252     3048.625    27.117659 0.0095647181 0.0041904138  0.011017913 
  396000    236.12547    7361.8364     3048.625    20.312907 0.00059128911  0.018921839 -0.014251787 
  397000    244.06895    306.79562     3048.625    16.253819 0.0058234203  0.015127015  -0.01292285 
  398000    243.41081    13368.351     3048.625    18.353913  0.031146194 0.0070504239 -0.0032850639 
  399000    237.29473    7336.5758     3048.625    20.708975 -0.0061900271 -0.005606564  0.022610105 
  400000    245.62251    5196.2813     3048.625    17.024927 -0.0099801497 -0.041565936 -0.024941172 
  401000    226.78796    8822.9219     3048.625    14.451321 0.0084775617 -0.0043636622 -0.0033207692 
  402000    251.39882    5700.1459     3048.625    18.146578  0.023147571 -0.033095408 -0.00026635706 
  403000    248.59619    10938.193     3048.625    25.890222 -0.012969493 -0.025068649  0.012477437 
  404000    231.49729    8429.2141     3048.625    32.106362 -0.040276253  0.014647986  -0.02419527 
  405000    237.48101      7249.35     3048.625    32.497376 -0.018908969 -0.0062272288 -0.015749761 
  406000    262.44508    6605.0445     3048.625    25.523708 -0.0065891243 -0.0014433889 -0.026621704 
  407000    248.13798    5706.8047     3048.625    16.281351 0.00014851188  0.018978785 -0.034931055 
  408000    221.74096    6249.0207     3048.625    14.178285 0.0039074637   -0.0311546 -0.0042743407 
  409000    246.45855     10635.56     3048.625    21.177103 -0.014203895 -0.019162715  0.015066993 
  410000    246.00989    1569.2086     3048.625    28.744878 -0.035855215  0.026192684  0.011757006 
  411000    235.02215    13307.649     3048.625    26.507521 0.0069860939 -0.020442424 0.0027549283 
  412000    232.70264    12944.297     3048.625    18.907828 -0.0073020822   0.01061091 0.0092504724 
  413000    247.94761    5119.4021     3048.625    14.174782  0.012984102  0.020932995 0.0030426053 
  414000      238.311    7614.1387     3048.625    19.041004  0.033272923 -0.011706926 -0.0059924294 
  415000    258.40136    6092.6715     3048.625     27.12803 -0.022176968 -0.007169565  0.012455048 
  416000    243.24688     4033.247     3048.625    32.450459  0.014992572 -0.027445516 -0.0052758126 
  417000    229.45953    7588.3335     3048.625    32.583975  0.020958204  0.006008832 0.0036527762 
  418000    243.37577    13856.767     3048.625    26.756314  0.010115906  0.011856041   0.01079456 
  419000    238.42388    2912.0424     3048.625    21.290518  0.010861543  0.028909879 -0.0032834023 
  420000    232.43825    7531.2025     3048.625    20.325392 -0.017460986  0.036288635 -0.022198253 
  421000    227.01123    16154.578     3048.625    22.861298 -0.011447179  0.030170078   0.03282175 
  422000    247.37114     11394.41     3048.625    28.186921 0.0052108581 -0.021915302  0.010475966 
  423000    252.87118    6249.6894     3048.625    34.891352  0.033304886 -0.00042568905 -0.011523469 
  424000    243.48204     4850.588     3048.625    35.509244  0.009504532 0.0017458558  0.050847196 
  425000    258.22531    6182.6122     3048.625     31.54036  0.021877395 -0.00045307095  0.004877718 
  426000    230.19641    8879.8092     3048.625    25.977657 0.0039911589 0.0020697293  0.049315509 
  427000    219.81008    14803.465     3048.625    20.901317  0.007642042  0.022618513 -0.034268223 
  428000    238.62309    8438.7913     3048.625    22.013207  0.011378523 0.0077455242  0.012828179 
  429000    234.70469    9159.1599     3048.625    27.264271 -0.00034884594 0.0021236317 -0.0082627505 
  430000    247.16603    6064.0747     3048.625    28.420736 -0.018341465  0.030309334  0.005677526 
  431000    232.28368     13465.12     3048.625    27.330722 -0.035081987 0.0025080083 -0.033590753 
  432000    238.14009    8622.0677     3048.625    26.499324  0.012892403  0.022468826 -0.016240551 
  433000    253.29774    7086.9942     3048.625    29.505851   0.02632157 0.0064632156 -0.013945869 
  434000    251.67166    9762.7201     3048.625    32.404224  0.011620361  0.017521455  0.021657619 
  435000    240.30457    7538.3544     3048.625    29.287383 0.0096120312 -0.016225001 0.0069996221 
  436000    242.03746    7011.9492     3048.625    23.560369 0.0039689951 -0.0035812227  0.015620893 
  437000    264.91176    9015.2521     3048.625    21.353041 0.0097528515 -0.00055067267  0.042484454 
  438000    257.88985    4081.8172     3048.625    23.671704 -0.029893942  0.012550945  0.034928593 
  439000    243.50145    6772.9137     3048.625    28.753938 0.0062692075  0.026709839  0.012063642 
  440000    250.20427    2773.4897     3048.625    33.132912 -0.010459909 0.0003130877 -0.0031859248 
  441000    244.32828    5237.2872     3048.625    30.820381 -0.015016518  0.049448531 0.0041635153 
  442000     244.2989    8922.2724     3048.625    25.193006  0.016748464 -0.00083611269 -0.034660636 
  443000    250.44961    2976.7825     3048.625    20.342795 -0.011732007  0.028675619  0.033292157 
  444000    250.65566    6340.0819     3048.625    18.643506 -0.029457017 0.0051810801 -0.019514641 
  445000    266.06514    7955.6652     3048.625    23.578172  0.013162071 -0.0046698009  0.017297697 
  446000    251.73131    1897.3487     3048.625    22.499258  0.031799498 -0.0071773682  0.014981027 
  447000    248.35535    4499.0368     3048.625    18.929894 -0.018699081  0.023548385 -0.027542574 
  448000    258.09366    14995.776     3048.625    18.604703 -0.0052918915  0.019612801  0.030244452 
  449000    258.30242    1377.3576     3048.625    21.125116  0.012929648  0.013946709 0.0045646512 
  450000    237.78814    7115.5103     3048.625    23.299376  0.014988612  0.016017915  0.024361853 
  451000    220.34995    4216.6816     3048.625    25.455239 -0.017817884 -0.015865105 -0.016483041 
  452000    248.40323    5938.7498     3048.625    26.884509 -0.017283963   0.01304644 -0.011874008 
  453000    249.67178    9786.2337     3048.625    27.635983  0.015194023 -0.052626916 -0.028330327 
  454000    252.84712    7490.1413     3048.625    25.836945 0.0066978193  0.050181547 0.0093477261 
  455000    248.19352    5537.4816     3048.625    25.278123 -0.0089884404 -0.022080054  0.010079184 
  456000    242.92099    12537.445     3048.625    27.888752 -0.013005096 0.00037520749  0.014825276 
  457000    254.67938    -406.4364     3048.625    33.025949 0.00058095608 0.0097976846 -0.00072547498 
  458000    263.39118    6973.8815     3048.625    36.139273  0.030802261  0.019027438 -0.0032342837 
  459000    246.28701    3389.6318     3048.625    35.313122  0.031163751  0.010103725  0.049426073 
  460000    245.24606    6385.6136     3048.625    32.672921 4.2164622e-05 -0.0076475819 0.0033637904 
  461000       235.11    6236.4229     3048.625    29.851187  0.016018847 0.0030615896 -0.0017255625 
  462000    234.06321    17036.988     3048.625    28.016375 -0.016544768 -0.023271505  0.012973926 
  463000    247.23652    923.09929     3048.625    28.498034 -0.0095650515 -0.021870863 -0.0085068268 
  464000     254.5554    1923.1635     3048.625    29.832528 -0.014627346 -0.039709147  0.014854135 
  465000    234.89146     13519.16     3048.625    30.499275 -0.039995777 -0.012120722 -0.013813973 
  466000    236.28278    6871.4803     3048.625    29.459078  0.015051987 -0.044106639 -0.015491234 
  467000    229.50051    9490.2984     3048.625    26.202873 -0.027701384 -0.021742858  -0.01322712 
  468000    229.27826    6827.0195     3048.625    21.977624 -0.0012596914 -0.0034288979 0.0097719765 
  469000    255.52134    8519.7241     3048.625    18.604478   0.01745989 -0.0019476729  0.031823872 
  470000    254.16745    9469.2375     3048.625    18.443234 -0.005122273  0.014174865 -0.013306796 
  471000    250.24525    7943.9108     3048.625     22.80334  0.011800239 0.0093412276  0.013438745 
  472000    250.18861    2175.3655     3048.625    25.930796 -0.002755107 -0.0062785624  0.031867869 
  473000    248.87424    9017.9237     3048.625    25.632649 -0.013762252 0.0081049335 -0.00085417624 
  474000     225.9181    8966.8908     3048.625    28.759388 -0.0050436567  0.026792882  0.020576949 
  475000    232.11497    18506.507     3048.625    31.261503 -0.0084003889 0.0073436855  0.020586839 
  476000    246.88914    4702.1817     3048.625    27.447521 -0.0046849724  0.010679576   -0.0107818 
  477000    254.08247    784.57892     3048.625    16.502374 -0.0099540183 7.2252965e-05   0.02074704 
  478000    269.02354    3627.8469     3048.625      11.4634 -0.022893343 0.0041748707 -0.038658425 
  479000    257.04737     3508.498     3048.625    19.480621 -0.021661003   0.01641945 -0.024402067 
  480000    258.38038    4917.3439     3048.625    26.218643 0.0064984101  0.016821881 -0.035603606 
  481000    259.63981    4988.9745     3048.625    20.775381  0.020358959 0.00093442315 -0.066289413 
  482000    261.44941    7149.0223     3048.625    15.690288  0.017059929 -0.038995876 0.0018693559 
  483000    261.20999    8824.3196     3048.625    17.541213  0.015566798 -0.0056677847 0.00069078732 
  484000    243.22705    3685.1766     3048.625    19.514235  0.024114989  -0.01209172 -0.011377755 
  485000    257.10424    8827.4111     3048.625     17.04423  0.017771124 -0.021860657  0.017405537 
  486000    253.71871     3326.298     3048.625    21.500225 -0.0019214738 -0.0092178558  0.019288654 
  487000    234.68098    3357.9952     3048.625    31.462951  0.013479983 -0.0025335731  0.021103734 
  488000    229.97543    10745.706     3048.625    32.871718 -0.00077631017  0.040093587  0.022858023 
  489000    234.33537    4003.9167     3048.625    28.600686 -0.0017129046  0.011785894   0.01743457 
  490000    238.28457     8757.531     3048.625    28.138231  0.026380311  0.014813595 0.00076332971 
  491000    248.04745    7987.4481     3048.625     29.61142 -0.0029323974 -0.025701884 -0.019754991 
  492000    230.82524    11477.576     3048.625    28.603457  0.013989808 -0.0013638107 -0.0014498545 
  493000    225.67865    7361.3667     3048.625     26.90439  0.021541667 -0.0064967283 -0.0034480403 
  494000     229.4608    15124.676     3048.625     23.86803 -0.0059282407 -0.026449776 0.0035434177 
  495000    229.25559    9891.6906     3048.625    24.640275  0.027022489 0.0026598645   0.02813206 
  496000    233.77678    5183.1332     3048.625    29.192086 0.0093892559 -0.027771928 -0.023182296 
  497000    246.40273    10576.252     3048.625    29.983394 0.0027200595 -0.0037828925  0.020762948 
  498000    231.96045    5011.8687     3048.625    29.874364  -0.01839765  -0.01662864 -0.013363421 
  499000    230.75375    12341.711     3048.625    29.251408 0.0079699087  0.029324454 0.0040443811 
  500000    232.81243    6480.0375     3048.625    29.248633 -0.022671736 -0.014102731 -0.022033778 
  501000    218.50388    12553.406     3048.625    29.368831 -0.022473509 0.00074610769  0.029269019 
  502000    228.98173    9516.6315     3048.625    28.492331 -0.001008333 -0.025152367  0.011507985 
  503000    252.30177    11831.211     3048.625    28.889693  0.022452017 -0.029083369  0.021104496 
  504000    230.92136    7021.5972     3048.625    28.293772 -0.017666518  0.018455949 -0.015825819 
  505000     254.4024    8793.1596     3048.625    29.588191 -0.025690228  0.032138539 0.0015163703 
  506000    246.32219    9836.5858     3048.625    32.474376 0.0010766596 -0.021455553 -0.0050664467 
  507000    223.53559     9694.339     3048.625    34.106433 -0.016850527 -0.023030007 0.0023911662 
  508000    239.25941    7711.9091     3048.625    34.005795 0.0014255636 -0.010742772  0.060409409 
  509000    253.24831    10648.092     3048.625    30.231761  0.013995877 -0.0012861482  0.030951748 
  510000    248.45536    3562.2704     3048.625     25.38656   0.02021272 -0.012257453  0.020092406 
  511000     252.9031    1997.7476     3048.625    24.980945 -0.016158803  0.018618671 0.0082646495 
  512000    249.01533    9022.4488     3048.625    28.296634  0.023206516 -0.0055380782  0.031170561 
  513000    247.25321    6647.1724     3048.625    29.307353  0.023506897 -0.0053348592  0.026145979 
  514000    227.76881     12558.12     3048.625    26.692104 -0.021026499 -0.00080432058  0.040832845 
  515000    236.46915    9758.1046     3048.625    22.551568 -0.009750015  0.023888046 -0.023225302 
  516000    246.41415   -115.27581     3048.625    21.503734 0.0035728189 -0.0045897888 -0.0038382178 
  517000     224.0488    11925.536     3048.625    26.125668  0.027232211 0.0076809657 0.0034897116 
  518000    241.67017    8550.6812     3048.625    31.676448 -0.00020499788 -0.045854348 0.0027252893 
  519000    252.16151    2003.5492     3048.625    34.205482  0.013546698 -0.0062486575 -0.032309984 
  520000    237.13823    8249.3992     3048.625    34.180995 0.0012313725 -0.0063770229 -0.015968632 
  521000     219.1975    9825.3675     3048.625    34.004506 -0.020869035 0.0024021387  0.011738209 
  522000    236.49015    11378.782     3048.625    34.396563  0.015131301 -0.0099763474 -0.015505776 
  523000    232.88007    10649.889     3048.625    34.794988  0.027703617 -0.00014024478 0.00033178093 
  524000    244.43198    4641.0076     3048.625    34.951511 -0.040655473 -0.0077041004 0.0050243251 
  525000    254.35891    8250.8803     3048.625    31.761558  0.036835934  -0.01279181  0.014261812 
  526000    242.73741    3221.9577     3048.625    27.064855 0.0053744521 -0.0089046873  0.040481235 
  527000    258.96175    2386.4718     3048.625    24.286864  -0.01647661  0.014566163  -0.01853535 
  528000    231.29911    10971.552     3048.625    27.686862 0.0014186604  0.027667498  0.022805808 
  529000    208.87159    7645.0178     3048.625    32.360591 -0.039614342 -0.0069971353 -0.0026206603 
  530000     216.1405    8968.7842     3048.625    33.353036 0.00016437387  0.023565109 -0.0037132568 
  531000    244.42543    15512.451     3048.625    31.072124   0.01350238 0.0083913195  0.010127413 
  532000    235.47403    3667.5035     3048.625    29.335647 -0.012114466  0.021766252  0.012332698 
  533000    228.69428    4632.5282     3048.625     30.20806 -0.0088817461 -0.017176363 0.0043305799 
  534000    250.32697    9587.3032     3048.625    29.622417 -0.016163576 -0.019725517 0.0044121741 
  535000    220.96844    11593.677     3048.625    29.690324    0.0124566  0.011142662 -0.044453445 
  536000    241.48394    6248.4664     3048.625    28.281489  -0.01258125 0.0013756423  0.034104191 
  537000    246.80904    2395.2385     3048.625    28.993561 -0.008360219 0.0036522033 0.0062134462 
  538000    238.89088    10804.481     3048.625    30.903389 -0.013764001 -0.0055271474 0.0074505692 
  539000    261.93062    5295.1299     3048.625    31.217535 -0.0061332338 -0.0091223417 -0.012804885 
  540000    235.28514    425.28996     3048.625    29.190803 0.0043304246  0.013779881  0.017308935 
  541000    231.82508    9162.4148     3048.625    26.790614 -0.0023633668   0.01846405 -0.0013816312 
  542000    230.90158    17504.422     3048.625    27.263798  0.016619827  0.014410414 -0.004698462 
  543000    242.04594   -4808.3084     3048.625    29.420189  0.010825274 -0.011666028 -0.0057358633 
  544000    234.41225    7066.9266     3048.625    30.727132  0.010417418 -0.0017247378  0.011459549 
  545000    235.55709    14317.357     3048.625     26.61769   0.02467097 -0.010419293 -0.00021458939 
  546000    232.02095    9293.8565     3048.625    23.109786   0.01404972 0.0038024966 -0.0024655644 
  547000    220.35597    5320.3738     3048.625    19.667692 -0.0076666491 -0.0063721055 0.0088814126 
  548000    245.27291    15715.471     3048.625     23.58493 0.0070291102 -0.0093745043  -0.02091059 
  549000    245.53965    3459.5325     3048.625    26.169499 -0.0038007472 0.0034712607 0.0031681412 
  550000    234.01678    9632.7126     3048.625    25.584853 -0.0045358886 0.0065578988 -0.0050922838 
  551000    246.81531    10496.321     3048.625    21.890656 -0.001297147 -0.037122304  0.050271325 
  552000    224.02272      7249.02     3048.625    23.533757 -0.022523106 -0.0089780902 -0.026524962 
  553000    213.13877    9225.3147     3048.625    27.937693 -0.016014304 0.0047007213 -0.025090916 
  554000    235.28481    8783.9898     3048.625    28.275133 -0.018414465  0.019270571  0.020586727 
  555000    233.68187    7204.5631     3048.625    23.759292 -0.018407203 -0.044026852 0.0031451323 
  556000    241.43197    6861.6796     3048.625     19.41591 -0.037543684 -0.026017923 -0.010745055 
  557000      239.669    5376.9745     3048.625    19.380156 0.0098566614 -0.029226407 -0.034559661 
  558000    257.29192    6580.6749     3048.625     23.28669 -0.0017245321 0.0080424263 -0.019014394 
  559000     240.1979    1467.9709     3048.625     26.12927  0.039108204 0.0067333962  0.034284042 
  560000    242.30534    9043.2712     3048.625    28.575662  0.012893035 -0.014114088 -0.016947009 
  561000    251.14777    11100.926     3048.625    31.806488 -0.0062436367 -0.040183329 -0.0020887379 
  562000    242.21618    3420.7191     3048.625    30.829093 0.0083322505  -0.01170046  0.034580427 
  563000    240.27616    3162.7705     3048.625    23.090059  0.031427155  0.016047354 -0.015059949 
  564000    236.75805    5913.0497     3048.625     18.35524 -0.010680722 -0.016216799 -0.013053326 
  565000    259.68294    6157.2509     3048.625    23.833026  0.012819231 -0.028544667 -0.0082212787 
  566000    257.81019   -24.028639     3048.625    30.189372 0.0018754569 -0.010498249 0.0004868213 
  567000    249.89558    2332.0482     3048.625    32.163801 -0.0028718973 0.0014573219 0.0077286929 
  568000    246.41079    12374.181     3048.625    32.568063 -0.017981494  0.016989858 -0.027906547 
  569000    253.54305     582.2056     3048.625    32.072078  0.031989541 -0.0091738312 0.0028869513 
  570000    257.95816   -894.20363     3048.625    27.147301 -0.013713239 -0.0077986288  -0.01429367 
  571000    254.28746    11654.154     3048.625     23.43745  0.010856461 -0.024826967 -0.012048444 
  572000     256.3346   -1723.8985     3048.625    27.539043  0.014057283  0.021384602 -0.0070992235 
  573000    244.87099    2474.5573     3048.625    34.944913 -0.0010369572   -0.0137912 -0.027792278 
  574000     247.7854    10220.265     3048.625    34.295342 -0.032867788 -0.024982466 -0.011411842 
  575000    245.44441    3789.9053     3048.625    27.858647 -0.019016783 0.0036119181 -0.0086408883 
  576000    254.04644   -795.79486     3048.625     24.90544 0.00032577185  0.017783688 -0.029324261 
  577000    239.23401    9297.3767     3048.625    28.390291 -0.020034525 -0.00058646779 0.0017477571 
  578000    258.21391    5735.9148     3048.625    29.291813 -0.013163544  0.009109114 -0.011367021 
  579000    247.14719   -61.380954     3048.625    24.561447  0.043221184 0.0030752851  0.019613806 
  580000    253.01665    3041.9958     3048.625    23.692314  0.015792862 -0.0060517897 -0.012056115 
  581000     249.3092    1690.9039     3048.625    29.551381 -0.015675039 -0.028371605  0.022533995 
  582000    241.04463    313.20198     3048.625    32.526098 -0.017435218 0.0034186503 -0.0054777891 
  583000    249.61799      8979.69     3048.625    28.107662 0.0099043412 -0.001848761  0.015284333 
  584000     242.7595    5388.8652     3048.625     23.74884 -0.0014482725 -0.021974866  0.018052468 
  585000    231.59267    2359.9116     3048.625     26.27463 -0.011541271 -0.0057042268 0.0036307648 
  586000    242.69113    10053.628     3048.625    32.334643 -0.018424252  0.009824936  -0.01482129 
  587000    257.17866     4144.921     3048.625    34.569752 -0.0046750581  0.030359673 -0.00023641101 
  588000    255.28518    980.25668     3048.625    29.365111  0.024020997 0.0068120735 -0.019198085 
  589000    246.61019     12206.85     3048.625    23.371612 -0.018050204  0.020397398 0.0050758847 
  590000    267.55723    5652.6043     3048.625    20.032706  0.016650991  0.011305412 0.0098480447 
  591000    254.18299   -1131.5589     3048.625    23.590741  0.015392076 -0.025988306 -0.016306169 
  592000    258.43825    6504.2563     3048.625    28.778792  0.024519058 0.00047275449 0.0065755855 
  593000     244.6101    8345.4337     3048.625     27.80901  0.011974979  0.023936299  0.022971721 
  594000    240.93914   -1460.2174     3048.625    23.129274  0.026458857   0.01247198 0.0017366451 
  595000    225.67594    10477.153     3048.625    22.382264 -0.012016487  0.031563754 -0.021001456 
  596000    256.96424    6825.6042     3048.625     26.14736 -0.010759299 -0.0020256587 -0.0076967621 
  597000    246.41923    1274.3285     3048.625    27.088103 -0.020904003 -0.020491261 -0.020747304 
  598000    253.88723    4955.1644     3048.625    24.877503 -0.00037744108  0.012795275  0.010210256 
  599000    241.58677    8118.9744     3048.625    24.922795 -0.012709722 0.0021326043 0.00060794622 
  600000    239.87405    2401.9161     3048.625    27.094079 -0.019627627 -0.0031259782 -0.0099163255 
  601000    244.40897    9520.8417     3048.625     31.31071   0.01082138 -0.014288678 0.0066377996 
  602000    220.80969    12004.357     3048.625    32.183796  0.019119473 -0.011463604 0.0059347794 
  603000    247.97414    1381.9683     3048.625    26.851754 0.0046547895 0.0038350491 -0.00021469775 
  604000    249.75173    2896.4946     3048.625    24.239595  -0.00619069  0.011097684 0.0032431728 
  605000    245.52289    12019.315     3048.625    26.991898   0.01951537 -0.023076825 0.0017991966 
  606000    229.22144    6006.6031     3048.625    29.708088 0.0062154089  0.018417982  0.020525311 
  607000    237.62256    3790.4822     3048.625    28.522772 -0.011858518  0.002235471 -0.011440263 
  608000    254.13487    3541.1539     3048.625    25.792484  0.020107447 0.0052608355 0.00090201552 
  609000    255.52249    4970.4681     3048.625    26.486721  0.037520004 -0.010237329 0.0055596358 
  610000    253.77693    5590.7442     3048.625    29.133579  0.038756562 -0.031194145   0.01197099 
  611000    245.99031    8378.1926     3048.625    32.436053 -0.014517541 -0.020630818 0.0072895493 
  612000    215.84267    10318.277     3048.625    33.518284  0.016634693 -0.025522751 -0.015525861 
  613000    237.30173    15253.048     3048.625    32.446134 -0.0011486639 0.0074413691  0.036921496 
  614000    235.19021    9243.4533     3048.625    32.643241 -0.042610625 -0.015083531 -0.0065284101 
  615000    234.26155    6543.8863     3048.625    32.388774  0.013237423 -0.0012041719 -0.0028381273 
  616000    243.62656    6455.6067     3048.625    30.685872 0.0043186278  0.012922275 -0.015956614 
  617000    244.83874    6630.0256     3048.625    28.345045 -0.0016883828  0.010688672 0.0076671363 
  618000    248.45748    1958.9272     3048.625    26.629312 0.0076344779 -0.0032840933 -0.0030709261 
  619000    231.74155    16554.688     3048.625     24.83507  0.030102809 -0.021800231  0.013163076 
  620000    249.33213   -1493.2426     3048.625    24.749722 -0.044343683 -0.0021094587  0.020033783 
  621000    230.16167    12371.662     3048.625    26.495835 0.0031803792 -0.024725283 0.0029560949 
  622000    240.85734    10559.499     3048.625    28.601574 -0.0038716819  0.011089919 -0.022753076 
  623000    247.28824    4088.8259     3048.625    30.469622  0.021496785  0.014697956 -0.014781827 
  624000    241.94557    11223.691     3048.625    29.867405 -0.013098693 0.0067026489 -0.0068617685 
  625000    234.09801    3644.3696     3048.625    26.977676 -0.039205398 -0.00069252533 -0.014640158 
  626000    248.03204    6312.9534     3048.625     22.71489 -0.018210079   0.00583289   0.03783843 
  627000    255.21645    9154.3204     3048.625    20.090001 -0.013137039 -0.023604276 0.0023721214 
  628000    244.07888    359.32757     3048.625    21.943624 -0.0067333665 -0.0095083567   0.02150608 
  629000    238.45353    12118.826     3048.625    24.197004 -0.040842475 -0.0098764925 -0.019179166 
  630000    229.51099    5700.1054     3048.625    24.210149  0.019769077 -0.017010583  -0.02053244 
  631000    237.20447    8682.1548     3048.625     25.47709 -0.012260424 0.0037657553 -0.0056918748 
  632000    232.49796    9119.1913     3048.625     28.85103  0.020723209  0.015125156 -0.013330657 
  633000    227.41408    8730.6772     3048.625    30.624544 0.0094249366  0.030434064 -0.014246515 
  634000    238.23015    7015.7852     3048.625    27.630511 -0.00018192587  0.017221936 -0.020069472 
  635000    198.76783    8039.4349     3048.625     25.00337 0.0086493491  0.045190712  0.028294783 
  636000    240.80187    7651.4331     3048.625    25.925723   0.03268706  0.024914296  0.033256217 
  637000    261.07854    1445.2407     3048.625    29.010879  0.041588043 -0.0071225794 -0.0072749718 
  638000    235.28262    10427.016     3048.625    31.028396 0.0028996011 -0.0046253121 -0.004154096 
  639000    219.86437    2861.2106     3048.625    31.894921 -0.033674827 -0.0090998845  0.006693968 
  640000    212.62243    10492.592     3048.625    29.807197  0.012085916  0.014919442  0.020664348 
  641000     220.9774    17029.593     3048.625    26.972044  0.010047596 -0.005457289 0.0006762475 
  642000    235.65776    6255.7937     3048.625    24.056218  0.019346545 -0.018124421 0.0061989021 
  643000    248.11529    4492.3609     3048.625    22.735978  0.004878491 -0.0092372516 -0.00017893638 
  644000    234.59745    9469.0929     3048.625    20.771901 -0.0055820172 -0.0048959721 0.0031633698 
  645000    235.95316    8663.2052     3048.625    19.502897  0.041250237 -0.032181274 -0.021474938 
  646000    256.58492    11495.036     3048.625    17.649753 -0.0003051665 -0.011070701 0.0040656458 
  647000    236.31264    4257.6103     3048.625     16.42009 0.0033354062 -0.042109232  0.012692407 
  648000    236.56477    4748.4827     3048.625    15.425751  0.012872966 -0.012927162 -0.0075967424 
  649000    243.86573    12934.955     3048.625    17.603536  0.027882478  -0.05420542  0.033083201 
  650000    237.67488    1724.4707     3048.625    19.825101  0.028380776 -0.022598637  0.017351917 
  651000    242.42365    8418.0204     3048.625    21.758466  0.011833018  -0.01977037 -0.0027493453 
  652000    232.37189    13865.706     3048.625    25.182042 -0.015015454  0.008428926 -0.015777848 
  653000    227.66686   -1178.0659     3048.625    26.620452 -0.0061009618 -0.024786787 -0.010156707 
  654000    232.41357    12364.594     3048.625    24.329728 0.0020972598   0.02515548  0.015944097 
  655000    249.17892    10338.826     3048.625      20.0043 -0.0083801466  0.023559711  0.024874515 
  656000    246.81337    2155.6196     3048.625     17.09246 -0.046022051 -0.0093367324 -0.0074740913 
  657000      247.896     2551.786     3048.625    18.406842 -0.0084736983 -0.0044596194 -0.0005087231 
  658000     233.1336     6780.136     3048.625    21.537847  0.046121424 0.0014815002  0.022079605 
  659000    245.92281    8366.6472     3048.625    25.511138 -0.017277658 -0.0048461724 0.00057202595 
  660000    239.10642    7828.5311     3048.625    26.270163 -0.011589765 -0.017559278 -0.0018893228 
  661000    244.41396    4831.7637     3048.625    25.113337 -0.020134247  0.011438678 -0.010406067 
  662000    257.58286    4833.7643     3048.625    24.447125  0.015057829 -0.0023462124   0.02553545 
  663000    245.88509    9265.4567     3048.625    26.313813  0.013233726  0.037862639 -0.013101525 
  664000    238.34245    9508.6687     3048.625    31.356541  0.026927651 0.0021785779 -0.022945846 
  665000    233.70388    872.68698     3048.625    33.751358   0.01361266 0.0012954327 -0.020616452 
  666000     247.2073    15647.697     3048.625    34.098482 -0.020289002 -0.010244013 -0.034215808 
  667000    224.30681    8631.6188     3048.625    33.021946 -0.022502801 0.0051336594 -0.0081500972 
  668000    216.23923    2942.5451     3048.625    30.581524 -0.016349293 -0.012602626 -0.0029291085 
  669000    216.16414    15846.651     3048.625    30.471885  -0.01248582 -0.0095664564 -0.013534721 
  670000    238.60715     4313.763     3048.625    29.721042  0.022441289  0.010954607 -0.028799838 
  671000    242.98778    1778.6676     3048.625     28.23497 0.0021733554 0.0089964466 0.0096149415 
  672000    222.37799    8053.4855     3048.625    26.990808 -0.00066005184 -0.030905684 -0.028663756 
  673000    235.50861    8404.7316     3048.625     25.30476 -0.0046912224  0.018517612  0.020217218 
  674000    246.33489     6342.236     3048.625    25.624971  0.028758832 -0.048170275 -0.017355053 
  675000    244.83014    8678.8791     3048.625    26.551009  0.010207895 -0.021586007  0.015195649 
  676000    219.15075    7008.4978     3048.625    26.234752  0.015872219 -0.026936473  -0.00540765 
  677000    224.45037    12965.505     3048.625    21.336153 0.00033684504 -0.0011235542  0.012065756 
  678000    212.16566    12207.961     3048.625    18.731273 0.0033875144 -0.0005729084 -0.038832149 
  679000    244.83232    6123.3308     3048.625    21.446999 -0.012748975 0.0022558868 -0.011682674 
  680000    232.91342    9575.1604     3048.625    27.327367 -0.043943901 -0.0078497052 0.0055963206 
  681000    218.44382     10945.36     3048.625    32.675838  0.026330167    0.0238969 -0.020112193 
  682000    248.87893    6894.8229     3048.625    33.302693 -0.011679622 -0.019431655 -0.0075490318 
  683000    243.59876    6443.5951     3048.625    30.124748 0.00022232066  0.013656073  0.016619954 
  684000    246.41381    1445.6654     3048.625    27.657321 -0.013858874  0.032650522 -0.012201446 
  685000    233.19635    10969.124     3048.625    29.472228 0.0046079411  0.012173474  0.049960538 
  686000    245.16085    4939.9398     3048.625    31.623515 -0.0017186847   0.02244979  0.018226788 
  687000    243.44233   -4328.0885     3048.625    32.247991 -0.010987974 -0.024383676 0.0030018709 
  688000    237.12415    18227.323     3048.625    31.473345  0.008781432 0.0033003191 -0.001030791 
  689000    244.22697    11624.006     3048.625    30.993338 0.0078449032  0.018717617 0.0043932314 
  690000    229.76694   -420.82257     3048.625    31.352377  0.020156255 -0.0058749441 0.0048835402 
  691000     245.8974    7289.8227     3048.625    32.621893 0.0063444776 0.0048170085 -0.024561278 
  692000    256.34164    10836.448     3048.625    33.797502 0.0054759539 0.0065603197 -0.021587064 
  693000    250.22981   -5029.5105     3048.625    32.624146 0.0033446314  0.037482302 -0.032776209 
  694000    255.49443    3590.5048     3048.625    27.464748 -0.010968812  0.034646982 0.0064437725 
  695000    248.52632    10257.448     3048.625    22.772216 -0.029718943 -0.011877424 -0.0046200367 
  696000    240.50139   -463.68401     3048.625    23.367539  0.013997368 -0.0040551912 -0.014009361 
  697000    247.11614    8223.3927     3048.625    26.717382  0.002543708 -0.019186378    0.0648171 
  698000    249.45343    828.51136     3048.625    28.883301  -0.01966604  0.011555296 -0.00053126577 
  699000    245.52801    12149.288     3048.625    29.049949 -0.0057115612 -0.0029899923  0.010331771 
  700000    239.23592    5371.3342     3048.625    27.530583 -0.0018441383  0.023352623 -0.0021430662 
  701000     244.4849   -1288.7189     3048.625    25.369442 -0.0095932259  0.014775043 -0.019431917 
  702000    242.94967    11361.913     3048.625    22.286208  -0.02496897  0.018496203 -0.0065432209 
  703000    248.59545    1216.1094     3048.625    22.489221 -0.0022463731 -0.018537896  0.020383137 
  704000    213.49385    10733.178     3048.625    24.531126 0.0016208202  0.039651913 -0.00097240774 
  705000    225.01534    9882.6952     3048.625    26.181425 0.0037891275 -0.027473546  0.027399129 
  706000    234.44999    7645.6707     3048.625    28.146389 0.0017040685  0.022181307  0.032514072 
  707000    214.49023    14345.682     3048.625    31.649009 0.0086026844  0.044755945 -0.0044295427 
  708000    241.23582    2218.2177     3048.625     34.51421 -0.013779059  0.046061366  0.011835278 
  709000    222.50227    9916.3749     3048.625    35.055473  0.015268275   0.01491601 -0.0045905379 
  710000    235.70149    8422.6537     3048.625    31.128259 0.0024897738  0.013217443 -0.00012925221 
  711000    239.06327    6681.1443     3048.625    26.039629  -0.02160315 -0.0089913322 -0.012988436 
  712000    225.29241    11440.442     3048.625     23.49261  0.012403699 0.0050817121 -0.011509573 
  713000    239.69074    6980.0724     3048.625    24.477211    0.0417032 -0.0034158294 -0.0044164359 
  714000    228.57921    3565.8473     3048.625    28.262128 -0.0050521203  0.010736826 -0.014029845 
  715000    225.71369    5984.9028     3048.625    29.091737 -0.0018314753  0.024132424 -0.024609163 
  716000    242.10503    8278.3586     3048.625    28.867952 -0.00043403807   0.03935007 -0.011166041 
  717000    231.15152    12813.678     3048.625    28.921244 -0.010966794 0.0013196341  0.023789259 
  718000     229.9285    3931.9149     3048.625    28.790269  0.015072896 0.00087240195 -0.021301616 
  719000    220.27632    12315.288     3048.625    29.544082 -0.035620764  0.017892532 -0.0014415059 
  720000    219.41341    9770.9306     3048.625    30.713159  0.023745808  0.021919064  0.017194928 
  721000    235.36747    5265.9424     3048.625    31.099341  -0.02085293 -0.0057036081 -0.0085799019 
  722000    243.52016    6180.1242     3048.625    31.026402 -0.019683064  0.024353102  0.000972991 
  723000    241.60282    6952.7247     3048.625    31.329152 -0.0061665519 -0.0073462192 -0.013988159 
  724000    232.68798     4631.342     3048.625    29.350814 -0.037842001  -0.05022097 -0.0068448165 
  725000    212.62701    11660.219     3048.625    25.704161 -0.041734418  0.032125216 -0.022694059 
  726000    218.50432    14783.071     3048.625    21.981556 -0.037822036 0.0028063628 -0.00067751538 
  727000    210.83685   -929.31184     3048.625    20.238011 -0.024492698  0.020239287  0.012115004 
  728000    235.79141    14847.927     3048.625    22.773249 -0.0050700324  0.022099317 -0.018497043 
  729000    215.56327    12985.029     3048.625    28.142051 -0.0053886361 -0.012671433 0.0010055014 
  730000    231.27752    2083.6596     3048.625      30.4199 -0.0098547731 -0.010465901 -0.024102403 
  731000    231.06667    11946.978     3048.625    26.873535 0.0096337593 0.0041107366 -0.00027602896 
  732000    232.20881    8065.5278     3048.625    21.924972 0.0076513304  0.011083045   0.01304313 
  733000    220.99226    6023.7536     3048.625    21.512735 -0.0010739848 -0.013729238 -0.0075629651 
  734000    223.64146     18528.89     3048.625    23.524286  0.012335241 -0.049651987 -0.017739597 
  735000    231.67883   -5605.3051     3048.625    24.992136 -0.023990665 -0.0099518409 0.0098745404 
  736000    251.27543    12693.715     3048.625    26.596879  0.010000186  0.002126128  0.016147264 
  737000    247.51199    10606.269     3048.625    25.536181 -0.021602522  0.025334416  0.010376076 
  738000    231.85595    1109.3883     3048.625    23.716862 -0.0044679298 -0.049137627 0.0096926892 
  739000    234.24783    10516.364     3048.625    22.737173 0.0062361621 -0.017966246 0.0011318886 
  740000    213.32096    10399.983     3048.625    23.228558  -0.01049001 -0.021403327   0.02229998 
  741000    217.74473    7278.5324     3048.625    23.869176 -0.010562001 0.0066628912   0.02244661 
  742000    243.39022    5271.8949     3048.625    23.164704 -0.010190962 -0.0023434042   0.02237706 
  743000    230.34052    6197.2237     3048.625    22.162052 -0.013644566 -0.009057637  0.016619314 
  744000     254.6146    8327.0561     3048.625    22.841383   -0.0188505 -0.010101031 -0.023450392 
  745000    239.95358    6733.1819     3048.625    25.110171 -0.0018869875 0.0052515196  0.017149811 
  746000    240.69935    8455.6005     3048.625    25.959796 -0.013717361 -0.018576791 -0.032202763 
  747000    240.66654    7286.8633     3048.625    26.915451 0.0021361821 0.0048701142 -0.0059866627 
  748000    223.65071    9339.9795     3048.625    28.415616  0.013967782  0.010172119  -0.02572114 
  749000    210.94781     9070.103     3048.625    29.595559  0.044207225 -0.0027441039    0.0042117 
  750000    218.45459    5182.5536     3048.625     31.56851  0.026871663 -0.021855007 -0.0016047076 
  751000    221.57644    10362.999     3048.625    31.751238 -0.050942731 0.0010012957  -0.01838934 
  752000    243.03768    10828.001     3048.625    28.761315  0.010021414  0.029191514  -0.01074114 
  753000    223.80334   -4403.3066     3048.625    27.188198 0.0063661388 -0.0014311856 -0.0087090948 
  754000    247.85921    9346.6584     3048.625      28.3155  0.017613497  0.017557285  0.033380986 
  755000    248.60107     7987.052     3048.625    30.255705  0.022664604 0.0003942433 -0.047479622 
  756000    251.22937    1788.4739     3048.625    29.834307 -0.011708537  0.014906648 -0.011579059 
  757000    232.76256    5750.3962     3048.625    28.168495  0.034325268 -0.036527064  0.022911402 
  758000    228.89656    16464.069     3048.625     28.41091   0.00616428 0.0061001935  0.016110432 
  759000    230.07958    11336.435     3048.625    31.738991  0.016948653  0.014837551 0.0071911478 
  760000    214.29137    8564.9128     3048.625    35.039577 -0.0070606602 -0.0094434862  -0.01635383 
  761000    229.76776    5581.5638     3048.625    35.887937  0.011217617  0.044992379    0.0119202 
  762000    234.85682    3907.2164     3048.625    36.206506 -0.0006182668  0.041126535 0.0093807221 
  763000    234.63534    8169.0135     3048.625    35.013594  0.023692573  0.013948756  0.035952672 
  764000    230.86268    5116.3048     3048.625    33.769106 -0.0018767828  0.028860771 -0.011852504 
  765000    242.27068    5778.0272     3048.625    33.970712  0.015201584 -0.012517856  0.012668156 
  766000    243.40245    1914.6697     3048.625    33.794391 -0.001417143 -0.0090534149  0.010116882 
  767000    248.76446    3937.2773     3048.625    33.223291 -0.025776864 -0.034124223 -0.020510057 
  768000    236.25576    6685.6904     3048.625    32.571269 0.0013653049 0.0038323028 -0.0070513221 
  769000    245.27561    6507.9615     3048.625    34.392808 -0.00028815596  -0.01870627 0.0071848753 
  770000    243.68072    4883.9089     3048.625    35.742255   -0.0442937  0.023261262 -0.0094013669 
  771000    225.92182    5218.0425     3048.625    34.024197 -0.025811524 -0.018780672  0.024038271 
  772000    231.81452    5817.8479     3048.625    28.506052 0.0036240656 -0.010826584 0.0047578501 
  773000     236.2997    3698.3682     3048.625     22.71655 -0.0037845929  0.001773801 -0.012927101 
  774000    228.79082    4227.6156     3048.625    21.603058  0.010947853   0.01113807 -0.0011419335 
  775000    244.22302    6871.3374     3048.625    23.787915 -0.0056721537 -0.00058426736  0.020718601 
  776000    237.70177    13313.472     3048.625    27.993452 0.0030152933 -0.002361852 0.0023209832 
  777000    238.26677    2773.6521     3048.625     30.06333  -0.02633217 -0.0023736172 -0.027499935 
  778000      248.869    464.33273     3048.625    27.122818 -0.0090540504 0.0069428883 -0.039048182 
  779000     228.3922    13763.907     3048.625     21.86618  0.021574193 -0.021688663  0.013820682 
  780000    241.42422    2937.4349     3048.625    19.487168  0.010492807  0.017480245 -0.022172943 
  781000    245.13047    805.16702     3048.625    20.670857  0.025084997  0.013532216 0.0096545082 
  782000    236.45062    10420.557     3048.625    25.553958  0.005541633 -0.0053745119 0.0071010989 
  783000    237.02392    58.233974     3048.625    29.035386  0.028622056  0.011273013 0.0028681898 
  784000    233.25132   -1140.7679     3048.625    29.368129 -0.027468086 -0.012017513 0.0049836189 
  785000     241.4268     9807.478     3048.625    28.531337 -0.0042678787 -0.013337971 -0.014662054 
  786000    248.07917    8176.4757     3048.625    27.262971 0.0013079975  0.005823095 -0.0055582464 
  787000    227.12363   -663.03721     3048.625    29.031754 -0.0063597352 -0.011297844 -0.0017418686 
  788000    246.30066    6832.9218     3048.625    31.703808 -0.0023014512 -0.0058239484 -0.026857694 
  789000    230.98185    2981.0416     3048.625    32.168255 0.0052608988 -0.0019640903 0.0057135814 
  790000     248.3912    4075.1215     3048.625    29.401779  0.013118093   0.03977882  0.023063692 
  791000    239.25005    3870.2773     3048.625    29.587355 -0.007751135 0.0053041355 -0.022993462 
  792000    237.05252    6650.7313     3048.625    30.378046 0.00071875589  -0.00758905 -0.030833728 
  793000    241.07595    6641.8284     3048.625    29.834018 0.0016549629 -0.0051831285 0.0047472776 
  794000    233.68438    550.17582     3048.625      31.0302   0.00653732 0.0083641451  0.016095701 
  795000    239.83356    8942.8758     3048.625    32.667318 -0.014952215 0.0014325034 -0.020912933 
  796000    245.01343    6612.7779     3048.625    33.679993 -0.010758491 -0.040831626 -0.0085802173 
  797000    237.61775    10525.435     3048.625    33.540487  0.015628928 0.0024434151  0.035920893 
  798000    250.24235    3127.3609     3048.625    32.195918 -0.0093590904  0.026382617 0.0044039745 
  799000    251.64242    2121.9144     3048.625    29.144803 -0.0037721937 -0.012919245 -0.0012757227 
  800000    258.87047     4849.437     3048.625    26.582635 -0.020146789  0.016435042 -0.0097157775 
  801000    237.87712    8036.5225     3048.625     25.34782  -0.04039795   0.05069459 -0.019624301 
  802000    237.06798    3977.5649     3048.625    26.974072 -0.0083696447 -0.011886186  0.001886626 
  803000    228.23843    5151.6156     3048.625    29.082606 -0.018083833 0.0037171908  0.026221594 
  804000    237.52028    1311.6671     3048.625    28.074737 -0.0010286363  0.023780056 0.0069123628 
  805000    236.69311    11968.558     3048.625    25.959066 -0.0044496759 0.0013424084 -0.0078231985 
  806000    247.81489    1441.9155     3048.625    23.402522 -0.0037930653 -0.0065614974 0.0060834118 
  807000    234.32762    1005.9682     3048.625     23.27574  0.017805628 0.00081516739 -0.013848729 
  808000    242.24581    13172.702     3048.625    26.097377  -0.01296771 0.0083902937  0.029178566 
  809000    236.68154    2967.1644     3048.625    28.432205 -0.039620725 -0.0070243235 0.0022963012 
  810000    230.08276    3926.0623     3048.625    28.808101 -0.0090384905 0.0010402785 -0.0094785626 
  811000    248.11322    8340.3905     3048.625    27.815072 0.00032859461 -0.036315078 -0.024369937 
  812000     246.8671    6038.7839     3048.625    27.556776 0.0071752567 -0.010807234 -0.015976564 
  813000    246.91104    3370.7597     3048.625    27.913385  0.010248822  0.041938001  0.013526451 
  814000    243.79779    3858.5406     3048.625    27.284125   -0.0167139 0.0058965425 0.00030781498 
  815000    231.77309    6343.0773     3048.625    26.122895 0.0028768795 9.2718046e-05 -0.021768509 
  816000    242.77643    7583.7584     3048.625    25.353667  0.023954796 -0.014638938 -0.013271069 
  817000    231.06867    576.21366     3048.625    27.731512 -0.0091896606 0.0096627418 -0.029316801 
  818000    238.57246    11410.863     3048.625    30.169948  0.016605329  0.016496079   -0.0138596 
  819000    234.02101    6394.4576     3048.625    31.608462 0.0044624219 0.0017031154 -0.011322266 
  820000    244.74006    5524.5093     3048.625    29.837237 0.00082418803 0.0058368252 -0.011090723 
  821000    246.83843    3039.0319     3048.625    26.161862  0.016835431 -0.024782848 0.0042529961 
  822000    233.70131    8847.8715     3048.625    22.759329  0.015622962 -0.020386703  0.021201676 
  823000    245.49813    8861.9403     3048.625    22.711339 -0.0049792011  0.024134101 0.0011947664 
  824000     223.9014    2975.6262     3048.625    26.594207 0.0045488546  0.016503996 -0.016302895 
  825000     220.0531    7397.3914     3048.625    29.297463 -0.020306756 -0.0022560601 -0.015040997 
  826000    228.23213     13169.19     3048.625    28.636493  0.028994732 -0.017902396 -0.010882497 
  827000     239.7727     1338.661     3048.625    27.147401 0.00059575209 -0.0064494194 -0.0097262932 
  828000    255.42944   -204.86237     3048.625    29.042952 -0.026075976 -0.00037305457 -0.017565781 
  829000    245.57589    8945.4746     3048.625     31.65673 -0.029928471 -0.039439168 0.0046957658 
  830000    240.09654    2440.0782     3048.625    31.581463 -0.032370637 -0.027542307 -0.00040252958 
  831000    236.99556    2080.5829     3048.625    27.491738 0.0085086799  0.004905033  0.019729082 
  832000    236.89776    10017.901     3048.625     26.25288 0.0071163077  0.015443539 -0.026758975 
  833000    254.70861    8537.3491     3048.625      28.9876 0.00033185702 0.0044812514 0.0063038986 
  834000     261.2129   -3615.3447     3048.625    32.404508 0.0076328639 -0.0053134002  0.012560061 
  835000    242.90351    5178.5768     3048.625    32.800406  0.029001489 -0.0090783017 0.0028494207 
  836000    240.53234    11083.554     3048.625    31.221294 0.0029326538 -0.0066058738 0.0070293206 
  837000    243.42281    188.00222     3048.625    31.101975  0.029495581  0.012879124 0.0063205506 
  838000    246.57335    5472.7438     3048.625    31.799074  0.008312179 -0.034978025 -0.027089456 
  839000    240.15296    13538.404     3048.625    29.905352 -0.029597609  0.010948606  0.013346561 
  840000    251.75777    3555.6733     3048.625    26.147867 -0.0074501047 0.0019923767  0.024690697 
  841000    250.61689   -2824.5566     3048.625    25.257065 0.0078906489 -0.010340856 -0.034086148 
  842000    254.23883    8002.6608     3048.625    29.460911  0.010378489  0.010305472 0.00077458485 
  843000    233.71039    6624.4009     3048.625    31.699776  0.041249281 -0.015645832  0.015740872 
  844000    250.05561    383.64038     3048.625    28.430668  0.006620694 0.0072235798  0.019342319 
  845000    244.23625    6306.4549     3048.625    24.744987  0.017842581 0.0070831502 -0.008225287 
  846000    229.58563    5014.6524     3048.625    23.730632 -0.0034598277 -0.022434596  0.012300737 
  847000    237.61119    9815.2052     3048.625    25.265757 0.0060198914 -0.00086292558 -0.00062026993 
  848000    238.28751   -335.39632     3048.625     29.88865  0.020212065  0.013719809 0.0030408053 
  849000    244.01247    1232.2915     3048.625    33.752151  0.013927345 -0.0052197778 -0.0019963075 
  850000    243.83696    5341.0725     3048.625    33.045153 0.0014580765  -0.01287493 -0.013007381 
  851000     251.5555    5608.6759     3048.625    27.142503 -0.032776167 0.0070688908 -0.022779764 
  852000    241.44379    2191.1943     3048.625    23.129846  0.021694893  -0.01806536 -0.0045298114 
  853000    237.13618    5206.3875     3048.625    26.180986  0.054606202  0.018954854 -0.011569625 
  854000    251.95749    4568.5108     3048.625    32.960693 -0.018835665 0.0083425879  0.011412921 
  855000    227.54729    3340.1618     3048.625    34.683188 -0.015857449  0.014917129 -0.0099195713 
  856000    236.97124    5550.6387     3048.625    30.878479  0.039035192 0.00075403368 -0.007799699 
  857000    249.55665     3818.083     3048.625    27.549295 0.0087917376 0.0049827987 -0.0016944686 
  858000     246.9288    1052.1893     3048.625    28.409507  0.019273869  0.020928066  0.008602112 
  859000    230.77116    10193.703     3048.625    30.053504 -0.007157787 -0.016404142 -0.020674436 
  860000    246.05875    3232.8561     3048.625    29.921798 -0.0095189813 -0.012737054  0.011703734 
  861000    265.69769    432.62813     3048.625    28.075283 0.0072824659 -0.007174084  0.027129912 
  862000    245.90435    11243.842     3048.625    26.160624  0.030831758 0.0065019814 -0.0069267608 
  863000     253.5326    3033.0296     3048.625    28.409271 -0.0034403372  0.030270081  -0.02117038 
  864000    242.85028    1358.7209     3048.625    33.043062 -0.0070196834 -0.0027056586 -0.042968176 
  865000    230.37334    7189.9777     3048.625    34.221428 -0.0022786174  0.031911753 -0.028663361 
  866000    260.63799    5298.5547     3048.625      31.4572 -0.012360006  0.043390462 -0.0074019986 
  867000    233.18075   -1077.9672     3048.625    26.638441  0.014512795 -0.0021866709  0.021150082 
  868000    236.93145    761.12217     3048.625    25.008227  0.016349016 -0.015177987  0.019196394 
  869000    254.78871    9769.7875     3048.625    29.220506 -0.034163115 -0.0081146561 0.0021059015 
  870000    251.55407    11223.047     3048.625    34.607012  0.029398599  0.023678752 0.0019449886 
  871000     244.4709    7321.5538     3048.625    33.798412 -0.0038226321  0.011972798 -0.0045698644 
  872000    243.76231     1864.954     3048.625    26.859616  0.016075274 -0.00062031329 -0.018878061 
  873000    250.84454    -4080.393     3048.625    20.240752 -0.0050821597 -0.041871571 -0.030260734 
  874000    248.37331    11522.646     3048.625    20.714344 -0.0019852735 -0.0029449608 -0.0045015349 
  875000    246.24429    13606.949     3048.625    26.024448 0.00053066217 -0.024768662 -0.0056002289 
  876000    261.03969   -384.51931     3048.625    30.163032 0.0046492064 -0.019201895 -0.034053731 
  877000    237.90465    6503.2045     3048.625    28.441544  0.043399369 0.00045374726 -0.0052330597 
  878000    254.26556    1552.8888     3048.625    26.594055  0.028775631 -0.035458682  0.010987421 
  879000    237.42341    2681.2338     3048.625    27.978957 -0.046890283 -0.042203108 -0.00042703999 
  880000    246.92357     7355.296     3048.625    31.061527 -0.004022835 0.0012921542 0.0086583734 
  881000    247.62561    2325.6881     3048.625    33.431552 0.0012082848  0.010845787  0.022571664 
  882000    245.49818   -2545.8804     3048.625    31.516415  0.035264169  0.043880144 0.0030532333 
  883000    239.45058    7151.6805     3048.625    28.328019  0.024227468  0.037251089 -0.018070079 
  884000    236.23613    8660.6408     3048.625    28.511545 0.0001860281 0.0058701241  0.018542103 
  885000    236.47624    3171.0385     3048.625    31.336556 0.0062895094  0.033556985 0.0056036267 
  886000    227.44917    7435.5083     3048.625     33.17548  0.017702081 0.0029265552 0.0051532371 
  887000     239.2401     8691.481     3048.625    32.576629 0.0075216852 0.0033735197  0.017907068 
  888000    230.65517    5752.5891     3048.625    30.973001 0.0037145446 -0.030266095  0.033971329 
  889000    251.34196   -2710.6095     3048.625     30.17329 -0.0093701088  0.051142088 0.0047683485 
  890000    246.38033    3404.5676     3048.625    30.925938 0.0096953539  0.016955044 -0.022313267 
  891000    248.02077    11481.138     3048.625    31.916243  -0.01828361  0.026631849 -0.036104092 
  892000    250.01507    6774.3346     3048.625     33.79756  0.013785033 -0.027527608 -0.020038747 
  893000    249.32014   -5309.4715     3048.625    35.627068  0.010186487 0.0038182324  0.020850538 
  894000    240.28675    2672.4608     3048.625    33.229545 0.0031229193 -0.0080461335 -0.0062068082 
  895000    233.51249    10204.022     3048.625    28.989647 -0.00023220542  0.007771448  0.014516861 
  896000    233.95512    4971.0947     3048.625    27.489452   0.02325035  0.033282817 0.0013033947 
  897000    236.50559    2018.7381     3048.625     28.90588  0.024543992 -0.010599538 -0.00084503271 
  898000    245.30211    4617.2954     3048.625    30.739893  0.019157283 0.0096959027 -0.0006244427 
  899000     233.3842    6797.1716     3048.625    29.188056 -0.0020566379 -0.0055070587 0.0017857796 
  900000    243.98363    3551.6876     3048.625    25.524657  0.024289729 -0.00068447941 -0.014805005 
  901000     227.9498    1404.9848     3048.625    21.853634 -0.036922162  0.027952603 -0.041809106 
  902000    244.99219    7519.0741     3048.625    21.554389 0.00025878923 -0.011966371  -0.01066306 
  903000    234.16775    5834.5875     3048.625    25.035735  0.001418009 -0.0044355344 -0.016774497 
  904000    234.54396    6021.7196     3048.625     28.41881 -0.0077111413  -0.04566992  -0.02308549 
  905000     226.7629    5447.0407     3048.625     29.43944  0.036815978 -0.017166468 -0.0089370657 
  906000    239.22021    4803.4762     3048.625    30.163276 0.0081196313 -0.0046730197   0.02947465 
  907000    255.42688    2009.9535     3048.625    30.877657  -0.02087104 0.0015723692 -0.018265927 
  908000    236.78504     9579.992     3048.625    29.690728  0.039615472  0.026926402 -0.0051251177 
  909000    220.47691    12089.853     3048.625    28.078652  0.019262771 -0.0045386881 0.0056636714 
  910000    243.31464    3054.5923     3048.625    26.679284 0.0052738326  -0.02181858 -0.008288228 
  911000    259.75877    457.98195     3048.625     25.15512 -0.0054714002 -0.017224376  0.013550854 
  912000    258.54216    8721.0381     3048.625    26.543144 -0.0060959687 -0.014024725  0.025177333 
  913000    237.77258    5300.5571     3048.625    25.746364 -0.0062350386 -0.008347447 0.0056623729 
  914000    235.47032     4545.713     3048.625    22.892539  0.023082608 0.0052666799 -0.0098247814 
  915000    221.55639    9449.4793     3048.625    21.541739 -0.0033161209  0.035602123  0.028407642 
  916000    226.68772    3010.1083     3048.625    22.118526 0.0043047737  -0.01007135  0.019821455 
  917000    238.18238    5188.5543     3048.625    25.469502 -0.0099093771 0.0058404497 -0.020688043 
  918000    240.34757    9019.1848     3048.625    28.397633 -0.0098128202 0.0016567697 -0.0051868745 
  919000    240.24283   -1400.2394     3048.625    30.894927 -0.013151946   0.01426368 -0.0064460853 
  920000    221.37482    4826.8036     3048.625    31.694328 -0.0044871303 -0.0030028772 -0.029836008 
  921000    223.62062    13021.781     3048.625    30.343464 0.00020291322 -0.003696312 0.0078144216 
  922000    208.36676    7295.5632     3048.625    27.151732  0.024102549 1.3673141e-06   0.01027537 
  923000      229.211    8778.0668     3048.625    26.027993  0.022063071 0.0023884738  0.024317538 
  924000    243.12657    4123.5092     3048.625    25.327256  0.024865532 -0.0055162108  0.033428872 
  925000     220.6986    7121.1709     3048.625    25.900896 -0.020372504  0.015791764 0.00076509018 
  926000    233.92447    8521.6798     3048.625    25.539291  0.044243532 0.0068272412  0.014079688 
  927000    262.19449    6582.7829     3048.625    25.927506 -0.016519693  0.013715859  0.018422509 
  928000    239.07398    4590.6039     3048.625     26.26658  0.012386369  0.039019044  0.014302261 
  929000    224.43002    12636.255     3048.625    28.613845 -0.0069914802 -0.0055325201 -0.0023588906 
  930000    241.31381     10786.95     3048.625    29.989928  0.024435291  0.014988551 -0.023127667 
  931000    237.78658    2859.5049     3048.625    31.017612 -0.010186942 0.0019456865 -0.004779867 
  932000    239.13507    4106.3775     3048.625    32.202189  0.024162877 -0.040242385 -0.0019283808 
  933000    218.27488    5450.1311     3048.625    32.523392 -0.0044969156  0.018571551 -0.0023059728 
  934000    238.45833    8098.5532     3048.625    30.868739  0.021371773  0.012342462 -0.0022177555 
  935000    247.80071    5539.3334     3048.625    27.613271  0.021616687 -0.058380915 0.00080319728 
  936000    232.37337    1350.8957     3048.625    25.909097 -0.002412806 -0.0047259571  0.028554194 
  937000    221.99901    8915.4995     3048.625    24.917238  0.015020103  0.026889536 -0.0022954053 
  938000    225.15991    6678.2079     3048.625    24.095602 -0.0092171529 -0.038091638 -0.016315996 
  939000    224.75254     1611.558     3048.625    23.750197   0.01388494 0.0098363334 -0.0019587933 
  940000    217.93971     19175.92     3048.625    25.110947  0.041881019 -0.0053526547  0.010518363 
  941000     226.2238    1204.3992     3048.625     27.38542   0.02336009 -0.023373291  0.031796466 
  942000    224.43793    10312.673     3048.625    27.948552 -0.008523404  0.045662014 -0.0083099552 
  943000    218.64567    6524.9821     3048.625    28.421007 -0.020552118 -0.020621728  0.030888793 
  944000    213.58944    2958.4367     3048.625     29.09433  0.020252754 -0.028782291 -0.016931887 
  945000    222.90768    8240.3464     3048.625    29.006127  0.010177685 0.0010536375  0.015718752 
  946000     242.1161    11297.146     3048.625    27.300801   0.01515551  -0.02276532  0.019659379 
  947000    226.52102    3824.9633     3048.625    25.928669 -0.020849975 -0.0093505569   0.02850864 
  948000    231.00494    6550.5002     3048.625    26.351609    -0.022147  0.028813148 0.0011566616 
  949000     229.7048     6053.647     3048.625    25.835778 0.0041804059 -0.0028301922 0.0069854812 
  950000    244.42095    4741.4575     3048.625     26.73998 -0.0070550458  0.029786737 -0.0052293861 
  951000    231.84311    6170.4945     3048.625    28.675092  0.011323246  0.014672785 -0.028111957 
  952000    262.03791    5839.1677     3048.625    29.672416 0.00086763409 -0.018835686 -0.030206536 
  953000    239.82937    8911.4396     3048.625    31.024488 0.0080258587 -0.0031303876 0.0085535304 
  954000    238.57486    4724.6413     3048.625     33.28428  0.020109948   0.01481406 -0.0027609957 
  955000    223.33356    7040.5065     3048.625    34.813409 -0.015134362  0.005989723  0.023466044 
  956000    231.04085    6559.9271     3048.625    34.311311  0.000615239 -0.007625106  0.021947408 
  957000    235.10692    2641.2131     3048.625    33.707107 0.0025904847 -0.012170895 -0.012756024 
  958000    236.38367    9026.0037     3048.625    31.551679  0.030459014 0.0067947783 -0.0057222298 
  959000    230.92415    7898.7337     3048.625    29.788174 -0.00071304973 -0.0030201251 -0.015822392 
  960000    233.57447    902.55391     3048.625    26.670171  0.013988915  0.027199695 -0.027606952 
  961000    221.09339      9675.82     3048.625    26.050179 -0.023326901  0.001247713 -0.0019427725 
  962000    232.28581    4669.1832     3048.625    29.445706 -0.0057147222 0.00090051938   0.01966519 
  963000    233.25539    10956.696     3048.625    32.808422   -0.0189753  0.029499896  0.027849742 
  964000    227.87476    10207.865     3048.625    34.439661  -0.01676643 -0.031601358  0.011432333 
  965000    229.35269     2421.759     3048.625     34.79685 -0.014842186  0.010697762 0.0057172923 
  966000    242.51719    7326.9553     3048.625    34.867061 -0.0053122275 -0.022214511   0.01596591 
  967000    246.84182     7151.483     3048.625    34.259677  0.022105536 -0.031148822 -0.023562409 
  968000    237.12026    5281.7487     3048.625     34.45495  0.046790686 -0.018746181  -0.05929186 
  969000    237.79928      6362.83     3048.625    35.204409 -0.014772529 -0.045860367 -0.012744886 
  970000    226.44332    4700.6192     3048.625    35.832449 -0.0092183002 0.0020091684  0.013559992 
  971000     242.0784    5027.4547     3048.625    36.122397 -0.0068720202 -0.025122664 0.0026050577 
  972000    236.66134    2116.6877     3048.625    35.304911  0.039629939 -0.017974066 0.0079071803 
  973000    242.33496    1869.2463     3048.625    32.607066 -0.0017913816 -0.045814389  -0.01642072 
  974000    248.80946    10635.623     3048.625    31.089316  0.021497612 -0.002988492 -0.024000697 
  975000    244.23335    7859.1184     3048.625    30.602718  0.006308966  0.019797703 -0.0066778351 
  976000    227.85869    255.04652     3048.625    29.029445 -0.0095860978 0.0063199141 -0.00074109045 
  977000    226.14735    5093.0735     3048.625    26.566013  0.033811231 0.0039756028  0.012905645 
  978000    222.13207     14353.79     3048.625    26.573719 -0.00027123889 0.0040074811  0.019765783 
  979000    234.77996    3624.2754     3048.625    27.903457  0.014468404  0.010709488   0.04598574 
  980000    240.22334   -2426.4072     3048.625    29.897053  0.044812292 -0.014449522 -0.0065687915 
  981000    247.81266    6003.2696     3048.625    30.812519  0.015628512 0.00038069188 0.0087190999 
  982000    221.29509    5402.9133     3048.625    31.003193 -0.030938765  0.030643958 0.0031017382 
  983000    219.09091      3057.83     3048.625    31.593676 -0.017111142 -0.0013414721  0.036572685 
  984000    219.27198    7474.9785     3048.625    31.095619 -0.013898774 0.0064727737 0.0015335481 
  985000    217.56185     4280.486     3048.625     29.30979 -0.0048749955 -0.031067453 -0.0047363572 
  986000    219.60324    4150.6473     3048.625    27.902618 0.0075588201  0.017790888   -0.0378216 
  987000    221.73548    7436.0781     3048.625    26.326508  0.014886554 -0.020660211 -0.0031606775 
  988000    234.64978    3046.4511     3048.625    25.690539  0.040039522   0.01719966 0.0091345583 
  989000    235.45244    3236.6698     3048.625    23.908121  0.027980758  0.044146537 -0.021394263 
  990000     228.8636    7167.8314     3048.625    22.080082  -0.02781784  0.029157407  0.019866998 
  991000     238.3261    11373.836     3048.625     21.51792 -0.010948548  0.020484726  0.048195924 
  992000    231.73829   -2594.6837     3048.625    22.504236 -0.019909827  0.015405427 -0.0084147116 
  993000    238.14788    4482.8011     3048.625    24.552772 -0.009860728 -0.022150587 0.0015088965 
  994000    238.16952    9723.0808     3048.625    27.452785 0.0092463052 -0.0051332753   0.01331247 
  995000     234.9625    8897.6329     3048.625    30.552553 -0.0098302948 -0.013060739 0.0042332526 
  996000     237.2163     6180.665     3048.625    31.618005  -0.01914216 -0.0053489039 -0.0025854572 
  997000     233.2919    7192.8719     3048.625    32.433549 -0.031008493 -0.033165523  0.024395885 
  998000    228.04841    6453.3294     3048.625     33.01385 -0.020206608 -0.015726164 -0.027951419 
  999000    222.64649    6049.6898     3048.625    32.324281 0.0021638498 -0.0049879135 -0.0022724867 
 1000000    223.36687    5003.6138     3048.625    29.782403 -0.015344336 -0.021515167 0.0079718403 
Loop time of 11219.8 on 1 procs for 1000000 steps with 240 atoms

Pair  time (%) = 11075 (98.7095)
Bond  time (%) = 0.280393 (0.00249909)
Neigh time (%) = 48.2058 (0.429649)
Comm  time (%) = 30.0049 (0.267429)
Outpt time (%) = 0.212156 (0.00189091)
Other time (%) = 66.0848 (0.589002)

Nlocal:    240 ave 240 max 240 min
Histogram: 1 0 0 0 0 0 0 0 0 0
Nghost:    5847 ave 5847 max 5847 min
Histogram: 1 0 0 0 0 0 0 0 0 0
Neighs:    87912 ave 87912 max 87912 min
Histogram: 1 0 0 0 0 0 0 0 0 0
FullNghs:  175824 ave 175824 max 175824 min
Histogram: 1 0 0 0 0 0 0 0 0 0

Total # of neighbors = 175824
Ave neighs/atom = 732.6
Ave special neighs/atom = 0
Neighbor list builds = 6821
Dangerous builds = 0
#	run			10000
	unfix			1
	uncompute		myKE
	uncompute		myPE
	uncompute		myStress
	uncompute		flux
	uncompute		myDis
	unfix			JJ

	next seed
	next iseed
jump lmp.in.gk loop_seed
variable iseed loop 10
variable seed index 11111 22222 33333 44444 55555 66666 77777 88888 99999 11110
clear
###########################################################################
#x0
###########################################################################
units 			metal
atom_style		full
read_data		fort.26.nonbonded
  0 = max bonds/atom
  0 = max angles/atom
  0 = max dihedrals/atom
  triclinic box = (0 0 0) to (14.5 14.5 14.5) with tilt (0 0 0)
  1 by 1 by 1 MPI processor grid
  240 atoms
  0 bonds
  0 angles
  0 dihedrals
  0 = max # of 1-2 neighbors
  0 = max # of 1-3 neighbors
  0 = max # of 1-4 neighbors
  1 = max # of special neighbors
group         		C type = 1
60 atoms in group C
###########################################################################
#OLPS
###########################################################################

################################################################################
#### Pair potentials
################################################################################
pair_style hybrid/overlay tersoff lj/cut 12.0
pair_coeff * * tersoff C.4.tersoff 1 2 3 4
pair_coeff 1 2 lj/cut 0.0007000000 3.5500000000
pair_coeff 1 3 lj/cut 0.0007000000 3.5500000000
pair_coeff 1 4 lj/cut 0.0007000000 3.5500000000
pair_coeff 2 3 lj/cut 0.0007000000 3.5500000000
pair_coeff 2 4 lj/cut 0.0007000000 3.5500000000
pair_coeff 3 4 lj/cut 0.0007000000 3.5500000000
special_bonds lj 0.0 0.0 0.0 coul 0.0 0.0 0.0

#pair_style tersoff
#pair_coeff * * C.4.tersoff 1 2 3 4

#pair_style lj/cut 12.0
#pair_coeff 1 1 0.0700000000 3.5500000000
#special_bonds lj 0.0 0.0 0.0 coul 0.0 0.0 0.0
###########################################################################

#--------------------------------------------------------------------------
#variables
#--------------------------------------------------------------------------
variable   	dt 		equal 0.001
#--------------------------------------------------------------------------
#kappa parameters
#--------------------------------------------------------------------------
variable    	p 		equal 100000 	# correlation length
variable    	s 		equal 10  	# sample interval
variable    	d 		equal $p*$s 	# dump interval
variable    	d 		equal 100000*$s 	
variable    	d 		equal 100000*10 	

#--------------------------------------------------------------------------
variable 	T_run 		equal 300
#--------------------------------------------------------------------------

log 	log_heat_${iseed}.lammps
log 	log_heat_7.lammps
