	reset_timestep  	0
	fix 			1 all nve
	compute   		myKE all ke/atom
	compute   		myPE all pe/atom
	compute   		myStress all stress/atom virial
	compute   		flux all heat/flux myKE myPE myStress
	variable  		Jx equal c_flux[1]/vol
	variable  		Jy equal c_flux[2]/vol
	variable  		Jz equal c_flux[3]/vol
	fix       		JJ all ave/correlate $s $p $d c_flux[1] c_flux[2] c_flux[3] type auto file J0Jt_${iseed}.dat ave running
	fix       		JJ all ave/correlate 10 $p $d c_flux[1] c_flux[2] c_flux[3] type auto file J0Jt_${iseed}.dat ave running
	fix       		JJ all ave/correlate 10 100000 $d c_flux[1] c_flux[2] c_flux[3] type auto file J0Jt_${iseed}.dat ave running
	fix       		JJ all ave/correlate 10 100000 1000000 c_flux[1] c_flux[2] c_flux[3] type auto file J0Jt_${iseed}.dat ave running
	fix       		JJ all ave/correlate 10 100000 1000000 c_flux[1] c_flux[2] c_flux[3] type auto file J0Jt_2.dat ave running
	compute 		myDis all msd
	thermo_style 		custom step temp press vol c_myDis[4] v_Jx v_Jy v_Jz
	thermo			1000
	timestep		${dt}
	timestep		0.0010000000000000000208
	run			1000000
Memory usage per processor = 7.90665 Mbytes
Step Temp Press Volume myDis[4] Jx Jy Jz 
       0    274.07877    10177.517     3048.625 2.3797111e-31  0.035189905  0.022423787 0.0037240417 
    1000    283.17599    10974.003     3048.625    10.473281 -0.019955772 -0.0058559405 -0.0093981386 
    2000    283.17207    5378.9576     3048.625    15.388099 -0.0022972694 -0.035804703 0.0096227552 
    3000     269.9826    9839.0727     3048.625    16.417721 0.00060293412 -0.0011330275 -0.011575986 
    4000    276.39689    5884.0836     3048.625    27.481974 -0.012416947 0.0094406049 -0.0031479246 
    5000    232.00899    18365.857     3048.625    26.514718 0.0019054928 -0.021348579   0.01171382 
    6000    237.36577    16711.089     3048.625    19.523577 -0.00017845757   0.00234961  0.015008822 
    7000    236.84856    9503.3138     3048.625    22.082456  0.011020304  0.024463255 0.0016301995 
    8000    277.14145    13796.695     3048.625     24.45613  0.017008712 -0.0079914796 -0.0010234088 
    9000    252.62608    7389.5991     3048.625    19.787625 0.0086124458  0.049608209  0.013261087 
   10000    230.07319    16530.199     3048.625    16.338563  0.047088546 -0.026138433  0.020487979 
   11000    272.89803    11223.472     3048.625    23.395116 -0.010158531 -0.027636956 -0.0018099121 
   12000    288.38069    5080.7459     3048.625    30.781103 -0.010854115 0.0019012855 -0.0034294996 
   13000    228.10652    18528.042     3048.625    28.755597  -0.03205865 -0.0030482364 -0.012974152 
   14000    235.78608    8581.2705     3048.625    22.766819 -0.022622812   0.02203499 -0.015751923 
   15000    275.41141     14418.04     3048.625    25.639959  0.011523085 -0.012634633  0.002299576 
   16000    280.54547    8173.8611     3048.625    29.656896  0.013089047  0.027869278 -0.030063589 
   17000    291.11442    5342.4869     3048.625    22.253736  0.012909014 0.0053684845 -0.007277702 
   18000    271.15433    9269.4749     3048.625    14.836495  0.013960616 0.0006157509   0.01363088 
   19000     264.0712    16292.448     3048.625    20.175272 -0.015925214 -0.0080865362 -0.035883371 
   20000    265.34061    7106.1047     3048.625    30.457865  0.040544805  0.021406619 -0.0013459743 
   21000    255.32579    16630.571     3048.625    33.321395  -0.01592254 0.0082420198 -0.0038094282 
   22000    277.98488    1480.3912     3048.625    26.701023  0.043967309 0.0024347899 -0.031971852 
   23000    229.90245    19280.472     3048.625     24.59733 0.0099236093  0.012272338 -0.021089016 
   24000    247.87651    10102.912     3048.625    30.058494 0.00088734273  0.025568551 0.0014447383 
   25000    249.22039    13661.628     3048.625    30.713132  0.018357618 -0.015556622 -0.0096130133 
   26000    249.96769     15188.67     3048.625    24.589204 0.0015583859  0.021742471  0.045082438 
   27000    253.54604    9983.8664     3048.625    22.021829 -0.0027765073  0.024970529  0.027942225 
   28000    263.08683    9819.3527     3048.625    22.946705 -0.0049964308 -0.020022564  -0.03536181 
   29000    271.87501    16106.011     3048.625    28.091143  0.022715481 0.0025625788 -0.00074697293 
   30000    244.71837    6026.0019     3048.625    29.239617 0.0057587149 -0.0021342098 -0.049226462 
   31000    257.55715    15683.539     3048.625    27.438422 -0.024892947 0.0038548051 -0.013638905 
   32000    246.67117    8835.5675     3048.625    23.265819 -0.018715106 -0.019028979  0.026815735 
   33000    256.13977    17454.878     3048.625    22.971546 -0.0063074512 -0.0030535913  0.004249458 
   34000    264.21063    9572.7082     3048.625    29.149942 0.0077306394 -0.017054278  0.024882277 
   35000    282.29246    8557.6785     3048.625    33.988274 -0.0022615538  0.029626326 -0.0044647345 
   36000    287.73406    6897.5659     3048.625    33.963711 -0.025721949 0.0040971753 0.0095805852 
   37000    295.26217    6786.4809     3048.625    27.987086 -0.007610096 -0.023869266 -0.015174968 
   38000    296.83821    9778.2966     3048.625    22.838129 0.0050318106 0.0090724073 -0.0063999264 
   39000    276.08656    4643.2212     3048.625     24.67232 -0.0046385702 -0.037928401 -0.019731731 
   40000    271.99936    6831.5893     3048.625    30.517777 -0.010318158 0.0050766757 -0.0039999618 
   41000    268.85245    13178.381     3048.625    31.817814 -0.0029258545 -0.041858789   0.01210786 
   42000    290.05606    5880.5152     3048.625    30.053353 -0.028055184 0.00046776898  0.024725665 
   43000     293.2746    3020.4879     3048.625    28.121103 -0.022366447 -0.026359444 -0.0077340008 
   44000    288.06959    10076.377     3048.625    26.703662  0.017978306 -0.021191538 0.0058534626 
   45000    265.61708    5429.7029     3048.625     29.54867 -0.037615098  0.021413604 0.0038334775 
   46000    242.98298    11589.163     3048.625     33.66147 0.0049425745  0.015282363 0.0044901777 
   47000    280.62106    7790.7752     3048.625    33.481571  0.021462614 -0.039201809 0.0078309121 
   48000    280.47707    12110.232     3048.625    29.180856 -0.0089318303 -0.023971357 -0.017425496 
   49000     238.1372    12676.714     3048.625    23.236998 -0.0089610504 -0.019942824 -0.017104081 
   50000    254.16968    13079.179     3048.625    24.957824 0.0014064379 -0.0044510287  0.020290337 
   51000    258.45796    10173.818     3048.625    29.652214  -0.01794834 -0.0067476143 -0.010255242 
   52000     238.8869    17406.637     3048.625    32.857786 0.0044511558 -0.016166353   0.05116672 
   53000    229.67709    17250.215     3048.625     33.72062  0.018923875  0.027117057  0.014983921 
   54000    268.50255    8020.3842     3048.625     33.38941 -0.0014648882 -0.00058441208 -0.00040392906 
   55000     265.5644    9745.5595     3048.625    31.092214 0.0066359561  0.034699106 0.0057772095 
   56000    261.72422    9499.8261     3048.625     25.59481 -0.0052890388 -0.011394004 0.0062798256 
   57000    280.68506    5126.3272     3048.625    22.750823 -0.018340672  0.061949691 -0.012644637 
   58000    246.62129    11827.735     3048.625    24.618706 -0.00099368398   0.01771692 -0.00081609926 
   59000    245.16788    10883.071     3048.625     25.37497 -0.0091123734 -0.018056527  0.023925058 
   60000    216.35286    19498.936     3048.625    22.201937 -0.0063228509 0.0079615961  0.001184381 
   61000    287.59553    7341.1379     3048.625    26.050792 -0.0078975431 0.0017382586 -0.0070898175 
   62000    251.24273    11058.629     3048.625    27.449149  0.013764451 -0.049774654 0.0058622298 
   63000    250.09687    11622.688     3048.625    18.965931 -0.018068916  -0.01560838 -0.019198682 
   64000    257.02983    9862.1434     3048.625    12.322646 0.00067514866 -0.0053233607 -0.029298111 
   65000    251.76538    9590.6042     3048.625    19.308076   0.03544439  0.013848018 -0.015144721 
   66000    264.55761    5013.9759     3048.625    29.755836  0.035725033  0.033301146  0.026498962 
   67000    245.56166    16652.857     3048.625    26.671801 -0.012179309 -0.012466687  0.012177744 
   68000    263.50891    7885.0638     3048.625    18.291273 -0.027702045 -0.0046602765 0.0087367278 
   69000    263.75454     9512.681     3048.625    22.313644 -0.012765207 -0.0043337466  0.035467165 
   70000    259.26274    9602.5291     3048.625    23.107557 -0.027245697  0.015938556  0.012924933 
   71000    263.41774    10099.181     3048.625    22.679145 -0.034359289  -0.02785177  0.028848707 
   72000    259.61846    12618.996     3048.625    30.705828 -0.0045278072 0.0088586253 0.0014796985 
   73000    266.04344    9603.7275     3048.625    24.971693 -0.011243431 0.0084711995 -0.0065113422 
   74000    269.70913    6289.0329     3048.625    18.073217 -0.00044177007  0.011056686 0.0093031748 
   75000    282.94067    13546.262     3048.625    22.353341 0.0096923442 -0.0068263505 -0.017128369 
   76000    261.86625    13441.583     3048.625     18.66108 -0.021410845 -0.019729161 0.0087964803 
   77000    264.25043    11540.407     3048.625    17.822654 -0.004816438 -0.0065542727 -0.0016884316 
   78000    248.41634    6274.8458     3048.625    24.958456 -0.0080001228  0.001607343 -0.015697378 
   79000    287.04104     1499.934     3048.625    25.532903 -0.053730249 -0.0089766417  0.015166166 
   80000    288.89797       4660.2     3048.625    24.691865  -0.02824366 0.0052334144 -0.022535594 
   81000    260.20714     14883.98     3048.625    31.754869 0.0072062455 -0.016939446 0.0026203305 
   82000    276.39044    745.31111     3048.625    28.699115 0.0022913933  0.013162145 -0.025853376 
   83000    291.04093    9179.3755     3048.625    23.062921 -0.025896049 -0.020241777 0.0037525456 
   84000    274.28823    9419.4921     3048.625    27.778424 0.0027412452 -0.014381766  0.021166389 
   85000    264.59321    6513.2514     3048.625    29.139028  0.020429048  0.023943936 -0.032738504 
   86000    261.75287    12069.007     3048.625    25.644816 -0.0027635289  0.032931987 -0.0044440984 
   87000    249.95895    7736.6235     3048.625    30.463694 -0.00099075439 -0.0051785273 -0.023635324 
   88000    258.63509    5285.9783     3048.625    31.042604  0.022993574  0.012090994 -0.0016494502 
   89000    248.03511    15815.774     3048.625     25.02632 -0.037875097 0.0063164987 0.0092984742 
   90000    272.18075    10589.181     3048.625    26.821846 -0.040657641 -0.029845254  -0.01398394 
   91000    247.00204    8480.9338     3048.625    31.586495  0.047952975 -0.010791194 -0.025981461 
   92000    258.68382    18514.886     3048.625    30.249857  0.019476978 -0.017274722  0.059632929 
   93000    260.86964    9395.9662     3048.625    30.749961  0.013501904  0.025536822  0.019618938 
   94000      261.515    8511.7375     3048.625    32.768779 -0.0022642207  0.029737085   0.04320145 
   95000    238.56722    14715.151     3048.625    31.587511 -0.016054209  0.069320941 -0.014897368 
   96000    256.30291    5036.4735     3048.625    27.876701 0.0079180785 -0.036980893  0.024722641 
   97000    228.49497    14952.126     3048.625    21.582092 -0.021957941  0.011262086 0.0034158695 
   98000    260.44773    15653.014     3048.625    20.679302 0.0068104927 -0.015503967 -0.0054327872 
   99000    256.15863    4213.6217     3048.625    28.292451 0.0035076434 0.0037288601  0.023027484 
  100000    268.42434    9923.5359     3048.625    35.236547  0.002339347 0.0095258339 -0.021352829 
  101000    273.97113    12214.276     3048.625    31.590074   0.04269398 -0.030628622 0.0075788795 
  102000    275.68207    2573.1633     3048.625    23.199387  -0.02067258 -0.0052547196 -0.016362835 
  103000    291.48907    11316.781     3048.625    21.291093  0.029910367 0.00010466623 -0.0032514755 
  104000    266.92307    5945.5031     3048.625     27.65126 -0.044844904 -0.013018477 0.0019270729 
  105000    280.83579    5490.9102     3048.625    30.822129 -0.061044998 -0.009246074  0.043155598 
  106000    281.83698    4261.1196     3048.625    29.089268  0.010516326 -0.0045095713 -0.026437641 
  107000    274.27403    16386.598     3048.625    28.441377 -0.0058745373  0.010728149 -0.012079453 
  108000    256.17028     4037.651     3048.625    26.418714 -0.0096216603 -0.043555087 -0.0078835714 
  109000    256.32548    9498.5364     3048.625    24.740701 -0.026790903 0.0042548772  0.020459112 
  110000    273.19225    12764.087     3048.625    24.146747 0.0020002965 0.0076885131   0.01432342 
  111000    260.34522    13584.046     3048.625    25.578264 0.0022668529 0.0011116463 0.0044784181 
  112000    238.47527    16584.288     3048.625    26.404985 -0.032654402  0.033967564 -0.005935966 
  113000    264.63721    9919.8444     3048.625     26.50869 -0.015666658  0.031335834   0.03805009 
  114000    253.24334    8713.5937     3048.625    23.221728 -0.025084974 -0.021043652 0.0086706466 
  115000    273.45699    14677.629     3048.625      17.2301 0.0054498212  0.011281738  0.033378305 
  116000    255.37344    8095.9787     3048.625    16.649481 -0.0038751281 -0.028616857 -0.001894503 
  117000    276.08843    5406.7326     3048.625    23.024964 -0.026895155  -0.02203148 -0.021075456 
  118000     277.6836    13093.542     3048.625    25.973088   0.01983074  0.039159444  0.019878736 
  119000    241.43539    8112.6538     3048.625    21.735289 8.9068932e-05 -0.027248023 7.7943255e-05 
  120000    233.26112    19314.299     3048.625    18.758849 -0.0039270053 0.0043004597  0.015308097 
  121000    256.46546    4593.7287     3048.625     21.28408 -0.019934652 0.0082454974 -5.1178575e-05 
  122000    267.43888    9253.9918     3048.625    28.180485 -0.035040344  0.023182623 -0.016991648 
  123000    260.08748    13758.564     3048.625    29.136904 -0.021999356 -0.0059407584 0.0095535585 
  124000    282.51861    2935.9204     3048.625    23.656441 -0.0031201688  0.026733476 0.0033827471 
  125000    283.18328    8561.0205     3048.625    24.074584 0.0030025283  0.035411735  0.018889513 
  126000      267.209    10807.603     3048.625    30.287942 -0.025219962  0.025309655 0.0060186156 
  127000    249.16767    12049.676     3048.625    32.421297 0.0029466162 0.0019943683 0.0096876397 
  128000    256.01659    13887.993     3048.625     27.40629 0.0051244097  0.022155876 0.0016344407 
  129000    254.15211    12625.468     3048.625    23.134056 -0.013743071  0.035669156 -0.014538507 
  130000    252.72529    10069.529     3048.625    23.905558  0.016741623 -0.014358699 -0.005412333 
  131000    254.50436     12213.24     3048.625     26.80457  0.019139879 -0.021094175 0.0085708653 
  132000    248.73732    9310.1908     3048.625    29.009865 -0.0039794632  0.020725509  -0.01873588 
  133000    273.84184    8813.3364     3048.625    31.430355 -0.0081665166 -0.0038431601 -0.026971849 
  134000    257.52279    7512.4845     3048.625     33.28231  0.013815691  0.022798837 0.0041600075 
  135000    269.68219    10955.141     3048.625    32.061362   0.02315539  0.017635886  0.012961312 
  136000    245.87948    14993.474     3048.625    28.436558  0.010476222 0.0053242557  0.010584569 
  137000    244.31629    12260.701     3048.625    26.262743 0.0086957307 -0.024903964 -0.0074883905 
  138000    277.73382    8800.6538     3048.625      26.7354 -0.028983601  0.016010196 -0.040050868 
  139000    281.59149    7870.7686     3048.625    27.577117 -0.012179524 -0.022598881 -0.018254368 
  140000     236.4297    17227.122     3048.625    27.546962 -0.019995508 -0.0010665678 -0.016064666 
  141000    234.50973    11842.225     3048.625    28.302215 -0.0010513505 -0.0084204314 -0.029243532 
  142000    265.26709     3971.575     3048.625    27.449387  0.011277361 -0.019628994 -0.0056106657 
  143000    275.19943    7999.1185     3048.625    24.231216 0.0060225853 -0.0051767481  0.036644022 
  144000    270.94234    7348.1251     3048.625     23.65444 0.0018878365 0.0022451004 0.0064789109 
  145000     261.9411    10225.982     3048.625    24.921415 -0.0011036732 -0.011329444 0.0053434673 
  146000    261.64795     12697.03     3048.625    24.940633 -0.0096970312 -3.798229e-05  -0.01044563 
  147000    224.00352    18414.199     3048.625    23.045078 0.0016804558 -0.018067976 -0.0067819733 
  148000    230.82471    10742.252     3048.625    23.214162  0.035359183 -0.018808869  0.019075491 
  149000    266.10566    7700.2047     3048.625     26.68212 -0.031015132  -0.03252986  0.029274519 
  150000    211.98649    16909.106     3048.625    29.552296 -0.017878276  0.019681374   0.04029578 
  151000    243.43031     13670.84     3048.625    29.215813  0.023740594 -0.0099599585  0.022019228 
  152000    240.24543    19639.083     3048.625    27.936715  0.017847149  0.011204531  0.021970432 
  153000    227.24247    10842.931     3048.625     27.86511  0.011228318  0.010783303 0.00039246963 
  154000    258.80275    6132.4286     3048.625    28.909936 -0.0007941023 -0.0027974641 -0.030712162 
  155000    256.05649    11803.132     3048.625    29.416881 -0.011368383  0.042890146 -0.011975826 
  156000    265.49103    9388.2704     3048.625    26.920625  0.041456847 0.0035695437 0.0019597991 
  157000    256.77892    14083.855     3048.625    25.102991  0.030987523  0.020135293 0.0074152543 
  158000    263.10153    7802.2738     3048.625     22.89382  0.023787655  0.017842198  0.013302783 
  159000     274.9746    3021.7751     3048.625    23.380089 -0.005872094 0.0086305612 0.0031667434 
  160000    260.61959    15358.382     3048.625    26.415983 0.0052262558  0.012578079 -0.0051299236 
  161000    268.80763    4040.8777     3048.625    31.694306 0.0062555559 -0.007233879 0.0018477115 
  162000    278.18969    11205.008     3048.625    35.401992  0.020204874  0.021368309 -0.0074176347 
  163000    273.27537    6130.7548     3048.625     29.91763  -0.01328772  0.038755361 -0.00084539871 
  164000    254.13899    17722.591     3048.625    20.313927 -0.025132353  0.013935325 -0.027239315 
  165000    286.18206     3622.312     3048.625    16.329779 -0.024268082  0.038067184 0.0068885128 
  166000    280.75109    7055.1817     3048.625    19.048913  0.010974631   0.05098305  0.009289143 
  167000    282.70767    7446.3114     3048.625    25.002759 0.00047017636 0.0097283484 -0.012252493 
  168000    244.14276    5836.6236     3048.625    32.294883  0.019803101 -0.016353926 0.0080259043 
  169000    268.71619    12274.503     3048.625    33.665421   0.00608762 -0.015462645 -0.043231833 
  170000    240.18732    9061.9131     3048.625    29.640541 -0.0045039461  0.019569847 -0.016540443 
  171000    270.58754    11529.287     3048.625    24.719265 -0.0047802368 -0.002778886 -0.024085293 
  172000    263.33563    5870.0597     3048.625    23.094801 -0.0050550923 -0.014196878  0.037594226 
  173000    257.69307    9916.3739     3048.625    27.136079  0.013557884 -0.0036019653 0.0033816592 
  174000    261.12892    8109.8678     3048.625    30.480619   0.02653254 0.0093802789  0.033836371 
  175000    286.43826    3571.5059     3048.625    30.405911 -0.013365914 -0.038258405  -0.00988103 
  176000     289.7684     3197.498     3048.625    26.832639  0.010719956  0.026468683  0.019475732 
  177000     281.3972    247.43398     3048.625    23.889657 -0.023765577 -0.017377747  0.016642604 
  178000    270.04504    6747.5504     3048.625    25.076274 0.0043493708 0.0066651985 -0.034217583 
  179000    277.82743    7414.8059     3048.625    28.919875  0.010318675 0.0072981447  0.029090006 
  180000    269.01315    6018.7185     3048.625    31.818168  0.027246037 -0.015667628 -0.0059425666 
  181000    250.09542    8205.8605     3048.625    30.008612 -0.0018796709 -0.00045193273 0.00052432885 
  182000    229.66821    14077.869     3048.625    27.426504 -0.011841898 -0.023928585 -0.0050409136 
  183000    259.62353    10366.712     3048.625    25.733104 -0.0073637544  -0.04152755 -0.032047743 
  184000    262.55471     544.2091     3048.625    28.685134 -0.0050837623 0.0011034896 -0.00044259659 
  185000    256.77555     11151.12     3048.625    32.268102  0.012979829  0.032239749 0.0035246574 
  186000    234.75261     13503.54     3048.625    35.075294  0.027778836 0.0071455077 -0.0040614005 
  187000    258.58209    6646.3505     3048.625    34.914725  0.014579626  -0.01380761  0.022408973 
  188000    265.79059    6679.2725     3048.625    32.340127  0.018696257  0.011960135 0.00046349378 
  189000     256.7505     16719.33     3048.625      28.1794  0.028685618 -0.0078675724  0.015166943 
  190000    273.41826    5063.2937     3048.625    26.942851  0.049769868 -0.032628236 -0.0021808806 
  191000    259.28085    5909.0688     3048.625    23.962779 0.0091906577 -0.013042823 0.0098779242 
  192000    279.57576    9821.3462     3048.625    21.151323  0.010840923 -0.0039033985 0.0038984687 
  193000    256.43927   -992.43304     3048.625     23.98732 -0.018683692  0.031777242   0.01459474 
  194000    216.32189    20424.239     3048.625    27.409343 -0.026897446  0.013358147 -0.035296604 
  195000    241.08306    8152.0069     3048.625    28.111389    0.0416263  0.022108491  0.019555084 
  196000    260.13335    9532.6405     3048.625    26.344037   0.01924548 0.0063683318 0.0081232589 
  197000    252.51238    13973.642     3048.625     25.57785  0.013717791  0.010642687  0.029149542 
  198000    266.51617    10424.961     3048.625    27.737919  -0.02900069  0.032056885  0.017337957 
  199000    274.71302    5977.5868     3048.625    28.351603 -0.0094835461  0.027543096  0.011478327 
  200000    267.10667    9057.7431     3048.625    25.560688  0.019576881  0.014426202 -0.012819961 
  201000    270.56447    8925.9902     3048.625    22.133349 -0.036123971 -0.005864433 0.00075411853 
  202000    251.11319    9903.3758     3048.625    24.139407 0.0020371865 0.0021962876 -0.012916478 
  203000    247.24766    10047.747     3048.625    28.118957 -0.0018863882 -0.0058204259 -0.030269052 
  204000    259.82029     4921.208     3048.625    29.318119 -0.0042140325 -0.0081433553  0.037521646 
  205000    241.69731    15427.032     3048.625    28.245283 -0.012120851  0.003507254 -0.0043363527 
  206000    245.51133    9984.9869     3048.625    27.170722 -0.042731206 0.0082336496 0.0052369114 
  207000    254.23678    10025.503     3048.625     27.69914 0.0098840211 -0.050034189  0.018999613 
  208000    258.73312    6867.2357     3048.625    30.092816 -0.035842226 -0.015876945  -0.04289468 
  209000     261.8467    7788.6908     3048.625    29.819027  0.015548645  0.015643858  0.007441948 
  210000    263.85127    7060.7479     3048.625    26.403285 -0.033298737 -0.0079174335  0.034085428 
  211000    251.15081    8854.1748     3048.625     24.42419 0.0066982951 -0.033359631  0.014457144 
  212000    266.87852    11099.138     3048.625    25.771999 -0.0095087112 0.0002455146 0.0065467467 
  213000    258.59092    7035.1232     3048.625    26.693883 -0.016584484  0.054193334 -0.0083480779 
  214000    267.70025    2114.3076     3048.625    27.105257 -0.028730723  0.017227037 -0.022451936 
  215000    270.04234    14599.553     3048.625    27.610377 -0.027459984 -0.015614294 -0.0021148193 
  216000     272.8635    6222.4519     3048.625    29.775156 -0.0053754248 3.8475148e-05 0.0099213495 
  217000    279.48638     3993.337     3048.625    33.442583 -0.041955098 0.0049501617 -0.0043751195 
  218000    260.66202    8977.0001     3048.625    34.297598  -0.02046587  0.049466579 0.0059480808 
  219000    240.25291      11730.2     3048.625    30.318489  0.024755279  0.040306369  0.019073936 
  220000    239.88104    9265.3559     3048.625    25.842617 -0.032193854  0.065710014 0.0031774463 
  221000     239.7634    12965.028     3048.625     26.50876 0.0088152466  0.023031582  0.018754088 
  222000    268.88709    9892.4247     3048.625    29.102722 0.0045044819 -0.0062639938  0.026108875 
  223000     254.6646    10928.808     3048.625    31.290917 0.0068655021 -0.020205123 -0.010956195 
  224000    257.22136    9291.3566     3048.625    28.459852 -0.012027307 -0.0055384416 0.0087157071 
  225000    254.29168    6669.9893     3048.625    25.730874 -0.0081872526 -0.0020903079 -0.026043622 
  226000     213.9409    19796.783     3048.625    28.168513 -0.020308147 -0.022011963 0.0021744684 
  227000    242.63743    3952.0893     3048.625    33.070689   0.02945657  0.014198262 -0.0063700288 
  228000    268.85533    2070.9122     3048.625    35.664238 -0.013088296 0.0021326735 -0.018433906 
  229000     271.6679    15007.674     3048.625    33.969691  0.011590199 0.0099121897  0.021002195 
  230000    246.14278    3271.9733     3048.625    28.727571 -0.0064543697 -0.022388616  0.012309001 
  231000    232.62152    11664.175     3048.625    23.633119 -0.0074567881 -0.014465854 0.0080436146 
  232000    264.92011    12992.877     3048.625    21.568078  0.024635387  0.034409796 0.00082276928 
  233000    264.49524    9552.3968     3048.625    24.372693  0.016996652 -0.0034285069  0.006635406 
  234000    274.99779    4088.4834     3048.625    29.089291 -0.012170628 -0.00032623977  0.006149542 
  235000       264.61    10642.004     3048.625    28.287489 0.0084574587  -0.01770423  0.046227526 
  236000    256.90666    11847.875     3048.625    24.726293  0.024116089  0.030144009  0.011541111 
  237000    256.71415    10386.363     3048.625    26.527751 -0.029030958 -0.016030789 -0.0074969589 
  238000    249.61962    5133.4536     3048.625    31.421095 -0.029412879 0.0040393443 0.0014383613 
  239000    256.80823    12604.183     3048.625    33.656747  0.013798172 -0.0052811846 -0.021952246 
  240000    261.97746    2291.1196     3048.625    31.957682  0.013410124 0.0090695114  0.011348906 
  241000    276.51886    3014.9633     3048.625    27.839271 -0.012854611 -0.013553736 -0.029169036 
  242000    262.33196    11583.886     3048.625    26.829536 -0.052949176 -0.029629236 -0.014908529 
  243000    244.73511    9693.8307     3048.625    30.123526 0.0010798208 -0.00074419817 0.0038871985 
  244000    233.06994    12023.041     3048.625    34.082399 0.0078859712 -0.025927696 0.0069335014 
  245000    252.99777    7567.6309     3048.625     31.06016 -0.0028064751 -0.033233152 0.0047090476 
  246000    282.17246    5127.2044     3048.625    27.793755  0.028830861 -0.029242015  0.005178259 
  247000    249.64003    14871.837     3048.625    31.232955 -0.0071998192  -0.00865378 -0.016385187 
  248000    231.73164    6273.0877     3048.625    31.920876 -0.0081692244 -0.016185413 0.0059051916 
  249000    276.91059    12493.653     3048.625    25.738542 -0.010513038  0.010433551 -0.027751575 
  250000    259.46483    4898.1048     3048.625     17.98454 -0.016922244 -0.015374654 -0.0046121765 
  251000    233.39436    9189.1015     3048.625    20.396823 0.0090803999  0.031241846 -0.034703933 
  252000    244.40545    15867.211     3048.625    27.014004 0.00086260961   0.01855226  0.004353958 
  253000    249.28439    14238.306     3048.625    30.883367 0.0098052228  -0.01984555 -0.012094008 
  254000     235.4992    9645.3853     3048.625     30.04765 -0.010468556 -0.0040396875 -0.016373752 
  255000    250.24103     7508.124     3048.625    24.719027  -0.01956447 -0.0060553515 -0.021968278 
  256000    254.73486    2114.9263     3048.625    19.843842 0.0049873621   0.01174247 -0.033596855 
  257000    266.31763    10520.503     3048.625    20.263746  0.019682634 -0.013443381 -0.021935521 
  258000    273.61741     12311.69     3048.625    22.204551 0.0098880262  0.004953428  0.032041889 
  259000    263.57385    12597.174     3048.625    24.652768  0.032394946  0.016190678  -0.02214966 
  260000    238.51237    8410.0599     3048.625    26.098181 -0.037248386  0.024226499 -0.032081722 
  261000    253.24143    9649.5739     3048.625    27.625937  0.010903787 -0.025104077 -0.050302918 
  262000    265.01464    8418.6713     3048.625    28.312309    0.0232683 -0.044208704 -0.026848233 
  263000    250.31877    15965.807     3048.625    27.136839  0.026459926 0.0072158921 -0.015083137 
  264000    243.15059    8143.2326     3048.625    26.633796 0.0025596264 -0.0077520129  0.033682176 
  265000    238.89511    9718.8574     3048.625    26.184579  0.046350611 0.0075428517  0.011243416 
  266000    254.35364    8024.6925     3048.625    23.357562  0.013344219 -0.024245529  0.019797501 
  267000    250.16229    5104.9315     3048.625    23.424339 -0.018648949  0.022457375 -0.027322378 
  268000    280.20556    9208.5888     3048.625    30.132969  0.015351547 0.0090227539 -0.0059178131 
  269000    261.71666    8578.8864     3048.625    35.145903 -0.0041245315 -0.0075596749 -0.010652066 
  270000    281.00037    6618.2254     3048.625    33.115521 -0.0066927106  0.012612048  0.013200979 
  271000    260.96829    8002.2865     3048.625     26.37585   0.01591323 -0.018357938 -0.0056702111 
  272000    249.38137    8546.8979     3048.625     19.34633  0.015843002 -0.018961655 -0.016690794 
  273000    276.48464    6625.7897     3048.625    17.022439  0.025874411 -0.041946478  0.044442408 
  274000     259.6941    3737.9864     3048.625    24.261449  0.016822809 0.0029893431 0.0049295748 
  275000    241.00981    8633.5399     3048.625     29.16982  0.016701362 -0.011577323  0.029704916 
  276000    240.08152    8588.7486     3048.625    28.051037  0.041377398  -0.01584097 0.0077361867 
  277000    249.48705    7456.6669     3048.625    22.921437  0.032478225 -0.014837133  0.039581777 
  278000    271.74663    3891.1125     3048.625    19.435485 -0.0019105581  0.029258292 -0.035239596 
  279000    273.54921    7849.5543     3048.625    20.265214 -0.025177745 -0.011409228 -0.0087026599 
  280000    220.43819    14943.682     3048.625    21.908715 -0.016730433 -0.00082220143  0.015431702 
  281000    269.95091    3003.7115     3048.625    19.764205  0.041399309 0.0062400051 -0.0037961586 
  282000     236.8428    8882.3725     3048.625    23.132066 -0.030182375  0.012447506  0.023514112 
  283000      264.795    9245.9386     3048.625     26.78031  0.025625008 -0.012664766 -0.0032625745 
  284000    246.36061    8203.4233     3048.625    24.347222  0.015658214   0.01280654  -0.02076876 
  285000    253.59516    6716.8341     3048.625    18.701971  0.025740364 -0.032004695 -0.029419824 
  286000    244.94062     11936.79     3048.625    19.781919  0.038704931  0.016200701 -0.022834187 
  287000    252.08945    12724.117     3048.625    26.913422  -0.01397262 -0.0024317007 -0.0028706439 
  288000    249.16004    9679.2019     3048.625    31.711818  0.048136858  0.020550229 0.0023791884 
  289000    263.53434    8387.2663     3048.625    28.241243  -0.02598921 -0.0030038974   0.01051165 
  290000    231.13219    9200.6753     3048.625    24.653505  0.068492728 -0.048449291 -0.0068618326 
  291000    244.37932    14155.209     3048.625    27.798175 -0.013592861 0.0078638307 -0.0062252442 
  292000    250.24665     12866.63     3048.625    29.854799 -0.0075759923 0.0093111428 -0.036825192 
  293000     245.5055    9447.6266     3048.625    27.255941  0.043606044 -0.017823649  0.019890964 
  294000    234.92111    11622.013     3048.625    29.492554  0.018119338 -0.027988904  0.016601247 
  295000    261.67335    4895.6866     3048.625    33.583124  0.014694654 -0.032509946   0.01843301 
  296000    270.16379    8217.4795     3048.625    33.279124 -0.0066080859 -0.0026546442 -0.025565767 
  297000    251.54473    3450.0627     3048.625    31.695769  0.021262594 -0.0028733107 -0.0016175335 
  298000    245.37334    14010.044     3048.625    30.322919 -0.0063210702 -0.019705665 0.0011722272 
  299000    220.90232    12828.363     3048.625    29.816072 -0.015304622  0.013422685 -0.018366405 
  300000    250.40357    11248.291     3048.625      29.4589  0.010812867  0.017710767 -0.029310202 
  301000    213.10199    13103.311     3048.625    26.328335  0.019134194  0.012001148 -0.012803249 
  302000    238.31907    12707.884     3048.625     22.24106 -0.022650922  0.013047494 -0.017310572 
  303000    252.61704    8842.2553     3048.625    25.527549 0.0029317445 -0.017668394 -0.018723039 
  304000    229.07112    12063.295     3048.625    32.644509 -0.027974557 -0.012607773 -0.0073621191 
  305000    244.50903   -267.88713     3048.625    35.862039 -0.0038139461 0.0011052463 0.0019356914 
  306000    264.71085     7277.643     3048.625    31.428938 -0.0013663995 0.0071731257 -0.0051070446 
  307000    267.70089    9668.1997     3048.625    27.128684 -0.050881525 0.0010075335  0.029493775 
  308000    231.43558    14423.742     3048.625    29.557236 -0.021085206 0.0069731635  0.021124527 
  309000    232.37236    6886.1517     3048.625     32.61771  0.019258994 -0.021775995 -0.010203173 
  310000    278.09707    13761.956     3048.625    30.002047  0.016393464 0.0077322805  0.014089776 
  311000    290.81456    1964.2633     3048.625    24.183001 -0.017088155  0.010598826  0.051467246 
  312000    231.99091    8831.0782     3048.625     20.95454  0.012144171 -0.022469072 -0.00061977175 
  313000    201.15627    19849.008     3048.625    21.798594 -0.012773646 0.0036824204  0.035221077 
  314000    235.69773    11300.588     3048.625    26.084745 -0.021156903 -0.0007253647 -0.0028678265 
  315000    255.34532    11971.184     3048.625    31.779581 -0.0064882322   0.01860388 0.0038701443 
  316000    240.46158    13133.071     3048.625    35.190972  0.020408452 0.0062702625  0.038551789 
  317000    234.62517    7420.3651     3048.625    32.047932  0.014371322 -0.019438112 -0.0006020598 
  318000    252.26826    10225.919     3048.625    25.695604 -0.0014267471 -0.015760143 0.0062573399 
  319000    243.66622    11025.602     3048.625    27.560052 -0.0032530186 -0.008774548 -0.020014581 
  320000    238.01972    8527.2278     3048.625    34.707785  0.020623564 -0.013711295  -0.01481095 
  321000    244.13857    8618.3419     3048.625    33.546142 -0.014440862 -0.012522785 0.0045559511 
  322000    243.98399    10841.707     3048.625    28.731472 0.0083445896  -0.01862549 0.0051833007 
  323000    239.64878    6383.6442     3048.625      28.9637 0.0099386655 -0.024537079 -0.012312159 
  324000    251.87984    16517.579     3048.625    33.680018 -0.008789681  0.013551127  0.020588166 
  325000     257.8179     4774.567     3048.625    32.810101 -0.0046022781  0.013708136  0.021711905 
  326000    251.02374    5441.5973     3048.625    27.797335 -0.025058269 -0.002293446 -0.033678727 
  327000    252.74937    13469.921     3048.625    28.173857 -0.038054253 0.0075045117  0.017231857 
  328000    260.95092    2989.5729     3048.625    29.110611 -0.008384261 -0.032135835 0.0001489593 
  329000    269.09041    8492.8896     3048.625    25.270749  0.020347087  0.012988416  0.011242073 
  330000    277.34888    5608.6379     3048.625     23.63202  0.002176297 0.0075412852  0.005024822 
  331000    253.84288    5181.1376     3048.625    30.579117  0.019362404  0.048889982  0.017661139 
  332000    259.40682    12321.475     3048.625    33.812219 -0.041095057 0.0092170315 -0.022952587 
  333000    253.27174    5676.6097     3048.625    27.421247 -0.0067078774  0.013926342 -0.013306875 
  334000    256.87403    4289.1491     3048.625    19.926147  0.019996925  0.032502401 -0.010801036 
  335000    274.11995    7576.7438     3048.625    23.362942 -0.0065705587 -0.015847024  0.013867152 
  336000    266.21806    7191.5489     3048.625    30.161509 -0.014446508 -0.027127178 -0.027111492 
  337000    259.20728   -756.49245     3048.625     30.77677 0.0021828919  0.019508568 -0.0044323323 
  338000    251.60949    10905.235     3048.625    24.771649 -0.037614805  0.010325394 -0.0031281401 
  339000    252.74122     12689.58     3048.625    20.246797 0.00096492392 0.0047915285  0.015675763 
  340000    252.39707    4060.3028     3048.625     23.65914  0.025871476 0.0069174959 -0.013245534 
  341000    244.76223    10491.847     3048.625    31.226811 -0.054980258 -0.0038923597   0.02256806 
  342000    254.07069    10073.517     3048.625    33.480962 -0.035972633 -0.0092079688 -0.0085220799 
  343000    242.43014    9461.4512     3048.625    29.222992 -0.037142429 -0.010474667  0.024093174 
  344000    244.25777    9874.4468     3048.625    24.776716 -0.016012466  0.021358781 -0.0061159964 
  345000    255.43906    10246.185     3048.625     23.24565 -0.011122778    0.0348918  0.028233894 
  346000    239.60305     8091.983     3048.625    24.783572 -0.041320302 -0.0029485198 -0.0094686111 
  347000    244.15523    12475.881     3048.625    22.775607 -0.0063032771  -0.03528885 -0.0088720798 
  348000    253.69739    5276.7504     3048.625    21.353972 0.0018939767  0.016945073 0.0047949907 
  349000    262.30879    7296.9263     3048.625    22.823934 0.0085985028 -0.024462749 0.0040890473 
  350000    249.82971    14394.928     3048.625    22.309501  0.010884413  0.010296793  0.017479797 
  351000    253.33735    5396.2842     3048.625    19.837796 -0.019293355 -0.012500538 -0.011839472 
  352000    248.40535    5306.1377     3048.625    22.992504 -0.031468436 0.0021527717 -0.042690323 
  353000     260.7188    13460.296     3048.625    25.602256 0.0097459012 -0.0072169202  0.017228407 
  354000    248.77897    4944.8045     3048.625    25.668372 -0.0041901853   0.01770512  0.020464667 
  355000    257.79009    9935.9403     3048.625    27.487764 -0.034872509   0.01363468 0.0081543203 
  356000    257.37896    11604.586     3048.625    29.914659 0.0085563273 -0.012667713 -0.013644401 
  357000    250.68313    5256.4568     3048.625    33.117336  0.019216824 -0.041173832 -0.014395447 
  358000    254.30139     8017.259     3048.625     32.67026  0.031390161 -0.036578305 -0.0058528794 
  359000    244.88272    12244.524     3048.625    28.127964 -0.0038879122  0.013606348 -0.013134114 
  360000    220.20457    6677.6519     3048.625    20.474111 -0.041764683  0.024605653 0.00014179709 
  361000    248.85385    12616.351     3048.625    15.265478 -0.027938732 -0.022435065 0.0024867394 
  362000    247.72505    7388.8692     3048.625    17.177092 -0.0063041979 -0.059704577 -0.0052510782 
  363000    268.60986    7863.6488     3048.625    23.428126  0.031686818 -0.006941596 -0.024465351 
  364000    252.39388    10385.804     3048.625    29.958244  0.021858908 -0.045085548  0.012327603 
  365000    258.28814    8709.0169     3048.625    32.064804 -0.0043236262  0.010240343 0.0053709773 
  366000    252.99213    7858.2414     3048.625    32.875142  -0.02155653  0.035244989 -0.0052506902 
  367000    247.50294    9063.3707     3048.625    32.313836  0.014203768 0.0030333673 0.0094327116 
  368000    232.03627    13485.777     3048.625    28.178308 0.0043395222 -0.030293341  0.035075995 
  369000     248.1614    4312.3045     3048.625    27.306772 0.0092858861 -0.037182251 0.0094531955 
  370000    266.26355    8709.8914     3048.625      26.9461  -0.01358119 -0.015710133 -0.010901888 
  371000    244.33802    10002.871     3048.625    29.777605  0.015354821 -0.00072533565   0.01261592 
  372000    245.87563    8326.4346     3048.625    31.051805 -0.028761253 0.0041942039 0.00046611288 
  373000    259.56426    7438.9162     3048.625    28.518767   0.00248089  0.031588676  0.011755051 
  374000    253.94632    7052.4946     3048.625    25.283254  0.020405032  0.015412794 -0.011778547 
  375000    235.84088    13115.746     3048.625     23.37925 -0.0027651973 0.0014901111  0.011061376 
  376000    241.16221     5602.508     3048.625    23.357406  0.033033311 -0.0036283864 -0.0047155168 
  377000     259.4588    2403.8057     3048.625    23.420236  0.014095082 -0.034547277  0.018103855 
  378000    254.57015    14600.526     3048.625    26.589702 0.0086956514  0.020519405   0.02438992 
  379000      243.398    9336.8822     3048.625    30.643921  0.023619347  0.036992134 0.0069759832 
  380000    264.22041    9295.3836     3048.625    33.856319 -0.032263343 -0.021230737  0.013511796 
  381000    266.74086    2361.4412     3048.625    35.428959  0.030576754   0.02394196 0.0084650526 
  382000    234.54601    9028.1923     3048.625    33.695041  0.016677525 -0.034521756  0.032182358 
  383000    212.40233    19958.361     3048.625    31.064659 -0.037228848 -0.037463198 -0.012127985 
  384000    240.55997    3175.1932     3048.625     29.62196 0.0064873647 -0.016129087  0.010650534 
  385000    271.29416     8429.696     3048.625    28.348161 0.0039675521 -0.016789555 -0.0032570272 
  386000    254.63641    8033.4416     3048.625    27.745268  0.021228416  0.041971316 -0.020591724 
  387000    248.64659      2740.84     3048.625     28.18764 -0.035731343 0.0007536615 0.0050395642 
  388000    235.31136    16302.137     3048.625    29.009785  0.014080965 -0.028741693  0.038625107 
  389000    248.39864    5192.7467     3048.625    28.282053 0.0070814092 -0.0069021398  0.044803783 
  390000    263.91522    8909.4924     3048.625    28.235167 -0.044568707 -0.036097003  0.019727465 
  391000     255.0085    13872.985     3048.625    30.215784 -0.027710382 0.0024609552 0.0024308776 
  392000    251.64491    4127.9394     3048.625    30.360258 -0.041846609  -0.01843703 -0.0013763941 
  393000    266.72403    3165.9073     3048.625    24.980472 0.0069751463  -0.02304007  -0.01475551 
  394000     244.4654    10932.254     3048.625    20.706142 -0.024971849  -0.02035733 -0.025791015 
  395000    219.31561    16723.687     3048.625    23.151707  0.019674949  0.023283927 0.0082880062 
  396000    224.11025     11181.53     3048.625    29.681357 0.00033898753 -0.0067366846 -0.027402996 
  397000    249.46082    10958.798     3048.625    30.737425 -0.011252983 0.0017533445  0.015075644 
  398000    269.08355    3695.7256     3048.625    25.507895  0.002466673 0.00043828857 -0.020430129 
  399000    259.73551    8404.1626     3048.625    29.269304 -0.016256242 0.00034548828  0.029656724 
  400000    252.60393    6718.5516     3048.625    35.720546  0.027468101 -0.025704034 0.0074249834 
  401000    247.41775    16541.057     3048.625    35.264928 0.0028986173  0.016919293 -0.022838459 
  402000    251.84906    7401.4656     3048.625    30.181584  0.016467732  0.014827359 0.0027475081 
  403000     259.9703    5945.5678     3048.625    28.691357  0.014941264 0.0015745839 -0.021866124 
  404000    244.89696    5927.9155     3048.625    29.507732 0.0075009105   0.01324902 -0.036707915 
  405000    243.48736    9321.8872     3048.625     31.06915 -0.030728752 0.0046099221 -0.0012399134 
  406000    238.03563    12259.345     3048.625    31.863578  0.011232423 -0.027490622 -0.012580306 
  407000    241.30533    12082.234     3048.625    32.386744 -0.028184191 0.0031324653 -0.021533824 
  408000    220.33388    20065.919     3048.625    30.886324 -0.0080159847 -0.011706961 0.0059281982 
  409000    247.11261     2316.372     3048.625    27.823414 -0.054321993 0.00043421564 0.0086691022 
  410000    259.82324    11751.415     3048.625    24.255745 -0.0014232578  0.018682848 0.00037375247 
  411000    254.35156    10145.327     3048.625    22.197615 -0.014498872 -0.0083663522  0.005197886 
  412000     242.7668    3788.6105     3048.625    24.255289 -0.013053006   0.00430897  0.015445531 
  413000    243.78019    12728.762     3048.625    28.500078  0.044620203 -0.029299702 -0.015889009 
  414000    233.28072    9069.4352     3048.625    27.053844 -0.010507446 -0.020244427 -0.036529586 
  415000    246.23345    7672.9316     3048.625    22.910677  0.025652542 -0.016202688 -0.029732521 
  416000    257.77758    9170.7239     3048.625    23.253158 -0.016491369  0.028102077 -0.0050722448 
  417000    250.42846     8715.205     3048.625    30.174076 -0.018599564 -0.0097815297 0.0073212584 
  418000    252.76111    8746.9355     3048.625    34.495781  0.002412702  0.018182151 -0.0010860342 
  419000    261.50544    7209.9161     3048.625    31.384814 -0.013724799 0.0010425534  0.035568538 
  420000    259.11215   -521.60637     3048.625    24.739909 0.0088215196 0.0068900129  0.016427867 
  421000    271.55826    9970.0049     3048.625    23.841281 0.0041199187  0.034446747 -0.0034829271 
  422000    260.43445    9384.2765     3048.625    28.505023  -0.00685523 -0.012404372  0.015434555 
  423000    254.58843    3694.9849     3048.625    30.459144 -0.0032875305 -0.024908387  0.013699595 
  424000    251.25622    11955.861     3048.625     27.91428  0.015276133 -0.033183154 -0.020685336 
  425000    244.87866     10723.28     3048.625    26.690975 -0.013410354 -0.029562156 0.0093891633 
  426000    252.08706    3198.9609     3048.625    28.851066 -0.012570603 -0.0090774941  0.070342091 
  427000    243.60562    7391.7189     3048.625    31.524169   -0.0366634 -0.0014999685 -0.003245544 
  428000    259.72551    7506.5661     3048.625    31.571169  0.013855864 0.0066716225 -0.031005018 
  429000    262.84979    2150.0059     3048.625    27.082057   0.03194262 0.0059472468 -0.0088256702 
  430000    259.87633    7042.5184     3048.625    24.702017 0.0081774115  0.024651345  0.026910733 
  431000    261.61546    14979.021     3048.625    26.962594 0.0026782218 -0.0048907036  0.023637369 
  432000    233.53845    10658.072     3048.625    32.376272 -0.016635968 -0.012453242 0.0088600245 
  433000     226.2484    14308.718     3048.625    35.739996 0.00023809185 0.0020640697 -0.0035793572 
  434000    240.74564    8137.7581     3048.625    34.348986 -0.0059477775  0.017276275 0.0019771328 
  435000    248.99704    2113.8095     3048.625    30.390624 -0.0012660388 -0.014571497  0.024746893 
  436000    248.58563    13324.961     3048.625    28.149609 -0.023331208  0.015495853 -0.014712744 
  437000    250.47821    11047.104     3048.625    26.795076 -0.014355835  0.014021886 0.0070763743 
  438000    251.60745    4485.2187     3048.625    26.431869 -0.0027216047  0.012254786 -0.0087346526 
  439000    251.85841    14748.156     3048.625    25.975339 -0.021422353  0.014410676  0.026223642 
  440000     247.9089    10072.328     3048.625    25.674122  0.023210051 -0.014988425 -0.0019949819 
  441000    238.34044    10187.574     3048.625    27.488732 -0.026369026 0.0023758379  0.038449692 
  442000    253.17405    10964.546     3048.625    27.494405 0.0078277359  0.014076764  0.049192314 
  443000    248.60358    9655.4055     3048.625    27.318398 -0.0081227778 -0.0024590516 -0.017621694 
  444000     265.9955    3107.9724     3048.625    29.688992 -0.003628949  0.018719127 -0.052762201 
  445000    253.51368    9962.7661     3048.625    33.828691 -0.023604049 -0.0026883642 -0.0018524379 
  446000    215.29051    12032.471     3048.625    31.892301 -0.00090121528 -0.011238619 0.0025754409 
  447000    251.20256    6996.6034     3048.625    25.559181  0.032067089  0.033205692  0.018005782 
  448000    225.56753     15863.46     3048.625    22.224884  -0.01921422 -0.0021526652 -0.049803478 
  449000    241.02884    8529.5015     3048.625    23.351809 -0.013705116 0.0060436055 0.0045004097 
  450000    266.00813    4554.7892     3048.625    25.219465 -0.018876678  0.028953702 -0.0024180366 
  451000    259.25325    7461.0295     3048.625    24.190151  0.020619779 -0.0097617068 0.0035049954 
  452000    238.78211    9863.0642     3048.625    26.248929  0.015833706 -0.010988666  0.018079857 
  453000    259.74613    5300.6121     3048.625    32.964722 -0.016554333 -0.028831785  0.016871758 
  454000    268.41016    9202.6321     3048.625    35.857826 0.0011562995 -0.016671754 -0.0031180278 
  455000    232.69599    8645.8906     3048.625    34.079813  0.025971535 -0.0028706145 -0.019047006 
  456000    238.01474    7856.8213     3048.625    29.542771 0.0088635352 -0.0033555841 -0.028384204 
  457000    255.50855    4500.5007     3048.625    27.907868 -0.037517832 -0.0099300393  0.014714969 
  458000    259.67097     8948.733     3048.625    28.921348 -0.023139082  0.039268312 -0.019470945 
  459000    235.75837    12820.698     3048.625    30.498977 -0.012026978  0.025305729 0.0093506688 
  460000    235.97924    5479.1286     3048.625    31.009361 -0.0086159669 -0.0030314483 0.0056198942 
  461000    255.26861    7423.6199     3048.625    31.592591 0.0089655593 0.0078907614 -0.0012902636 
  462000    251.94529    5214.2321     3048.625    32.488288 -0.003295039 0.0082145929 -0.033362852 
  463000    263.26057    4015.2789     3048.625    31.795786 -0.026088684 0.0037463058  0.010081028 
  464000    263.43629    5666.6015     3048.625     29.47962 0.0042632389 -0.0057930044 -0.016126911 
  465000    270.11292    3010.2825     3048.625    23.501146 -0.021665861 -0.0049397397 0.0014388912 
  466000    254.13673    6008.5508     3048.625    17.289133  0.031668042 0.0088435721  0.017877955 
  467000    237.89492    9464.7772     3048.625    17.434857  0.024048743  0.019154182  0.017980565 
  468000    257.49249    3140.3877     3048.625    22.279472 0.00019198879 -0.0011471148 -0.019817404 
  469000    265.19876    12566.417     3048.625    25.128924 -0.0023645705 -0.019407957  0.011823098 
  470000    238.12077    11226.069     3048.625    25.345842 -0.015308157  0.038419611 -0.036305723 
  471000    257.37785    2082.8432     3048.625    24.731306  0.017666407 -0.0045519042  0.018362578 
  472000    239.53479    9986.8657     3048.625    25.190196  0.012123477 -0.017959175  0.014711598 
  473000    249.08922    11211.213     3048.625    28.546746 -0.021913191  0.028489401 0.00010418934 
  474000    258.36436    4291.1582     3048.625    32.221126 -0.0072242562 -0.030729948 0.0089403671 
  475000    219.26404    9682.4335     3048.625    32.683736 -0.002888948 0.0053417097 -0.033640344 
  476000    259.56457    4275.1112     3048.625    28.979773 0.0040890797 -0.012787802 -0.0014785113 
  477000    259.88505    5546.9635     3048.625     23.37063 0.0070403366  0.019545925  -0.02317501 
  478000    250.88304    5433.1916     3048.625    22.028892 -0.0018088555 0.0049984877 -0.025792088 
  479000     274.9009    3527.5326     3048.625    27.208507  0.017849417  0.041242807 -0.050380807 
  480000    274.56402    8792.1909     3048.625    29.176553  0.039705682  0.013516132  0.018865527 
  481000    255.47787   -1677.7878     3048.625    27.762172  0.017653062  0.018405847  0.017894902 
  482000    241.90505    12068.286     3048.625    29.366183 -0.0027523925 -0.0039422062 0.0064280713 
  483000    262.43419    6749.2113     3048.625    30.281034 -0.0058173222 0.0036039215 -0.0054392709 
  484000       257.74    684.93305     3048.625    27.433478 -0.0019175725  0.018175632 -0.0012791064 
  485000    234.85526    11580.374     3048.625    23.635601  0.013811036 -0.0016978349 -0.0058106134 
  486000    246.74411    8220.4787     3048.625    21.867199  0.002240691  0.018887651 0.00017545311 
  487000    251.03364     1315.493     3048.625    22.834065  0.011532743 0.0075404073  0.010519602 
  488000    220.25679    6013.8599     3048.625    26.177817 0.0067846323 -0.029498916  0.027481766 
  489000    248.26829     10256.01     3048.625    30.174554   0.01700145 -0.014110545  0.011819192 
  490000    242.01747    6726.8752     3048.625    32.774239 0.0063365959  -0.01717125    0.0399309 
  491000    234.49781    10328.041     3048.625    32.654654 -0.012713689 -0.024024464 -0.001082748 
  492000    236.64894     8156.684     3048.625    31.496561   0.00449845  0.028360234  0.022716872 
  493000    242.37951    4159.1232     3048.625    26.878458 -0.0080154548  0.017204046 -0.0097655826 
  494000    244.88476     12484.08     3048.625    22.655905  0.025273387 -0.012370384 -0.0034769793 
  495000    257.70063    3772.5894     3048.625     20.77627 -0.0020127714 0.0023743337 -0.0028219806 
  496000    253.83439    2726.6674     3048.625    21.594794  -0.01177375 -0.0024175936 -0.040250229 
  497000    257.39567    7384.0844     3048.625    25.508896 -0.032368942 -0.012573952 -0.011844396 
  498000    242.98634     5269.724     3048.625    31.022323 -0.027667597 -0.032144673 -0.0028647331 
  499000    275.56378     2363.657     3048.625    34.992844  0.022298653 -0.011535991  0.022648059 
  500000    254.44129    8382.0949     3048.625    33.210026  0.015093952 0.0083124866 -0.010673461 
  501000    250.82593    7538.6866     3048.625    30.217528 -0.0070575397 -0.032969203  0.042992083 
  502000    255.77456    518.87741     3048.625      29.8504 -0.0032192297 0.0021517111 0.0067362822 
  503000    259.78301    9663.8371     3048.625    32.173914  0.038087638 -0.014275767 0.0041306949 
  504000    238.00584    5226.2711     3048.625    35.186409  0.028263608 0.0079894216  0.013577432 
  505000     243.9061    10599.808     3048.625    33.619005  0.010008691 -0.016635649 -0.013211092 
  506000    244.31282     5002.839     3048.625    30.713852 -0.015054886 0.0073996293 -0.0020737468 
  507000    247.18345    10396.909     3048.625     29.96444 -0.017901923 0.0020374664 -0.004759313 
  508000    250.44489     8127.693     3048.625    31.258199 -0.024700579  0.063555742  0.023637281 
  509000    236.31652    7208.9962     3048.625    32.216987   0.02011843  0.021894342  0.040115646 
  510000     247.7085     3272.618     3048.625    32.624058  0.048015631  0.016246254 -0.0096741624 
  511000    249.38838    12214.917     3048.625    34.097671 0.0098527493 0.0077427745 -0.0040518048 
  512000    253.63526    5601.4461     3048.625    34.862918 0.0039055277 0.0015041722 0.0089182818 
  513000    259.19417    -2195.102     3048.625    33.879724  0.024751007 0.0033670664 -0.0027242563 
  514000    258.56692    10137.233     3048.625    33.493507 0.0091430067  0.023404723 0.0064660352 
  515000    261.65241    2110.9379     3048.625    33.425242  0.013989255 -0.0076251415  0.033282029 
  516000    240.41346    8202.3801     3048.625    32.892126  0.028675474 0.0056873018 -0.0056649723 
  517000    241.42064    8376.2703     3048.625    31.891475 0.0011048622 -0.0076198979 -0.0014559288 
  518000    255.94057    4837.7407     3048.625    31.662239  0.030344117 -0.031606848 -0.012119081 
  519000    259.54062    2498.0484     3048.625     32.02867 -0.0072995781 0.0027919563 -0.026545654 
  520000    267.48123    1178.3241     3048.625    32.966759 -0.018725787 -0.022911192   0.01215483 
  521000    269.37735    4690.9825     3048.625    33.582695  0.030212974  -0.01226799 0.0084842166 
  522000    252.80629    6133.8327     3048.625    32.620753  0.051024605 0.0043987998 0.0060658008 
  523000     274.1442    4291.9964     3048.625    30.124221  0.018156143 -0.025010994 0.0035624732 
  524000    248.89507    3831.9381     3048.625    28.602332 0.0095090221 -0.032128769 -0.017364363 
  525000    267.36978    9445.0038     3048.625     29.45958 -0.021109515 -0.016998734  0.015709981 
  526000    243.61816    11595.593     3048.625     30.26735 -0.0082542977 -0.017499375  0.012480719 
  527000    249.25822    1748.2523     3048.625    28.750964 -0.0076160542 -0.031605323 0.0080896834 
  528000    264.04025     4964.276     3048.625    28.010231 0.00065263402 -0.014324514 0.0076435897 
  529000    245.62741    12559.093     3048.625    30.511794 -0.0040944738  0.028797916 -0.026946139 
  530000    224.35227    6375.1552     3048.625    31.990129 -0.0080925406 -0.011024411 0.0031988593 
  531000    241.82926    9255.7157     3048.625    31.390088 -0.016227362 -0.026229778   0.02418605 
  532000    238.54092    9598.1936     3048.625    32.030078 0.0068827917  -0.03190671 -0.034833672 
  533000    247.97045    7812.0796     3048.625     33.57202 -0.0041121843 -0.014112269 -0.0033410044 
  534000    262.26389    13097.228     3048.625    33.504083 -0.038899299  0.032660752 -0.030465148 
  535000    228.65408    6846.8769     3048.625    32.067668 -0.011082479 0.0073174407 0.0079683315 
  536000    250.68209    7827.6609     3048.625    30.520654 -0.011067632 -0.011445491  0.032425399 
  537000    269.28087    6470.8406     3048.625    27.074174  0.011074262 -0.0098812131 0.0025415036 
  538000    256.42847    2376.4981     3048.625     24.25463  -0.01106096 -8.2515049e-06  0.014999071 
  539000    214.19134    13440.046     3048.625    26.103872 -0.0072216916 0.0094285439 -0.0053902391 
  540000    233.61747    8230.9565     3048.625    27.661218 0.0044020751  0.021525948  0.010790187 
  541000    236.13709    10899.439     3048.625    26.507778 -0.0037859711 -0.035720633 -0.0056924496 
  542000    234.64003    11371.183     3048.625    26.716016  0.021089745 -0.024899301 -0.010230326 
  543000    239.63198    11506.682     3048.625    27.734948 -0.032901741 -0.029588939   0.02755651 
  544000    233.79232     3751.746     3048.625    30.052944 -0.0069736718   0.01341508 0.0047861884 
  545000    247.36073    12685.539     3048.625    30.650788 -0.0021146851 0.0068066036 0.0086398769 
  546000    268.99308    28.428565     3048.625    30.450815 -0.0075679736  0.014607286 0.0051103203 
  547000    230.37819    8821.9781     3048.625    30.737491  0.026927387 0.0062286045  0.011118988 
  548000    248.48929    11556.441     3048.625    30.262172 0.0077076876 -0.0044632024  0.016718084 
  549000    265.09443   -9519.8893     3048.625    28.955623 -0.016377921 -0.050115029 -0.019522172 
  550000     249.9844    12212.406     3048.625    28.155257 -0.022099214 0.00082939042 -0.020289339 
  551000    240.48322    14131.659     3048.625    28.516303 -0.033061431 -0.0011085209 -0.030826999 
  552000    253.89018     5806.963     3048.625    29.489429  0.017571442  -0.01493176 0.0015130418 
  553000    238.72823    7894.6763     3048.625    31.743564 -0.020202154 0.00015833112 0.0060374327 
  554000    252.93352    8506.3682     3048.625    32.883612 -0.0031737155 -0.027205147 -0.0075016831 
  555000    242.64629    9908.7682     3048.625    31.916114  0.024558747  0.010823327 -0.033733587 
  556000    233.48091    7528.2374     3048.625    31.785098  0.012337078 0.0085762623 -0.010244586 
  557000    240.34967    8928.0523     3048.625    33.343646 0.0081559508  0.018687257 -0.014259831 
  558000    245.17707    10231.683     3048.625    34.394448 -0.004687521  0.029494195 0.00092814727 
  559000    232.37964    1411.9098     3048.625    35.457429 -0.012222118  0.020642254 0.0015275066 
  560000    246.27528    6242.4587     3048.625    35.151149 -0.023068513 -0.0090200854  0.014104123 
  561000    276.42188    7538.6943     3048.625    31.994684  0.014812733  0.031701922  0.034417987 
  562000    251.39469    11721.451     3048.625    28.130928 0.0092089793 -0.0079450264 0.00050712982 
  563000    261.79468   -4710.4319     3048.625     24.82524  0.004647225  0.008415024 -0.031587719 
  564000     257.0156    9456.1118     3048.625     24.14655 0.0047807658 -0.0049010499 -0.031734421 
  565000    251.25537    6374.4979     3048.625    27.497268 -0.021528921 -0.025036908 0.0086304497 
  566000    245.07962    5223.3571     3048.625    29.396978 -8.1472513e-05 -0.0096830497 -0.018681374 
  567000    255.36837    10019.639     3048.625    28.180438 -0.025785432  -0.01637503  0.035977936 
  568000    254.46023    3559.7898     3048.625    26.025568  0.018224661 -0.027078173 -0.036497516 
  569000    250.83619    8406.9226     3048.625    25.422362  0.025928834 0.0089577557  0.026695639 
  570000    249.88649    9991.3636     3048.625    26.522603 -0.029901772  0.011493878  0.001024228 
  571000    250.23587    11139.913     3048.625    26.025586 -0.026278249 -0.013922132 -0.0011906904 
  572000    260.24959    4673.1998     3048.625    28.363302 0.0053461268 -0.0028467537 -0.0070770353 
  573000    252.68756    8706.0378     3048.625    30.997628 -0.010186406 -0.060782866   0.01470939 
  574000    231.27297    5578.6962     3048.625    31.574279 -0.0095559184 -0.028351126  0.016340887 
  575000    270.23201    4516.6453     3048.625    28.995503 -0.027088073 0.0092748947  0.022743358 
  576000    238.77855    17479.769     3048.625    25.582069 0.0063300239   0.02106011 -0.0084089673 
  577000     251.2573   -2598.3234     3048.625    25.121333 -0.017113438  0.027988575 -0.027790893 
  578000    266.70089    3005.3031     3048.625    29.300272  0.010444155  0.012495657  0.035295317 
  579000    246.17817    10569.805     3048.625    32.749907 0.0019704914 0.0058765897  0.021002245 
  580000    262.69889    5292.2999     3048.625    31.034758 -0.056796972 -0.0017793779 0.0022049877 
  581000    270.75321   -2891.9658     3048.625    27.918883 -0.024127363 -0.007564362 -0.014387468 
  582000    250.94035    7815.4001     3048.625    29.704733  0.041090822  0.021407926 -0.0079257568 
  583000    254.35419    10634.343     3048.625    32.825962 -0.012774752 -0.006468747 -0.0021907522 
  584000    265.44124    4801.6023     3048.625    32.451021 0.0058144416 0.0032530464 -0.015002808 
  585000    253.40695   -3371.0517     3048.625     27.40934 -0.020425846 -0.015248304 -0.0016262792 
  586000     245.6952    15433.876     3048.625     25.10372 -0.022625484 0.0028489799  0.045812037 
  587000    241.77975    7020.6879     3048.625    30.113084 0.0011387117 -0.010770648   0.04935722 
  588000    244.71672   -602.57663     3048.625    35.498219 -0.0078729635 0.0090713899 -0.0021300259 
  589000    252.50687    6272.1343     3048.625    32.957487 -0.0015267188 -0.018690158 -0.0059284327 
  590000    244.47892    8817.8515     3048.625    28.967379  0.010708457 -0.0074396765   0.00836996 
  591000    250.64558    6120.3641     3048.625    31.550027 -0.016300122 0.0045756739   0.03253992 
  592000    247.21887    5856.0939     3048.625    34.990355  0.016787651 0.0037485172  0.010287633 
  593000    246.17133    8472.4525     3048.625    32.749157  0.023473031 -0.0028070695 0.0081580657 
  594000    243.65483     10129.75     3048.625    26.875779 -0.032839389 -0.017731755 -0.017670699 
  595000    252.90216    5186.3391     3048.625    23.589775  0.050151621 0.0024875788  -0.01383747 
  596000    267.66888     663.8869     3048.625    24.326261 0.0016993135 -0.014371469 -0.013069599 
  597000    254.40968     1285.968     3048.625    26.805313 0.00054499359 -0.0023777233 0.0029065408 
  598000    251.31974    8313.8627     3048.625    28.348867 -0.022185096 -0.0051986318  0.009405911 
  599000    256.49521    1844.5265     3048.625    29.656351  0.037739726 -0.025595674 -0.011476155 
  600000    231.64359    8259.5911     3048.625    31.237766  -0.01748365  0.012470759 -0.011701554 
  601000    264.49429    1609.2417     3048.625    28.493256 -0.013822292  0.012974958 0.0054622832 
  602000    253.40852    9476.0849     3048.625    24.763752 0.0051861157  0.027806077  0.023171275 
  603000     248.3179    4354.3106     3048.625    26.314285  0.007302767 -0.047444904  0.014541971 
  604000    248.92187    2772.7041     3048.625     29.57063 0.0048077951 -0.034368886 0.0097987039 
  605000    236.68196    9227.7983     3048.625    28.686622  0.011244109  0.013638331  0.024420769 
  606000    243.26767    3137.3918     3048.625    27.687325     0.032322   0.03198628 -0.015151667 
  607000    241.28414    9405.8459     3048.625    31.901388 -0.020439316 -0.015675768 -0.0079893095 
  608000    240.21027    4843.1009     3048.625    35.957225 -0.020283941  0.016432123 -0.015188309 
  609000    250.29063    12340.546     3048.625    33.764643 -0.018963969 -0.021438228 -0.0021558074 
  610000    251.99834    5971.3644     3048.625    29.600606 -0.0061027226 -0.043679696 -0.017129416 
  611000    260.01523    2807.3522     3048.625    26.968175 -0.025668484  0.015285262 -0.0010711211 
  612000    231.50346    11285.177     3048.625    28.810402   0.02914137 -0.0069579697 0.0023124251 
  613000    257.21633    11670.789     3048.625    32.653239 -0.0022103598 -0.013689404 -0.015667445 
  614000    241.53003    2945.6989     3048.625    31.443292 -0.0026666995 -0.025472338  0.012377595 
  615000    242.20961    8491.7442     3048.625    28.186288  0.018863438 -0.012258931  0.014665954 
  616000    235.39642    8470.7504     3048.625    27.298945 -0.0036737522 -0.0069678685 0.0082423889 
  617000    229.05509    7901.9655     3048.625    28.939834  0.011394311 -0.023974988 -0.0080256216 
  618000    255.53186    7265.4362     3048.625    31.792625  0.025684744 0.0022831343  0.015413569 
  619000    271.16833    5156.7627     3048.625    31.191942 -0.012209039  0.033211931 -0.028503924 
  620000    249.28313    1577.2407     3048.625    27.966129  0.020061705  0.011310258  0.026934817 
  621000    268.26106    7887.1578     3048.625    24.616562 -0.026535533  0.033969301 -0.0032074544 
  622000    244.46607    7987.0219     3048.625    24.605719   0.02739412 -0.019343425 -0.0026069178 
  623000    248.53224    5136.8894     3048.625    28.630588 -0.0012636115 -0.0080176149 0.00042261492 
  624000    220.51248    13699.883     3048.625    31.493135  0.014649638 -0.0058228803 -0.010809567 
  625000    229.45172    12182.947     3048.625    32.722626 -0.014530734  0.015655639  0.018082203 
  626000    224.74947     10167.85     3048.625     32.37227  0.022348897 0.0026612222 -0.011011431 
  627000    228.70312    9396.5045     3048.625    29.615678 0.0018015335  0.010350428 -0.0075193136 
  628000    239.42393    11234.948     3048.625    25.455136  0.033557336 -0.027272947  0.011626662 
  629000    246.76471    5435.4439     3048.625    22.950444  0.026168592 -0.014250232 -0.011138618 
  630000    250.79242    6938.2485     3048.625    21.258979  0.034827967  0.015615752  0.018048667 
  631000    255.17978    7242.1818     3048.625    24.902423  0.013568253 -0.037571347 0.0057818433 
  632000    259.16689    10992.935     3048.625    30.527521  0.033547983  0.031606732 -0.004083047 
  633000    247.45246    4860.7744     3048.625    32.125894  0.029911418 -0.0011801243 0.0091095969 
  634000    233.32574    12854.003     3048.625    31.806786 -0.014538891 -0.0062679967 -0.014501353 
  635000     213.9188    4045.0417     3048.625    30.161775 0.0075757298 -0.0052486818 0.0078323542 
  636000     232.8917    16410.054     3048.625    30.182625 -0.033801027  0.048077651  0.020447044 
  637000    249.86169    10435.203     3048.625    32.399476 -0.024378859  0.020499956  0.033145574 
  638000    255.55814    4999.2254     3048.625    31.002762  0.016128038 -0.019010816 0.0071283998 
  639000    249.48081    9267.1651     3048.625    26.564613 -0.0032428024 -0.0065671434 -0.017094338 
  640000    240.20971    6376.2987     3048.625    23.114217 -0.017269964 -0.022496719 -0.044943316 
  641000    241.58659    5593.6586     3048.625    23.356658 -0.0046968393 -0.0021822208 0.0095409621 
  642000      238.158    5786.5822     3048.625    27.197142 4.4696878e-05 0.0071139201  0.025035252 
  643000    214.74417    1713.8658     3048.625     28.74291 0.0039411009 -0.0088810846 -0.041308128 
  644000      229.009    18405.966     3048.625    30.087927 -0.017870161  0.021754807 -0.012476906 
  645000    257.13605    7608.2298     3048.625    29.002699 -0.064465401  0.014628102  -0.00963029 
  646000    234.63896   -1291.7859     3048.625    27.535277 -0.026470591 -0.020726002  0.033812708 
  647000    227.73623    16907.188     3048.625    28.047649 -0.00084042294 -0.0031459921  -0.01718997 
  648000    245.03668    6720.0316     3048.625    27.343032 -0.039170805  0.013259127 -0.0068173146 
  649000    251.27173    5858.2874     3048.625    27.541559 -0.0037812617 -0.0029596855 -0.013141407 
  650000    246.99043    11021.364     3048.625    28.844267 0.0099087924 -0.0039991628   0.00142756 
  651000    233.43552    10799.549     3048.625    31.940655  0.026272394 -0.006404942 -0.017351433 
  652000    249.26167    3492.3487     3048.625    34.983116 -0.0075772473 0.0088085855 -0.0092889497 
  653000    264.97697    5454.2997     3048.625    36.063666 0.0027352499 -0.0026257581 -0.0044983213 
  654000    229.80386    9659.4118     3048.625    34.522155 -0.0006613824 0.00066641003  -0.03279893 
  655000    236.29514    9092.8366     3048.625    29.386476 -0.019173917  0.017600693 -0.013654776 
  656000    232.62987    4754.4346     3048.625    23.717071 -0.035372589 -0.018782952  0.011629998 
  657000     243.9093    6997.8192     3048.625    21.241473 0.0016288749 -0.026080457 -0.0027410371 
  658000    250.94942    6903.4479     3048.625    19.860043  0.013704967 -0.0077606711 0.0092818215 
  659000     256.0493    6847.8526     3048.625    19.636704 0.0095921614 0.0040185327 -0.010547395 
  660000    260.80421    13384.897     3048.625    20.642772 -0.0082723071 -0.015211168 -0.027088603 
  661000    206.02239    3708.3196     3048.625    22.878969  0.018335287 -0.013932499 -0.066815908 
  662000    256.08145    4292.0197     3048.625    25.259506 -0.0028897092 0.0054254266  -0.02151985 
  663000    247.18731    18015.834     3048.625    26.061995 0.0096027128  0.010562587 -0.019019126 
  664000    266.32234   -582.56312     3048.625    21.845705  0.020116705  0.014570423 -0.0059723038 
  665000    267.39782    3047.3961     3048.625    18.515016 -0.011404415 0.0051643622  0.017116738 
  666000    248.30555     9338.239     3048.625     20.80463  0.011103118  0.029478285 0.0078547951 
  667000    258.83196    7357.6141     3048.625    25.970796   0.01626536 -0.018996344  0.009709927 
  668000    269.57384   -298.70287     3048.625    32.517917  0.041265313 -0.017705944 -0.0021530147 
  669000    250.21754    6949.7678     3048.625    36.349517 0.0062740112 -0.023022497 0.0065470279 
  670000    237.72639    7900.8976     3048.625     33.83428  0.016020912  0.010235206 -0.023980272 
  671000    244.38104    8169.4461     3048.625    27.880556 0.0053062806 -0.016333354 -0.031556805 
  672000    255.42183    3323.7269     3048.625    24.597033  0.034908972  0.010154103 -0.013368105 
  673000    246.78103    4063.3273     3048.625    24.228923 0.0018801944 -0.0056410202 0.0037863686 
  674000    244.52624   -469.05379     3048.625    28.006856 0.0055203749 -0.028574724  0.032462187 
  675000    235.39103    19760.151     3048.625    32.408257 0.0081573986 -0.015832971  0.022674368 
  676000    246.85287    2849.0102     3048.625    35.654764 -0.0034148641 -0.0088307677  0.002453829 
  677000    248.42356    5801.3166     3048.625    34.919238 -0.047250968 -0.028813096  0.022815563 
  678000     247.7615    9833.7465     3048.625    31.924901  0.013594032 0.0066444411 -0.039142249 
  679000    255.07805    3209.8815     3048.625    28.151137 -0.015477861 -0.020384936 0.0057303578 
  680000    245.95494     4438.083     3048.625    25.369296 -0.042098077 -0.0055804892 -0.041212975 
  681000    237.69382    15586.454     3048.625    28.065571 -0.020714906 0.0092740605 0.0059123951 
  682000    233.67106     2372.879     3048.625    32.309916 -0.0068289311  0.022825172 0.0091626668 
  683000    239.18649     4996.261     3048.625    34.129572  0.015200486 0.0017651891 -0.0013512515 
  684000     259.7008    11017.379     3048.625    33.163959 0.0050506221  0.017404094 -0.014376843 
  685000    248.48776    3472.8001     3048.625      29.4826 -0.013919681  0.017861287  0.019960574 
  686000    265.92085    2900.1822     3048.625    24.611077 0.0058067588 0.0032344282 0.0091835451 
  687000    253.39085    6312.6412     3048.625    21.815554 -0.020898144 0.0073308857 -0.022836423 
  688000    251.67263    9080.7729     3048.625    22.760843 -0.00025359257  -0.01246804 -0.013200068 
  689000    261.49964    2985.0619     3048.625    27.459947  0.022740911 0.0092873885 -0.024336424 
  690000    247.30723     9211.827     3048.625    31.615514 -0.0069484596  0.011282209 0.0069611921 
  691000    239.75892    4888.5249     3048.625     31.21111 0.0037586913  0.018760171  -0.02704962 
  692000    243.33829    8167.5978     3048.625    27.615964 -0.003595382 -0.023283565 0.0040192568 
  693000    258.68568    2126.3935     3048.625     25.93396  0.012019033 0.0086358072  0.010236994 
  694000     257.8351    4449.0971     3048.625    27.557477 0.0092065626 -0.0039601003 0.0034812506 
  695000    236.05132     9199.265     3048.625    30.554253  0.026732431 -0.014747748  0.022824085 
  696000     247.3031    2952.2377     3048.625     33.14797 -0.010972836 0.0031679743 -0.0069368281 
  697000    250.12726    4517.2022     3048.625     33.73204 0.0041851389 -0.032302294   0.03281355 
  698000    229.14485    10621.113     3048.625    32.251688 0.0013564207 -0.011813808 0.0024473494 
  699000    211.47242    14228.898     3048.625    30.922283 -0.0021736018   -0.0259303 -0.044096664 
  700000     221.3032    5626.8241     3048.625    31.458961 -0.0053550687 -0.022868026 -0.025926437 
  701000    240.29508    11068.033     3048.625    32.931138   0.01199587  0.015341251 -0.014030465 
  702000    227.33791    15579.607     3048.625    33.160131  0.025760203 -0.019111689 -0.0020549468 
  703000    227.12063   -487.04703     3048.625    32.084421 -0.010350767 -0.026223125 -0.0030661444 
  704000    240.82271    8233.5925     3048.625    31.567547 -0.039709719 -0.027630043 0.00069379904 
  705000    251.11858    11501.471     3048.625    32.110578 -0.0067525793 -0.047990915 -0.012149583 
  706000    253.92077    1944.5741     3048.625    31.950503 -0.00021420592 -0.036297471 -0.021366721 
  707000    246.45382    6554.9937     3048.625    31.375602  0.019094642 0.00090769315 -0.022738022 
  708000    247.44533    9667.1644     3048.625    29.637206 -0.0035645576 -0.010040371 -0.0035769046 
  709000    249.43942    5843.6564     3048.625    26.961157 -0.0098459846 -0.012360618 -0.0076512268 
  710000    244.04761    8068.8224     3048.625    25.265619  0.027229416 -0.018856489 0.0061723304 
  711000    250.08276    7419.6446     3048.625    25.595145 -0.038863765 -0.0093358951 -0.013656352 
  712000    247.95323    5205.7905     3048.625    27.352073 -0.0016579494 -0.0099671192 -0.0025850969 
  713000    236.07801    10622.902     3048.625    27.999729 -0.0093638592 -0.026288364 -0.011199953 
  714000    237.50203    6065.0219     3048.625    26.599874  0.020722279 -0.025818072 -0.0050306939 
  715000    254.45822    5113.6851     3048.625    28.412707   0.01360452 -0.0071670515 0.0046405328 
  716000    241.39233    12189.591     3048.625    34.407175 -0.0046128219 0.0026175699   0.02690153 
  717000      238.846   -1047.2417     3048.625    36.059512 -0.018766921 -0.0017534733 0.0068727643 
  718000     254.5594    6984.1839     3048.625    30.805867  -0.02335767 -0.001889373 -0.012796851 
  719000    242.63525    17610.474     3048.625    26.252151 0.0044295776   0.01313674 0.0069003999 
  720000    252.11356   -25.544405     3048.625    28.684135 -0.019675022 -0.025202738  0.017435367 
  721000    257.55521     2862.734     3048.625    34.847728 -0.015077377  0.039146037 0.0032386683 
  722000    245.48264    13816.113     3048.625    34.831197  0.010558862  0.014389153 0.0082274615 
  723000    243.87313    2355.7709     3048.625     28.05041  0.021383327 -0.0073598823 -0.017018421 
  724000    242.28481    5623.9855     3048.625    25.551102  0.014716453 0.0050823502  0.001296082 
  725000    251.22498    5661.4996     3048.625    30.711057  0.029180381 -0.018119202 -0.037272442 
  726000    258.87308    2107.1097     3048.625    33.873583  0.010861643 -0.0057934458 -0.0022798608 
  727000    245.53022     4954.099     3048.625    30.693697 0.0046068489 0.0062429425 -0.016936786 
  728000    222.88138    14370.896     3048.625    26.385798 -0.024732283 0.0063926001  0.046577773 
  729000    231.52519    8381.4611     3048.625    24.849125 -0.00065524525 0.0059324876  0.069250144 
  730000    256.17786     1390.942     3048.625    28.501479 -0.0086731395  0.026091791 -0.023514641 
  731000    233.57115    12196.932     3048.625     31.81806 -0.024020268  0.030429793  0.002172519 
  732000    249.54278    3748.4061     3048.625    31.315893   0.01840005 0.0087155963 -0.013807231 
  733000    257.26243    5159.6805     3048.625    28.409243 0.0021840683  0.012636573 0.0092863815 
  734000    249.84457    10191.566     3048.625    27.134168 -0.012425297 0.0082723542  0.055390746 
  735000    254.68395    5502.9129     3048.625    29.930622 -0.011147121  0.006953024 -0.0079051229 
  736000    254.34289    4170.4898     3048.625    32.436834 -0.00068620015 -0.050459043 -0.0045226394 
  737000    245.66651     8164.676     3048.625    31.629449 0.0028203992 -0.031672107 0.0080433386 
  738000    249.16189    5879.4441     3048.625    28.554795 -0.036146898 0.0085840429  0.019074508 
  739000    260.85481    9336.0606     3048.625    25.608322 -0.026882821 -0.019283684  0.012602663 
  740000    233.46146    4376.9174     3048.625    24.262089 -0.011212699 -0.0026928364 -0.032660058 
  741000    244.09103    2499.1632     3048.625    26.998317  -0.02858392 0.0098582647 -0.040829409 
  742000    251.30901    12455.953     3048.625    32.276692   0.01426836 0.0077219782 -0.028690333 
  743000    243.82763    6723.3154     3048.625    33.992645 -0.0074605199  -0.01271892  -0.01141155 
  744000    244.32172    7703.4551     3048.625    29.938517  0.016191842 0.0098135535   0.05715081 
  745000    246.07358    7637.6978     3048.625    25.532595  -0.01775102 0.0019837667 -0.020059734 
  746000     224.9247    12062.833     3048.625    22.704612 -0.022076787  0.011659976 0.0023617452 
  747000    241.57013    5917.0027     3048.625    23.640659    0.0160937 0.0072740605  0.013888097 
  748000    247.87347    2052.2378     3048.625    26.477711 -0.0094454653 0.0059317415  0.030164886 
  749000    242.35537    10095.036     3048.625    26.345574 0.0031237683 -0.0047988324 -0.0074432017 
  750000    246.68245    7187.9439     3048.625    22.735513    0.0116852  0.010180954  0.030427484 
  751000     253.5913    4985.3389     3048.625    17.485275  0.031358099 -0.00092856039 -0.024012725 
  752000    244.68977    11536.509     3048.625    15.940183 -0.011611613   0.03524219 -0.013836026 
  753000    234.19323    14102.323     3048.625    19.513464  0.014255875  0.030912562 -0.0089798946 
  754000    240.29998    5236.3839     3048.625    25.236943 -0.022949594   0.02057532 0.0042291561 
  755000    238.06354     6045.218     3048.625      28.4939 -0.027170001  0.013179665 -0.0052164295 
  756000    241.03829    8723.2089     3048.625    29.122378 0.0027846258  0.013775089 -0.029210734 
  757000    248.67424    3755.5294     3048.625    28.690298 -0.021988708 -0.0071000909  0.031029232 
  758000    248.39175    8297.1931     3048.625    28.570964 -0.017943884  -0.03257601 -0.029924461 
  759000    234.56645    9049.4111     3048.625    32.100498  0.027827936   -0.0120288 -0.019249104 
  760000    225.54548     12785.18     3048.625    34.183578 -0.027101272  0.009353989  -0.01147442 
  761000    215.48359    8018.4005     3048.625     32.99515  0.014286677 -0.030559203 -0.0097935738 
  762000    230.97856     10882.95     3048.625    30.500662 -0.020357132   0.01398727 -0.0013993094 
  763000    237.28165    7957.0044     3048.625    28.435776  0.013950209 -0.0051632485  0.013679763 
  764000    249.92149    3232.6575     3048.625    23.770689  0.018628323 -0.0051218323 -0.020699587 
  765000    272.57196    4385.8482     3048.625    21.508785   -0.0388095 0.0059729482 -0.0069305096 
  766000    227.15043    10390.234     3048.625     25.31136  0.022391121 -0.017774743 0.00087065577 
  767000    248.64314    8841.9025     3048.625    29.298771 0.0058633416 -0.013887965 0.0047541115 
  768000    234.86141    11871.562     3048.625    32.161883 -0.012571173  0.004767753  0.014278356 
  769000    232.30584    5906.4358     3048.625     31.68499 0.00057185852  0.022107976  -0.02944829 
  770000    231.19386    11387.461     3048.625    30.296801 -0.013667784  0.024441224 0.0068248133 
  771000    231.90562    5771.4731     3048.625    29.583384 -0.021836835 0.0089141841  0.015979511 
  772000    235.32501    10358.999     3048.625    30.498496   0.01310563 -0.0006630078   0.01184777 
  773000    228.09567    6592.2766     3048.625    32.179499 -0.030943256   0.01373214 0.0098335271 
  774000    243.82838    8539.1712     3048.625    32.969687 -0.0098247979 -0.0050609374  0.016857477 
  775000    233.63013    11060.399     3048.625     32.24936 0.0017954565 -0.014255284  0.026496318 
  776000    240.12718    8346.2809     3048.625    32.545842  0.002108732 -0.0081869411 0.00013640438 
  777000    231.53262    8419.6916     3048.625    32.605231 -0.042378127 0.0081762617 -0.0045226094 
  778000    223.98411     12230.32     3048.625    32.096274 -0.019186257  0.035041119  0.010602975 
  779000    235.25426    7177.6298     3048.625    31.557734  -0.02017737 0.0050911921 -0.0077948991 
  780000    218.57455    9022.4541     3048.625    30.304502 -0.011999286 -0.0095501834  0.017929497 
  781000    242.66265    10836.859     3048.625    26.440102 -0.0055352811  0.020860461 -0.043639155 
  782000    239.01549    3262.2327     3048.625    24.612879  -0.02438419 -0.020124132 -0.0045761581 
  783000    258.87094    11882.493     3048.625    24.526264   0.02027589   0.00299816 -0.027517399 
  784000    250.21832    8253.4587     3048.625    26.247882 -0.0052926643 -0.0088908913  0.006393896 
  785000    225.71221    7242.9006     3048.625    28.202803 0.00069818224 -0.020730136  0.001545049 
  786000    248.75734    10156.134     3048.625    31.883841 -0.023759019 0.00047598321  0.001875722 
  787000    246.71792    4855.5143     3048.625    33.686658 -0.0094690787 -0.0053475419 0.0018722511 
  788000    243.07392    2581.5324     3048.625    34.379795 -0.0061311858 -0.013162528 -0.011244478 
  789000    238.97027    7155.2221     3048.625    35.596689 -0.0073451574 -0.002038077 -0.00028376212 
  790000    209.48803    12540.471     3048.625    35.499592  0.012459359 -0.0080799648 -0.0019368535 
  791000    229.23289    9079.0159     3048.625    36.002891  0.017638476 -0.0040648434 -0.0017690604 
  792000    253.12439    5281.3857     3048.625    34.884018  0.017674812 -0.018375411  0.014122904 
  793000    224.46879    6179.6886     3048.625    33.365551 0.00049876812  0.003826598 -0.012564166 
  794000    256.33279    1564.6478     3048.625    32.110468 0.0076309128 -0.0098163489 -0.016503209 
  795000    255.97012    7121.1364     3048.625    31.582934  0.024368248 -0.010767911  0.033417258 
  796000    234.36302    8757.9701     3048.625    31.016745 0.0085782148 -0.005713583 -0.025700948 
  797000    263.85003    744.87002     3048.625    30.930806   0.02245698 -0.044648102 -0.038079103 
  798000    247.25157    8402.3443     3048.625    29.040178  0.045992505 -0.013646442 -0.0067738839 
  799000    257.35178    9519.0504     3048.625    28.404011 -0.017590552  0.012081281 -0.0070588443 
  800000    231.66952    9843.9425     3048.625    26.091556 0.0046921966 -0.027714982 -0.0045028811 
  801000    236.43804    9572.4334     3048.625    24.038206  0.016753573 -0.0047449814 -0.0086844312 
  802000    256.59175    7605.7565     3048.625    25.272937 -0.0098913615  0.039589766 -0.026768562 
  803000    248.37552    -2990.075     3048.625    31.277224   -0.0212813 -0.0061657617 -0.034066943 
  804000    253.97501    10343.444     3048.625    35.641612  -0.00623336 -0.030026496 -0.017076697 
  805000    241.66415    13388.195     3048.625     32.33282 -0.0056650997 -0.018553359  0.027419293 
  806000    233.92692    -1328.142     3048.625     26.26461  0.024626666 -0.012850044 0.0045194653 
  807000    222.65152    302.36489     3048.625    21.445079  0.017489704 0.0092486998 0.0052543061 
  808000    256.88601    15625.397     3048.625    19.930816 -0.0090433802 -0.039787186 -0.0057968694 
  809000    258.60657    7943.2057     3048.625    19.140155  0.029893423  0.026299373 0.0050424022 
  810000    251.66869   -2862.3163     3048.625    18.865255 0.0058270916 -0.045228468 -0.013909175 
  811000    234.55106    16129.918     3048.625    20.822513 0.0055620046 -0.0004910025 0.0069322289 
  812000     242.2715    10172.897     3048.625    23.133787 0.0050539135 -0.021204583  0.025627133 
  813000    232.89055    5873.3566     3048.625    27.913828  0.020067936 -0.023659787 0.0062971859 
  814000    243.79223    7356.2672     3048.625    26.615557  0.015496112  0.036295703 -0.022100747 
  815000    225.59787     12739.41     3048.625     21.22713   0.01532253 -0.012004302  0.022999748 
  816000     250.3596    4684.5023     3048.625    16.641614 -0.0019527824 -0.0098920394 -0.0016901544 
  817000    245.75222    5717.2999     3048.625    17.345141 -0.016928531 -0.0097558535 -0.018365491 
  818000    242.87714    1298.4878     3048.625    20.664885 -0.027508989  0.015645224  0.007066407 
  819000     247.5727    10380.445     3048.625    24.446209  -0.03750986  0.043048072  0.006929322 
  820000    232.54987    11806.049     3048.625    25.586477 -0.0064774106  0.004177975 -0.0040875895 
  821000    229.09175    984.97246     3048.625    27.238283  0.014209174 -0.030505795 -0.0062713201 
  822000    258.58918    9400.3594     3048.625    29.362432 0.0021993668 0.0066136499 -0.0083916058 
  823000    252.92118    4285.4586     3048.625    30.965364   0.02200593  0.029198792 -0.0091142844 
  824000    240.94773    8062.1376     3048.625    28.942636 -0.012204895 -0.00053714736 -0.0079385066 
  825000    247.63793     1013.127     3048.625    26.134347  0.014255683  0.028411977 -0.034665267 
  826000    255.33986    7100.2457     3048.625    25.821927  0.010114851 0.0038851432  0.011297362 
  827000    248.93307    8192.2225     3048.625    29.074918 0.0047383807 -0.011275455 -0.031591841 
  828000    238.94324    9575.4408     3048.625    32.930933 -0.020595144 -0.0037045449 0.0022917434 
  829000    228.67596     11429.53     3048.625    34.255392  0.042091806 -0.011410912 -0.029793594 
  830000    236.29531    8260.0465     3048.625    34.126758 0.0025807745 -0.012755572 -0.012813987 
  831000    240.72387    4927.8147     3048.625       32.437 -0.018733586  0.018095806  0.015199096 
  832000    233.05897    7438.4032     3048.625    31.104727  0.024711255  0.024925345 -0.001733989 
  833000    234.93451    9162.4502     3048.625    31.285712 -0.0022174321  0.018636182 -0.00055151185 
  834000     244.3182    9394.9184     3048.625    31.988018 -0.035605941  0.031679212 -0.0062927257 
  835000    254.68131    3381.7293     3048.625    32.770056 -0.0034406281 -0.013588363  0.026279492 
  836000    263.72805     7173.886     3048.625    31.996223 -0.014275428 -0.024819451 -0.012844537 
  837000    247.03771    5561.1228     3048.625    30.511686 -0.0081129688 -0.031607685 -0.0032974575 
  838000    262.16333    3001.9635     3048.625    29.324454  0.030837076 -0.043080046 -0.033465011 
  839000    244.69417    8190.6894     3048.625     28.34015 0.0080863269 -0.026203489  0.012325564 
  840000    236.64362    3679.7927     3048.625    29.586548  0.030417698  0.011969229 -0.00046234619 
  841000     251.6514    7752.4299     3048.625    32.375528 -0.0056333048 0.0013084765 0.0049383634 
  842000    241.72307     5364.137     3048.625    33.163059  0.010564274 -0.019766002  0.018271518 
  843000    229.09581    6696.2646     3048.625     31.68904 -0.012253311 -0.049885245 -0.0091282466 
  844000    233.97049    9190.0196     3048.625    30.177386 -0.0076871717 -0.0089311432  0.023588997 
  845000    225.09521    6351.5301     3048.625    27.435506 -0.0036325705 -0.019053556  0.035898829 
  846000    249.26633    4888.5269     3048.625    25.286358 -0.011895456  0.016512152 0.0095985619 
  847000    257.17553    7891.3833     3048.625    24.064319  0.025004042  0.014707863 -0.012454763 
  848000    235.78545    5020.4204     3048.625    24.420431  0.011628951  0.014198336  0.025206314 
  849000    240.22263    5960.0361     3048.625    26.144568 0.00031991907  0.015083141  0.012290341 
  850000    229.51359    7736.9472     3048.625    26.197018  0.012437711 0.0013368351   0.01652623 
  851000    241.76349    8942.9153     3048.625    26.368449 0.0084077028 -0.001968236 0.0067190816 
  852000    250.41309    6919.7388     3048.625    25.554181 -0.040353603 0.0024428975  0.041012604 
  853000    244.62583    5810.2184     3048.625    24.382329 -5.1601771e-05 -0.021634903 -0.0064842863 
  854000    250.21379    5974.7372     3048.625    24.369665 -0.013163393 -0.016618479 -0.011097638 
  855000    243.74425    4013.5561     3048.625    26.491133  0.015755456  0.021532392  0.010114107 
  856000    234.10321    9785.7871     3048.625     28.96762  0.019962824 -0.0034000465 -0.0077969788 
  857000    255.35409    3398.0467     3048.625    28.791435  0.019689447 -0.0030580081  0.016497283 
  858000     239.1542    4906.3878     3048.625    26.699761 -0.0023740649  0.001558738  0.010369652 
  859000    259.49445     7087.059     3048.625    25.599558 -0.037024976 -0.0053229932 0.0043447362 
  860000    243.74845    1177.4145     3048.625    26.928399 0.0067247667 -0.022367827  -0.02361302 
  861000    246.42579    139.84312     3048.625    29.027854 -0.0034871848 0.0058107981  0.016833984 
  862000    240.98199    9998.3174     3048.625    31.060871 -0.010640121 -0.0067117073  0.022697543 
  863000    256.14436    6313.9234     3048.625     31.13022 -0.0079048056 0.0043903374  0.030896501 
  864000    245.55245    3081.5746     3048.625    29.572482 -0.028115226 0.0041695562  0.013842061 
  865000    243.99689    13632.774     3048.625    27.736338  0.025412914  0.013679948 -0.0068742539 
  866000    252.97208     1926.829     3048.625    26.606977 0.0043641395 -0.0057414875 -0.0024445083 
  867000    257.06598    5452.4674     3048.625     27.40707  0.006156392 -0.034591996 0.0052349127 
  868000    246.07681    4309.1763     3048.625     28.13148  0.050535065 -0.0097845533 0.0035085523 
  869000    248.65903   -2963.1879     3048.625    27.612167  0.023897152 0.00080275793  0.030760971 
  870000    235.07616    16715.016     3048.625    23.864786  0.011928518 -0.010427828 -0.034300457 
  871000     229.9337    6138.8353     3048.625    23.376282  0.027880292  0.034820828 -0.021846635 
  872000    249.61674    3452.3778     3048.625    25.021246 -0.013675415 -0.022134343 -0.017656279 
  873000    241.32221    12984.341     3048.625    26.152227 -0.0026898077 -0.019122245 -0.014966137 
  874000    223.56892    8383.9062     3048.625    25.635583  0.012688911 -0.017645893  0.022297704 
  875000    226.31929    9121.4206     3048.625    27.752034  0.010674115 -0.0087091126 -0.0082025546 
  876000    251.00491    4410.0057     3048.625    31.387808 0.0042769735 -0.011141339  0.026427622 
  877000    250.09003    5644.8077     3048.625     34.26512 0.0026709219  0.010410609 0.0073820951 
  878000     259.1039    3963.3122     3048.625    34.638945 -0.0026230335 0.0058489132  0.028964309 
  879000    236.73848     4412.946     3048.625    32.361449 -0.0030159977 -0.0024466908  0.027193909 
  880000    257.15321    12947.788     3048.625    28.603496 -0.015595799 0.0052661805 0.0060939424 
  881000    254.41571    5427.7147     3048.625    24.492805 0.0046437388  0.023888447  0.022506435 
  882000     230.5253    455.32265     3048.625    20.592421 0.0026007778  0.015740322 -0.00056864268 
  883000    252.40214    13467.089     3048.625    20.235172 0.0017899789 -0.026274733 -0.025290327 
  884000    248.45322    5914.1953     3048.625    20.222779 -0.0068494998 -0.077814738 0.0062598078 
  885000    250.43083    4168.6632     3048.625    20.106361  0.011802216 0.0075684566 -0.0085492229 
  886000     244.1779    11753.254     3048.625     23.10196 -0.024905378 0.0069847045 0.0098597948 
  887000    239.62331    1170.3652     3048.625    26.486517 0.0062308757 -0.013177477 0.0095317013 
  888000    240.23181    1043.9551     3048.625    24.439451  0.011694126 0.00033464643 -0.0033765689 
  889000    262.91285    13424.605     3048.625    21.510016 -0.0045662253  -0.01090959 -0.017888409 
  890000    258.47848    4502.8522     3048.625    17.552489  0.023572733 -0.016999614  0.034904225 
  891000    227.09595    10571.277     3048.625    18.169155  0.011177288   0.02519415  0.016491081 
  892000    234.26089    11418.736     3048.625    23.508908 0.0070924288 0.0069234491  0.025359901 
  893000    255.02066    3064.7572     3048.625     29.27401  0.036204863   0.01960863  0.027762505 
  894000    233.02994    5536.0861     3048.625    31.721012 -0.0059360371  0.018948626 0.0068297652 
  895000    243.83392    10461.655     3048.625    32.901589  0.026891123 0.0027118057 0.0018574947 
  896000    242.47512    6471.3783     3048.625    33.019615 -0.0027453632  0.022034528 -0.0072707924 
  897000    219.08386    5381.5739     3048.625    30.935703  0.013511161 -0.027463891 0.0013073985 
  898000    230.31151    9434.9084     3048.625    29.514055  0.028485835 0.00051692484  0.012092355 
  899000    248.18567    4050.5322     3048.625    28.934729  0.019979696 -0.0043763212 -0.014928889 
  900000     236.3741    8940.4223     3048.625     30.20771 0.0025428486 0.0058844925  0.012317324 
  901000    224.71711    10940.366     3048.625    33.567492 0.0040600214 -0.0079738013 0.0073179232 
  902000    239.10303   -3959.8396     3048.625    34.694276 -0.014707303 -0.017969701 0.0017037714 
  903000    241.13934    10374.372     3048.625    32.165423 -0.019558692 0.00077023764 -0.022108028 
  904000    231.77014    14627.038     3048.625    28.020471 0.0051432674  0.015779163  -0.01894159 
  905000    224.28555    10719.595     3048.625    25.441917  0.023864929 -0.033626308  0.017692931 
  906000    235.50601    696.55103     3048.625    24.982721 -0.024776729 -0.0033905855 0.0083939264 
  907000    257.48129    11450.132     3048.625    25.046587 -0.046514602  0.022114176  0.019550503 
  908000    235.66848     8962.972     3048.625    26.064448 -0.051345594 0.0078410682 -0.048803997 
  909000    263.09091   -104.09357     3048.625     27.76506  -0.02634274  0.031107234 -0.007463836 
  910000    253.15239    6321.1727     3048.625     32.66828 -0.021217377 -0.0091475679 -0.016986953 
  911000    245.04366    8245.1379     3048.625    35.995631  0.016175451 -0.022305092 -0.0081716337 
  912000    251.73651   -1632.9192     3048.625    32.708485  0.049081466  0.014167383 -0.0099886762 
  913000     243.5935    7156.0422     3048.625    25.309333 -0.0047531058 0.0098837579 -0.0070610436 
  914000    246.23133    8859.5659     3048.625    19.797323  0.017140909 0.0096592066 -0.024188186 
  915000     223.1995    8082.6429     3048.625    21.607733  0.037728899  0.018278906 -0.065253411 
  916000    237.49984    5207.6157     3048.625    25.288406 -0.0013765719  0.012951944 -0.023653024 
  917000    242.18422    6292.4847     3048.625    28.177254 -0.0052557479  0.024648633 -0.0001518654 
  918000    252.73459    11624.437     3048.625    30.414751 -0.028542694 -0.017868784  0.022917737 
  919000    256.38683     5178.517     3048.625    30.006632 -0.0066011023 -0.00055110113 -0.0076447381 
  920000    237.34449    6204.5502     3048.625    27.314921  0.017236171 -0.0098661075 -0.040709192 
  921000    236.59989    8502.9881     3048.625     26.38529 -0.016671171  0.013093759 -0.030719019 
  922000    251.07527     6970.038     3048.625    29.167765 -0.041517416 -0.015894202 -0.041837743 
  923000    240.25683    1270.3138     3048.625    30.553386 -0.030063816 -0.030438801 -0.0045606061 
  924000     233.1269    8300.2281     3048.625    27.916349 0.00082207413  0.021585562 0.0055956288 
  925000     265.5048    4116.5903     3048.625    22.004654 -0.016842993  0.018871847 -0.026835901 
  926000    260.05064     5413.391     3048.625    17.677835 0.0028941006 -0.0037900153 -0.037970408 
  927000    247.32023    1555.5636     3048.625    19.834024 -0.017970102  0.034179258  0.013786365 
  928000    255.51218    5837.6087     3048.625     25.87877 -0.0086225881  -0.02968595  0.021955565 
  929000    234.69445    8662.6826     3048.625    27.841227 -0.019180671 -0.0068899528 0.0069809933 
  930000    222.24703    10245.874     3048.625    25.683292 -0.0032053547 -0.029306978 -0.025531677 
  931000    237.39762    6181.7173     3048.625     23.94682 -0.043721458 -0.0066701342 0.0064853592 
  932000    251.52308    3865.6223     3048.625    23.792149   0.01254537 -0.019160154 -0.0022483813 
  933000    243.77274    4834.6341     3048.625    22.888535  0.020106878  0.023589976  0.011208406 
  934000    233.79972    11029.065     3048.625    21.205563 -0.013174544 0.0066495094  0.010817669 
  935000      226.579    9525.2647     3048.625    18.356915 -0.0075174338 -0.0037672521 -0.0036904099 
  936000    242.41277    7715.3272     3048.625     15.96395 0.0039768814  0.012671675 -0.019349796 
  937000    247.39094    5403.3711     3048.625    17.223232 -0.029720084 -0.0020263449 -0.024377269 
  938000    261.54755     2111.098     3048.625    21.465512 0.00058695475  0.029018237 -0.024587713 
  939000    244.67159    4976.9958     3048.625    28.337043 -0.029730651 -0.029184559    0.0133828 
  940000    219.65664     14463.82     3048.625    33.034111  0.011226922  0.030462716 -0.032582669 
  941000    244.20666    9923.3267     3048.625     33.18351 -0.021096161  0.007160033  0.014134204 
  942000    232.18156    4135.0187     3048.625    31.713387 0.0084221524  0.029726939 -0.017211134 
  943000    237.65082    11147.746     3048.625    30.640222 -0.011419739 0.0026034233 0.0072441343 
  944000    241.20246    7023.1912     3048.625    29.085111 -0.023517709  0.012998654 -0.014037725 
  945000     255.8868    6515.6815     3048.625    29.549745 -0.045902776 -0.025353792 0.0083075663 
  946000    241.38303    5867.7603     3048.625    29.985032 -0.017975589  0.012937772  0.023528667 
  947000    229.77738    10257.228     3048.625     30.54816  0.026068543 -0.0059517499 -0.0067954885 
  948000    245.47711    4170.6108     3048.625    29.067831 -0.027463436 0.0045087192 0.00011893883 
  949000    259.38108    39.469634     3048.625    28.650887 0.0045681998 -0.015733468 -0.0044895653 
  950000    235.43015    14755.154     3048.625    28.088505  0.032044062  -0.01877228    0.0169177 
  951000    233.50734    9239.1477     3048.625    26.316325 -0.017834942  0.027595552 0.0028269408 
  952000    250.33009    4413.3699     3048.625    25.472077 -0.0062436275 -0.0067985446  0.028289191 
  953000    242.50951    782.22712     3048.625    22.292069 0.0070236876  0.033949371 -0.015088139 
  954000    243.18455    3691.9814     3048.625    18.212727 0.0051463376 0.0051968845 0.0011039734 
  955000    244.81573    7376.4936     3048.625     17.27266  0.011916079 -0.020637288 -0.015854134 
  956000    245.91621    12972.621     3048.625    22.470315 0.0059054865 0.0027521851  0.012837284 
  957000    247.74882    1902.9504     3048.625    30.158735 -0.0050676769 -0.011172768 -0.024076508 
  958000    227.77919   -1830.3792     3048.625    32.886195 -0.019891057 -0.0035020274  0.012029314 
  959000    232.49741    15538.669     3048.625    29.058827 -0.0032781753 -0.027108501 -0.046651084 
  960000    232.94802    9629.6022     3048.625    21.773362 0.0089663308 -0.038633261 0.0073617428 
  961000    248.54174   -6.4953328     3048.625    19.107221 -0.0010352319 -0.0072524451 -0.0040151771 
  962000    250.36035    9934.9665     3048.625    22.932331 0.0077942573 0.0093288866  0.011765786 
  963000    251.70837    2654.9192     3048.625     26.35493  0.025202292 -0.0024082536 -0.00042578809 
  964000    229.89079    7358.6284     3048.625    26.894512 -0.0028494067 -0.023230065 -0.0097430212 
  965000    237.97752    6727.9093     3048.625    26.895644  0.010368327   0.01915405  0.010343805 
  966000    243.51918   -1079.1515     3048.625    27.964484  0.014509588  0.018080739  0.027244747 
  967000     241.3908    6859.1651     3048.625    29.661715  -0.01119072  0.014526171 4.268317e-06 
  968000    242.76003     12723.26     3048.625     29.84736 -0.019900587 -0.016549371  0.019050694 
  969000    259.48565    2805.1157     3048.625    27.484293   0.02711476  0.010716435  0.011338375 
  970000    245.45699    5998.3071     3048.625    22.799312 -0.0086766099  0.016535426 -0.00091148686 
  971000    244.53897    7357.8375     3048.625    20.056387 -0.020424344 -0.028305013 -0.014574001 
  972000    246.54626    1265.6781     3048.625     20.46665 0.0033373292 0.0055693629 -0.0049808779 
  973000     254.5106    2687.5717     3048.625    23.834806  0.043598401 -0.0048042363 -0.010133776 
  974000    244.65195    14034.142     3048.625    29.867961  0.018971061 0.0088004648  0.004521815 
  975000    250.18115   -802.74111     3048.625     33.57784 -0.0044412117 -0.015986699  -0.01100131 
  976000    245.58744    3357.3441     3048.625    30.042115 -0.007378607 0.00088671134 0.0079690804 
  977000    262.31802    5339.8471     3048.625    23.549488 0.0082413056  -0.02479522  0.015548611 
  978000    251.98865    5663.0405     3048.625    18.003139  0.028215016  0.015532716 0.0026223634 
  979000    258.93268    7983.9475     3048.625    19.451895 -0.030157541  0.003225808 -0.017421491 
  980000    250.15571     3022.867     3048.625     26.11474  0.039964212 -0.011611775   0.02499096 
  981000    258.57457    233.67223     3048.625    28.066162 0.0045372151   -0.0465915 -0.0047463986 
  982000    267.68998    3235.0445     3048.625    25.798968 -0.016112425  0.017040201  0.031029194 
  983000    253.75425    5481.4393     3048.625    23.910167  0.025143642  0.010605276 -0.006998172 
  984000    239.01442    7430.7107     3048.625    25.669674 -8.8638948e-05 -0.011018313  0.025014481 
  985000     252.8321    1837.6836     3048.625    26.657547 -0.00030056476 -0.0090451947  0.015651305 
  986000    249.48442     6802.276     3048.625    24.182963 -0.045285194 -0.017749039 0.0083626327 
  987000    249.66905    1742.7919     3048.625    22.832448 -0.034282688  -0.01914234 -0.025627308 
  988000     249.2326    3425.8866     3048.625    27.574811 0.0045100896  0.005994379  -0.01994007 
  989000    248.89419    9760.3572     3048.625    34.303432 -0.016774845 -0.042919941 -0.023504203 
  990000    259.74225    924.72242     3048.625    33.818594   0.04548673 -0.0022126334 0.0096224942 
  991000    253.19218    2478.6255     3048.625    26.294701 -0.0001077441 -0.003242854  0.019842657 
  992000    255.35852    9367.7126     3048.625    21.919639 -0.00072752063  0.010365609  0.040958239 
  993000    249.43688    2594.6494     3048.625    24.510157 -0.0016320908  0.018789185 -0.026941463 
  994000    254.20147    5837.7089     3048.625    30.485453  0.029125521 -0.022097586 0.0069876347 
  995000     239.5894    1829.4454     3048.625    32.528514 -0.023435309  -0.03172997  0.021515509 
  996000     262.9939     4635.971     3048.625    28.562318 -0.0023601968  0.016563905  0.021732319 
  997000    269.74045      9707.71     3048.625    24.381731 -0.0073803202 -0.0069790481  0.023282024 
  998000    248.57035    6191.4797     3048.625    23.590211 -0.0031814942  0.044239917 -0.0051151337 
  999000     243.4319    2204.2944     3048.625    26.884415 -0.017099696 0.0068972927  0.008957668 
 1000000     244.5605    1334.8998     3048.625    31.458049 -0.010915129 0.0039398052 -0.022382717 
Loop time of 16992.3 on 1 procs for 1000000 steps with 240 atoms

Pair  time (%) = 16781.3 (98.7584)
Bond  time (%) = 0.493415 (0.00290376)
Neigh time (%) = 76.1235 (0.447988)
Comm  time (%) = 44.1639 (0.259905)
Outpt time (%) = 0.268771 (0.00158172)
Other time (%) = 89.935 (0.529269)

Nlocal:    240 ave 240 max 240 min
Histogram: 1 0 0 0 0 0 0 0 0 0
Nghost:    5796 ave 5796 max 5796 min
Histogram: 1 0 0 0 0 0 0 0 0 0
Neighs:    87825 ave 87825 max 87825 min
Histogram: 1 0 0 0 0 0 0 0 0 0
FullNghs:  175650 ave 175650 max 175650 min
Histogram: 1 0 0 0 0 0 0 0 0 0

Total # of neighbors = 175650
Ave neighs/atom = 731.875
Ave special neighs/atom = 0
Neighbor list builds = 7076
Dangerous builds = 0
#	run			10000
	unfix			1
	uncompute		myKE
	uncompute		myPE
	uncompute		myStress
	uncompute		flux
	uncompute		myDis
	unfix			JJ

	next seed
	next iseed
jump lmp.in.gk loop_seed
variable iseed loop 10
variable seed index 11111 22222 33333 44444 55555 66666 77777 88888 99999 11110
clear
###########################################################################
#x0
###########################################################################
units 			metal
atom_style		full
read_data		fort.26.nonbonded
  0 = max bonds/atom
  0 = max angles/atom
  0 = max dihedrals/atom
  triclinic box = (0 0 0) to (14.5 14.5 14.5) with tilt (0 0 0)
  1 by 1 by 1 MPI processor grid
  240 atoms
  0 bonds
  0 angles
  0 dihedrals
  0 = max # of 1-2 neighbors
  0 = max # of 1-3 neighbors
  0 = max # of 1-4 neighbors
  1 = max # of special neighbors
group         		C type = 1
60 atoms in group C
###########################################################################
#OLPS
###########################################################################

################################################################################
#### Pair potentials
################################################################################
pair_style hybrid/overlay tersoff lj/cut 12.0
pair_coeff * * tersoff C.4.tersoff 1 2 3 4
pair_coeff 1 2 lj/cut 0.0007000000 3.5500000000
pair_coeff 1 3 lj/cut 0.0007000000 3.5500000000
pair_coeff 1 4 lj/cut 0.0007000000 3.5500000000
pair_coeff 2 3 lj/cut 0.0007000000 3.5500000000
pair_coeff 2 4 lj/cut 0.0007000000 3.5500000000
pair_coeff 3 4 lj/cut 0.0007000000 3.5500000000
special_bonds lj 0.0 0.0 0.0 coul 0.0 0.0 0.0

#pair_style tersoff
#pair_coeff * * C.4.tersoff 1 2 3 4

#pair_style lj/cut 12.0
#pair_coeff 1 1 0.0700000000 3.5500000000
#special_bonds lj 0.0 0.0 0.0 coul 0.0 0.0 0.0
###########################################################################

#--------------------------------------------------------------------------
#variables
#--------------------------------------------------------------------------
variable   	dt 		equal 0.001
#--------------------------------------------------------------------------
#kappa parameters
#--------------------------------------------------------------------------
variable    	p 		equal 100000 	# correlation length
variable    	s 		equal 10  	# sample interval
variable    	d 		equal $p*$s 	# dump interval
variable    	d 		equal 100000*$s 	
variable    	d 		equal 100000*10 	

#--------------------------------------------------------------------------
variable 	T_run 		equal 300
#--------------------------------------------------------------------------

log 	log_heat_${iseed}.lammps
log 	log_heat_3.lammps
