	reset_timestep  	0
	fix 			1 all nve
	compute   		myKE all ke/atom
	compute   		myPE all pe/atom
	compute   		myStress all stress/atom virial
	compute   		flux all heat/flux myKE myPE myStress
	variable  		Jx equal c_flux[1]/vol
	variable  		Jy equal c_flux[2]/vol
	variable  		Jz equal c_flux[3]/vol
	fix       		JJ all ave/correlate $s $p $d c_flux[1] c_flux[2] c_flux[3] type auto file J0Jt_${iseed}.dat ave running
	fix       		JJ all ave/correlate 10 $p $d c_flux[1] c_flux[2] c_flux[3] type auto file J0Jt_${iseed}.dat ave running
	fix       		JJ all ave/correlate 10 100000 $d c_flux[1] c_flux[2] c_flux[3] type auto file J0Jt_${iseed}.dat ave running
	fix       		JJ all ave/correlate 10 100000 1000000 c_flux[1] c_flux[2] c_flux[3] type auto file J0Jt_${iseed}.dat ave running
	fix       		JJ all ave/correlate 10 100000 1000000 c_flux[1] c_flux[2] c_flux[3] type auto file J0Jt_1.dat ave running
	compute 		myDis all msd
	thermo_style 		custom step temp press vol c_myDis[4] v_Jx v_Jy v_Jz
	thermo			1000
	timestep		${dt}
	timestep		0.0010000000000000000208
	run			1000000
Memory usage per processor = 7.90665 Mbytes
Step Temp Press Volume myDis[4] Jx Jy Jz 
       0    228.22537    9226.6657     3048.625 2.4198427e-31 -0.002297351  0.023460164 0.0089826831 
    1000    221.78901    15731.569     3048.625    10.380447 0.0010611285  0.049001539 0.0012139728 
    2000    248.69365    8627.0505     3048.625    18.925274 -0.0067986716  0.022302049 -0.0085174319 
    3000    258.20293    12810.405     3048.625    9.3825486 -0.014694553  0.010172183 -0.026440596 
    4000     278.5765    3661.1576     3048.625    10.511104 0.0084263755 0.00034004623 -0.021367768 
    5000     270.2084     11564.68     3048.625    21.282303  0.029562371 -0.0064081188 -0.0044364396 
    6000    264.96041     8960.992     3048.625    26.674535    0.0183879  0.020522408 -0.029133381 
    7000    272.23172     13266.58     3048.625    20.590347 -0.018748336 0.0094659571  0.014668128 
    8000    279.01367    5176.9391     3048.625    25.418141 -0.0012746511  0.024857279 -0.019356164 
    9000    267.55413    6947.7901     3048.625    33.102863 -0.013770131 -0.0001466141   0.01023506 
   10000    261.91049    16781.888     3048.625    27.706301 -0.012426305  0.033790321  0.028188584 
   11000    228.99948    11008.479     3048.625    18.671042  0.017593918 0.0074082351 0.0093812823 
   12000     268.4043    9766.9146     3048.625    23.867144 0.00085094608 -0.016587276  0.029608132 
   13000    266.08357    13458.972     3048.625    33.154717 0.0074679519 0.0092289223 0.0041104948 
   14000     261.0469    15222.057     3048.625    30.919378 -0.026529661 -0.0044123392 -0.026909143 
   15000    210.95501    17664.905     3048.625    24.292541 0.00075844443 -0.034780913   0.01084285 
   16000    243.68862      13463.4     3048.625    23.088884  0.051778553 -0.021708529 -0.0021921624 
   17000    260.64857    9615.1226     3048.625    25.778508 -0.0022273417 0.0017000747 -0.022481698 
   18000    220.19122    14138.573     3048.625    28.402471 -0.0036952932 -0.002581012 -0.053775473 
   19000    246.11452    15955.868     3048.625    31.424841    0.0152407 0.0054418721 -0.0040735563 
   20000    237.79881    15795.948     3048.625    32.742915 0.0026647895 -0.00054422487  0.036526248 
   21000    262.18999    13152.462     3048.625    28.302674 -0.033465657  0.015254903  0.025812156 
   22000    253.95432    10614.141     3048.625    24.204573  0.023065327  0.012585817 0.0074828424 
   23000    260.48544    11466.191     3048.625    25.178749   0.02462181  0.033260475  0.026311397 
   24000    279.09999    5559.0025     3048.625    30.057835  0.025064792  0.030408883 -0.015136907 
   25000    242.94236    11136.436     3048.625    33.388701  0.022766256 0.0011851707 -9.5428668e-05 
   26000    242.90595    16504.983     3048.625    30.658348  0.010203755  0.015745804 -0.014809139 
   27000    248.65684    10280.475     3048.625    29.514729  0.020335501 -0.0098502367  0.024483271 
   28000    272.50901    10935.483     3048.625    31.353066  0.022528244 -0.0035996479  -0.01121106 
   29000    250.31551    11367.961     3048.625    30.206069  0.022649005  0.026079791 -0.0053148425 
   30000    273.65978    9312.2155     3048.625    23.320212  0.016370056 -0.029448765  0.019052388 
   31000    278.16245     9194.085     3048.625    23.008882 -0.015891641 -0.035837567   0.04521298 
   32000    235.83915    10184.626     3048.625    25.344034 0.0096080461 0.00056861585  0.032075691 
   33000    268.17982    8681.9725     3048.625     22.54076 0.0092388814 -0.012867844  0.046593933 
   34000    274.71536    8067.0396     3048.625    24.599358  0.033359628 -0.0067028312  0.021721013 
   35000    298.79203    6130.0806     3048.625    28.976152 0.0060305158  0.018778804 -0.004417829 
   36000    285.69743    5294.6073     3048.625    25.359226 -0.019411939 -0.011512255 -0.0055174498 
   37000    287.22216    13686.463     3048.625    23.794054 -0.0078059936 -0.002417091 -0.025656367 
   38000    262.67273    1929.1012     3048.625    26.953638 0.0010255346  0.024001682 0.00038026429 
   39000    268.03565    9047.1057     3048.625    30.821022  0.026723266 -0.030459824 -0.019887422 
   40000    257.52774    13978.096     3048.625    28.700438  0.011128803 0.0028539229 -0.002053306 
   41000     248.1102    13206.213     3048.625    24.660861  0.021016144 -0.00092479195 -0.0011102325 
   42000    257.83443    9130.1743     3048.625      23.1108 -0.018952932  0.027001668 -0.0022697971 
   43000    266.13735    10542.436     3048.625    23.049571 0.0094659464 -0.032162287  0.016161735 
   44000     278.6125   -644.56055     3048.625    24.175283 -0.016834129 -0.018789952 -0.0069133256 
   45000    257.85877    13582.352     3048.625    24.908976 -0.031767911 -0.020462375 -0.023015937 
   46000    268.66771    10352.082     3048.625    25.890802  0.031518279  0.024265592 -0.015464061 
   47000    243.85941    11442.966     3048.625    26.201116 -0.015190959 0.0099273037 -0.006882411 
   48000    254.72194    7660.9003     3048.625    22.183606 -0.0034296197  0.025082597  0.011543165 
   49000    239.08593    15482.709     3048.625    24.279781 -0.0092987761 -0.021573658 0.0023629883 
   50000    240.94596    14078.331     3048.625    29.056402  0.010239675  0.021009684 -0.0001918614 
   51000    268.46477    11197.957     3048.625    29.446461 0.0094103729 -0.0043791984 -0.016296461 
   52000    256.11718    10519.494     3048.625    25.716087  0.018091251  0.036974596  0.023273933 
   53000    259.69665    7020.7146     3048.625      27.3373  0.013202004 -0.027824834 0.0030671898 
   54000    263.69171    20664.837     3048.625    32.425129 0.0017551984 -0.0047227322  0.006961871 
   55000    268.19703    3936.6808     3048.625    30.590777 -0.0031317017 -0.014692537 0.0025883855 
   56000    254.27828    11734.327     3048.625    23.550442  0.046704223 -0.018354792 -0.020176429 
   57000    240.69728    14859.555     3048.625    21.402026 9.5538155e-05 0.0061748655  0.016006176 
   58000    252.60659     7751.039     3048.625    24.619568  0.027753435 -0.0054888976  0.041084941 
   59000    224.45677    16248.481     3048.625    26.304157  0.024046245 -0.0050305505  0.032368752 
   60000    276.89852    13014.501     3048.625    25.797729 -0.0018409076  0.011631541 -0.0047462205 
   61000    254.58834    9166.4363     3048.625    25.241598  0.013998874 -0.018695424 -0.0072461837 
   62000     219.8261    20722.466     3048.625    25.520518 -0.011820562 0.00029843065 -0.0048264879 
   63000    260.59358    10541.186     3048.625    28.494399  0.012166108 -0.033038607  -0.02866156 
   64000    261.93309    2706.1014     3048.625    30.229097 0.0042755115 -0.017084418 -0.014230095 
   65000    256.54168    15138.352     3048.625    27.434783 -0.0053185671 -0.020478696 -0.030904326 
   66000    247.53323     7228.771     3048.625    24.519323 -0.032001696 -0.023366712 -0.0050316928 
   67000    255.28014    15396.856     3048.625    21.486762 -0.038574596 0.00094572862 -0.030252592 
   68000    259.64609    8984.2167     3048.625    24.815931 -0.012462565 0.0058682483  -0.05427955 
   69000    245.53961    12889.693     3048.625    25.455505 -0.0065063094 -0.0065671191 -0.041280149 
   70000    253.19509    6964.1022     3048.625    22.525062  0.024597423 -0.015811033 -0.0086339963 
   71000    251.48255    14876.199     3048.625    24.894364  0.012138252 -0.0047236486  0.022810639 
   72000    275.25847    14049.159     3048.625    31.385295 -0.0092870089 -0.013736716  0.015157776 
   73000    270.79968     8051.368     3048.625    28.374226 -0.025588501 -0.014981661 -0.0051334667 
   74000    264.82508    6507.4938     3048.625    27.538824 -0.017284134 -0.019684542 0.0042115639 
   75000    246.36063    8031.2419     3048.625    31.609734  0.019250756 0.0033163604  0.012332565 
   76000    264.38642    14689.822     3048.625    29.926722  0.023204028  0.035592768  0.021046615 
   77000    259.12211    11325.236     3048.625    28.844705  0.016906956 -0.0080597816  0.010797528 
   78000    249.71672    14496.382     3048.625     30.60483 -0.028961781 -0.031219789 6.4569801e-05 
   79000    259.29988    10545.221     3048.625    32.844336  -0.02310314 -0.023947976  0.031624292 
   80000    259.32402    10074.701     3048.625    27.293821  0.019957841 -0.025598094  0.036922848 
   81000    267.19611    8764.4543     3048.625    22.648313  0.016422085 -0.038445578  0.016816754 
   82000    273.91225    8875.1581     3048.625    27.437118 -0.014751773  0.018252514 0.0048629276 
   83000     265.2088    3221.3601     3048.625    27.893787 -0.036434322  0.035585195  0.022697422 
   84000     276.6955    12694.139     3048.625    22.609814 0.0074163686 -0.0075585664  0.023506772 
   85000    255.28483    10846.677     3048.625     23.16348 -0.0011272569 -0.0061558195 -0.033401453 
   86000     249.5886    14401.204     3048.625    32.566484  -0.02488407  0.040113538 0.0074521391 
   87000     250.1904    5411.8501     3048.625    37.155213 -0.012373173  0.021031725 -0.0020141055 
   88000    266.97737    12625.786     3048.625    31.973627 -0.015688422  0.012571486 -0.0047227199 
   89000    272.50837    11896.095     3048.625    27.249435 -0.045136981  0.010170513  0.012314299 
   90000    238.52225    12559.148     3048.625    29.015577 -0.0063439333 -0.019945637 -0.021271579 
   91000     244.0845    17817.022     3048.625     29.82925  0.016847344 -0.018622113 -0.0018102828 
   92000    238.05184    10278.149     3048.625    32.483961     0.011048   0.01389593 -0.0055726067 
   93000     250.2753    13950.683     3048.625    35.359071  0.031882558 0.0075564108 -0.018758517 
   94000    252.44086    14165.126     3048.625    33.777616  0.010637406 0.0011284707 -0.025461401 
   95000    274.35333     11559.77     3048.625    29.465036 -0.0059698772 -0.0051884112 -0.052534414 
   96000    260.46223    3977.1828     3048.625    27.835629   0.02450047  0.015303103   0.01021464 
   97000     234.8692    16422.184     3048.625     28.20877 -0.0024708237  0.017425326 -0.040459671 
   98000    237.37586    17824.515     3048.625     28.57699 -0.008809815 -0.0093336715 0.0044444619 
   99000    244.35372    9286.2726     3048.625    31.140124 -0.042969333 0.0049497894  0.033519861 
  100000    230.27672    16204.501     3048.625     33.05724 -0.031186701  0.021006881 -0.00049849272 
  101000    237.70953    8479.0029     3048.625    33.484622 0.0076964322  0.016880292  0.029158676 
  102000    241.89856    9316.4678     3048.625    31.996682 -0.0070961353  0.015084236 -0.0048079948 
  103000    254.68437    12764.477     3048.625    28.016185 -0.0065912099 0.0068010314 -0.006421056 
  104000    230.26537    18635.534     3048.625    20.654038 -0.030984952 -0.022948134 -0.0083696424 
  105000    260.04419    6863.1088     3048.625    23.747976 -0.010052123 -0.013064154 -0.024409046 
  106000    289.54424    4734.9229     3048.625     28.22648 -0.0018535876  0.023200122  0.011311452 
  107000    276.57786    6567.1087     3048.625    24.521517 -0.018750639 -0.0035792625 -0.028375035 
  108000    244.91999    8392.6151     3048.625    26.673139 0.0043900681 -0.00097908668 -0.011093766 
  109000    244.08156      14888.8     3048.625    32.240045 -0.019425905 -0.0047563708 -0.0024665995 
  110000    272.32897    3368.2218     3048.625    29.910602 -0.0032502242    0.0160449  0.025608233 
  111000     235.8481    7195.2341     3048.625    22.157091 -0.016590277 0.0062468211 -0.0083844833 
  112000    232.44851    21703.981     3048.625    21.566481 0.0024094866 -0.029153529  0.015440679 
  113000    225.97608     15468.13     3048.625    29.238607 0.0037696307 -0.0081688112  0.011978187 
  114000     269.7763    4328.5608     3048.625    33.886054 -0.014540946 0.0099054608 0.00019095062 
  115000    269.57891    12448.267     3048.625    31.096337 -0.0017521683 0.0079202007  0.031815338 
  116000    240.73012    6857.9831     3048.625    26.425718 -0.013949965  0.042938972  0.003372642 
  117000    271.62901     9361.429     3048.625    22.983742 -0.024727236 -7.7634484e-05 -0.0038020856 
  118000    266.91046    5572.5784     3048.625     27.02986   0.03158042 -0.024854475 -0.0097023552 
  119000    274.32063    9129.2478     3048.625    31.414659 -0.021639934 0.0017195923 -0.028122006 
  120000    272.80838    7794.2595     3048.625    29.217104 0.0024141334  0.010070729 0.0011767891 
  121000    271.05904    11754.385     3048.625    27.757017 -0.010483532  0.026509192 -0.014929822 
  122000    238.12036    13098.156     3048.625    28.654839 -0.0094017051  0.025957156 -0.014436974 
  123000    264.19915    7332.5674     3048.625    30.741257 -0.013559231   0.03028941 -0.028827451 
  124000    268.92069    8931.1431     3048.625    29.144519  0.025306163 -0.017378967 -0.039956838 
  125000    278.57652    4501.5269     3048.625    27.158324  0.029090474 -0.015042204 -0.026072531 
  126000    274.21623    11288.742     3048.625    29.020829  0.013656826  0.038823784 -0.034398935 
  127000    245.28102     11078.11     3048.625    29.760069 0.0078500479 -0.0028533065  0.013043934 
  128000    270.52505    7532.0205     3048.625    26.332726 -0.0082108448  0.014575654 0.0020034854 
  129000    257.22174    10032.835     3048.625    25.145865 -0.0018589354 0.0059030173 -0.019652358 
  130000    238.91491    10704.646     3048.625    30.416425  0.015225614  0.010257426  0.024836822 
  131000    271.47864    9535.2375     3048.625    32.036863 -0.0055079305 -0.0073732759 0.00055166855 
  132000    270.14123    3432.1292     3048.625    28.814478 -0.0021295055 -0.0047350647 -0.025356398 
  133000    242.68364    9439.2262     3048.625    24.511111 -0.036154093 -0.021605192  -0.02641152 
  134000    279.41848    6755.7772     3048.625    21.907574 -0.0020846593 -0.021092961 -0.011014536 
  135000    270.39432     8475.604     3048.625    24.715506 -0.0074708255   0.01294277 -0.017610834 
  136000    247.84229    12682.653     3048.625    27.601708  0.027558797 -0.014959502  0.015567012 
  137000    258.12314    13419.556     3048.625    26.719388   0.02159991 0.0022153689 -0.0094961029 
  138000    275.77305    4999.6921     3048.625    23.992964 0.0039714155 -0.024415999 -0.023708803 
  139000    267.38656    6797.3156     3048.625    21.826252 -0.024000128 -0.006101631 -0.0007839253 
  140000    265.38161    11702.756     3048.625    23.632115 -0.011851641 -0.0063306408  0.010128048 
  141000    275.68426    5675.0051     3048.625    30.199059 -0.0041910395 -0.015838833  0.019712802 
  142000    267.34938    12691.815     3048.625    32.585788  0.005677476  0.020308824 0.0079516325 
  143000    255.67163    5799.0024     3048.625    33.484073 -0.018162286 0.0038009937 -0.019245713 
  144000    228.16827    12267.488     3048.625     30.90447  0.016769662 -0.014723907 -0.0035355455 
  145000    210.90236    15349.594     3048.625    23.195093  0.012589811  0.015475373    0.0111489 
  146000    227.12562    18176.047     3048.625    17.781257   0.03324169  0.022147124 0.0039528027 
  147000    248.35866    13711.924     3048.625    19.240444 -0.002565895  0.017936795  0.011303928 
  148000     238.6404     13396.43     3048.625    28.710267 -0.0010324584 -0.028896246 -0.018976112 
  149000    247.21605    9880.3561     3048.625    32.562598 0.0086065693 -0.0052547861  0.026314553 
  150000    228.87914    11985.415     3048.625     30.68083 0.0088158984   -0.0133608  0.029325195 
  151000    240.23888    14849.939     3048.625      24.1243 -0.0040325862  0.030127513 -0.022858714 
  152000    249.99719    5421.0627     3048.625    21.593582  0.002241814 -0.011911509 -0.0075868399 
  153000    264.90594    10328.107     3048.625    28.454836 0.0048389858  0.026878004 -0.038139983 
  154000    242.35974    12802.196     3048.625    33.553981   0.02622361 -0.010830959 -0.028681949 
  155000    262.04605    10135.256     3048.625    27.854301  -0.02662058 -0.0097356532  0.013957127 
  156000    262.31809    8578.4117     3048.625    21.358489 -0.0003460801  0.010705549  0.011677837 
  157000    252.83528    9256.8978     3048.625     20.78563  0.010390609 -0.0095043275 -0.0024117573 
  158000    232.85815    14183.337     3048.625    23.270138  0.038329596  0.003147891 -0.019926113 
  159000    251.59598    7775.4856     3048.625    25.542239  -0.01076711 0.0017658077  0.014892684 
  160000    269.50795     4463.985     3048.625    25.292391 0.0019486789  0.011452051 0.0080190546 
  161000    274.39163    7395.6354     3048.625    26.060305 -0.0021920429 0.0045778394   0.02057932 
  162000    256.02462    3141.4191     3048.625    28.855716 0.0026635543 0.0091115307  0.027367168 
  163000    251.14839    11837.094     3048.625    28.712651  0.016524784  0.019739894  0.025546078 
  164000    236.07528    11829.101     3048.625    22.331973 0.0064616901 -0.044653828 -0.0081577788 
  165000    247.42165    8018.4357     3048.625    14.124336  0.017989818  0.011653862  0.011239426 
  166000    241.41066    13306.917     3048.625    13.077134 -0.005036176 -0.016464885   0.01489427 
  167000     251.6623    9739.9428     3048.625     18.64768  0.014485075 -0.015214917   0.03627275 
  168000    272.25049    4099.6756     3048.625    28.006032 -0.023366758 0.0059016256  0.019068896 
  169000    237.74612    11891.346     3048.625    33.570632 0.0077756911 -0.011131387  0.019795182 
  170000    242.61344    13430.705     3048.625    31.338401  0.013173824 -0.010357315 -0.012617434 
  171000    246.95503    7293.5054     3048.625    30.716449 -0.016080738 0.0082537348 -0.0004820577 
  172000    223.93937    18227.885     3048.625    33.969703  0.051640594 -0.012952206 -0.016365636 
  173000    225.34679    17215.619     3048.625    35.568212   0.02234916 -0.023942446  0.027318245 
  174000    239.65538    5900.4445     3048.625    33.040661  0.024265512 -0.019306358 -0.019808162 
  175000    234.50974    13396.089     3048.625    28.593317 -0.026862614  0.015728744 -0.0035903221 
  176000    243.97397    5708.1195     3048.625    26.058073  -0.01137616 -0.00053500984 -0.0068872647 
  177000    262.92881    12358.585     3048.625    30.411085 -0.024585975 -0.010314917  0.013745155 
  178000    198.01159     15686.24     3048.625    32.209824 0.0038152748 -0.005748934 0.0080884333 
  179000    248.20517    11381.743     3048.625    31.872073  0.029331766  0.017704287 -0.0034967112 
  180000    270.24274    13570.675     3048.625    29.635978 -0.012966788 -0.013656809 -0.0023108992 
  181000    240.59704    6976.5125     3048.625    26.467108 -0.019371937 -0.027105941 -0.015035031 
  182000      220.993    16427.351     3048.625     24.19631  -0.02344868 -0.027011875  0.028256048 
  183000    218.02536    15460.255     3048.625    22.142579  -0.02548942  0.021843272 -0.026751809 
  184000    241.31107    11653.653     3048.625    21.854621 -0.010750034  0.010223954  0.016300065 
  185000    235.11103    8890.1578     3048.625    24.259916 -0.00072441309   0.02096899 -0.017037864 
  186000    245.45984    11861.598     3048.625    26.121632  0.044705834 -0.020224075 -0.0043952358 
  187000    213.99012    17600.197     3048.625    26.786258 0.0031413312  0.020980411  0.030339924 
  188000    230.37889    13367.222     3048.625    24.466672 -0.0007937638 0.0018046175 -0.042561316 
  189000    224.15296    16719.476     3048.625    18.112426  -0.01068115 -0.0030335122 -0.0043520971 
  190000    237.23479    13920.309     3048.625      16.1833 -0.013565234 -0.013803472 -0.029554768 
  191000    256.42476    8818.3563     3048.625    24.335078 0.0036180724 -0.0048378579  0.019209354 
  192000    239.44862    9910.8245     3048.625    34.073119  0.013547512 -0.041683166 -0.034172579 
  193000    235.64766    12273.255     3048.625    34.614322  0.018292076 0.0094240229  0.015596466 
  194000    273.68912    6755.2998     3048.625    25.264067   0.01451709 -0.00088982395  0.016646397 
  195000    275.38738     7390.131     3048.625    22.971978 0.0028821111 -0.0037254509  0.024944138 
  196000    264.29088    4544.9122     3048.625    27.708733 0.0070422594 -0.0006624813 -0.020843381 
  197000     275.7321    11474.881     3048.625    31.124851  0.034291634 -0.025549578 -0.027264329 
  198000    262.13382     8579.012     3048.625    30.339289 -0.0033342337 -0.0041260635 -0.015646272 
  199000    244.60548    5913.6103     3048.625    30.453268 0.0051144359 -0.0035330475 -0.023761833 
  200000    263.91087    10194.398     3048.625    32.707058  0.030228567 0.00047179609 -0.016649339 
  201000    268.35437    6062.3905     3048.625    34.281293 -0.005614959 0.00065659718 -0.0074651267 
  202000    237.10459    8995.1447     3048.625    33.439473  -0.03246525 0.0081182692  0.014338786 
  203000    238.94733    10271.274     3048.625    28.064586 0.0098440584 0.0092215175   0.01199015 
  204000     243.9726    8812.0076     3048.625    25.901531 -0.0050265041  0.031039565 -0.00047740055 
  205000    229.39543    14346.495     3048.625    25.564369 -0.015398741  0.009153817 -0.028249416 
  206000    254.17136    4997.4617     3048.625     27.39063   0.03657801  0.014447145  0.009518686 
  207000     235.6361    10185.361     3048.625     30.02112 -0.014508869  0.025059685 -0.023505538 
  208000    218.96196    11370.949     3048.625    29.427849  0.012978215   -0.0012701  0.024428411 
  209000    266.82121     14293.26     3048.625    29.757814 0.0098995201 -0.0046207666 -0.0066579265 
  210000    239.24114     3262.481     3048.625    29.721035 -0.026307602 0.0036943284 -0.021286196 
  211000    235.72575    15375.274     3048.625    29.772639  0.018391831 0.0087827351  0.030657731 
  212000    281.00024    14084.872     3048.625    31.293176 -0.030545455  0.013666596  0.022435596 
  213000    271.28742    376.60078     3048.625    33.798136 -0.0084921618 -0.030273506  0.019577836 
  214000    256.75067    6968.3032     3048.625    34.208544 -0.023877152  0.017518505 -0.030685005 
  215000    250.24614    14975.264     3048.625    33.883667  0.040061111  0.024773575 -0.0056716354 
  216000    255.48746    6078.0974     3048.625    34.205181  0.018791167  0.015793579  0.016658475 
  217000    263.18236    6027.1694     3048.625    33.810241 -0.016360688  0.033521978 -0.0057588818 
  218000    272.52985    4894.7618     3048.625    32.798443  0.032086373  0.025128456 0.0024315715 
  219000    271.55563    8698.8319     3048.625    31.124454 -0.00045014718 -0.0019570525  0.031281451 
  220000    272.38012    4507.3731     3048.625    29.033119 -0.020565066  0.012029322 0.0047973888 
  221000    279.71338    10186.265     3048.625    26.656225 -0.015115239 -0.019133142  0.016411229 
  222000    259.33028    2806.0848     3048.625    25.190633 -0.0018694002  -0.01460545 -0.0086506262 
  223000     244.4907     5828.981     3048.625    23.582072  0.013581886 -0.0065237314  0.045694542 
  224000    254.69331    13506.077     3048.625    23.905658 0.0028102662  0.013333427  0.019144105 
  225000     238.8332   -253.76002     3048.625    26.186114  -0.01319688 -0.0092681908 -0.011912929 
  226000    256.23066    17066.109     3048.625     26.86899  0.031518428   0.03923993  0.050105973 
  227000    265.86047    6914.7941     3048.625    26.725844   -0.0107794 -0.014075749  0.032966586 
  228000    236.52701     11485.61     3048.625    26.096565 0.0069290505 0.0020404537 -0.028348834 
  229000    248.80678    13442.023     3048.625    24.574762 -0.023066421  -0.00886375 0.0022097087 
  230000    254.73706    5654.6391     3048.625    23.036679  0.025326329  0.016825754  0.010110456 
  231000    262.20253    2479.8749     3048.625    21.403137 -0.034993302  0.010889636 -0.010296465 
  232000    240.98888    11403.504     3048.625    23.009639 -0.013314671 -0.0028027803  0.023106874 
  233000    224.34964    13077.907     3048.625    27.720191  0.033788022 0.0075869075  0.027678224 
  234000    221.62427    6194.0118     3048.625    28.051502 0.0093571265  0.024001108 -0.046786508 
  235000    267.52757    14131.322     3048.625    24.268706 -0.022083916 -0.011695312 -0.015835683 
  236000    244.60265    7037.3429     3048.625     21.57407   0.01409942  -0.01206018  0.031042179 
  237000    260.62678    10906.734     3048.625     23.63048 -0.015083056 -0.015745865  0.019576455 
  238000    234.77004    11049.913     3048.625    29.613394  0.022238657  0.015751414 -0.0027987179 
  239000    264.01377    4233.5339     3048.625    31.865031  0.012163013 -0.003319518 -0.023201333 
  240000    249.37769    8174.5949     3048.625    29.356816 -0.0098110589 -0.018369889 0.0054860877 
  241000    244.94837     7287.753     3048.625    25.848745 0.0092073148 -0.039922467  0.027171982 
  242000    243.93406    14069.865     3048.625    27.665109 -0.032567914 -0.015116478 0.00014417242 
  243000     235.9461      7393.83     3048.625    26.904562 -0.015434122 -0.0076510285 0.00062108483 
  244000    242.23115    8778.3076     3048.625     21.12328  0.036618492  0.013509077 0.0091699728 
  245000    251.19745    11684.836     3048.625    18.482005  0.001205441 -0.014402938  0.006891259 
  246000    251.39982    8303.1786     3048.625    22.322597 -0.0028745039 -0.0087224168 0.0090156412 
  247000    232.20795    14208.901     3048.625    25.976151 -0.0027419579  -0.03368863  0.018801654 
  248000    238.95979    6481.5034     3048.625    22.742078 -0.0024101322 0.0027709472  0.033376812 
  249000    231.75937    13966.793     3048.625    16.783389  -0.01142344 -0.031178936 -0.0034153231 
  250000    222.37433    11256.326     3048.625    15.746971 0.0065250661 -0.0060689148  0.018955874 
  251000    219.21361    12195.994     3048.625    21.167311  0.020340703 -0.013719148 0.0043806373 
  252000     239.7004    16180.375     3048.625     28.27308 0.0066940877  0.044758144  0.039454384 
  253000    246.09758    9122.0053     3048.625    30.373453 -0.038985003  0.018994625 -0.012583712 
  254000    234.93719    10711.504     3048.625    29.067215 -0.022448172 -0.040732313  0.019801147 
  255000    226.32378    13072.994     3048.625    26.290564 0.0087933314  0.029990828 0.0040380823 
  256000    240.96386    8935.1328     3048.625    22.816731  0.030278229 0.0054978743 -0.016654754 
  257000    238.08945    12941.481     3048.625     22.22102  0.016968076 -0.016585959 -0.017859339 
  258000    238.37986    11699.459     3048.625    28.895078 0.0074087536  0.021529385 -0.018177798 
  259000    255.53268     8471.749     3048.625    34.122711 -0.012408695 0.0062139307  0.022577675 
  260000    276.80184   -3109.4461     3048.625    29.629736  0.024511977   0.01048249 -0.0089218652 
  261000    255.11277    15604.001     3048.625    24.357151 -0.012476337  0.011493096 -0.056410477 
  262000    237.92944    2965.0862     3048.625    28.489748 0.0025814726  0.012147931 -0.015895782 
  263000    260.94894    13338.964     3048.625    32.729972 0.0043457399  0.042169385  -0.03752728 
  264000    270.49022    4966.3302     3048.625    28.900613 -0.00090521805  0.025467283 -0.0094649131 
  265000    262.50952    7941.8999     3048.625    29.900552 -0.0085004523 -0.0093106553 0.0094171823 
  266000    254.99335    7119.5679     3048.625    35.191866  0.016081798 0.0060447607  0.013682999 
  267000    234.36276    11831.756     3048.625     32.96676 -0.010670708  0.021854394 -0.0023698876 
  268000    231.84936    14741.013     3048.625    29.318509  0.029180293 7.4167426e-05  0.010828664 
  269000    238.09847    8008.6052     3048.625    31.428054  0.017203789 -0.026104994 -0.0040202591 
  270000    233.86556    10972.582     3048.625    33.955433  0.025546895 -0.021638386  0.017133662 
  271000    263.12791    7953.1281     3048.625    34.977966 0.0070516747 -0.024264814 0.0012207879 
  272000    257.20691    5035.7525     3048.625    34.993652   0.02240403 -0.016927591   0.01659076 
  273000    259.78461    11449.348     3048.625    34.886237 -0.0019323645 -0.0034836683 -0.037884781 
  274000    239.75652     11773.68     3048.625    33.933841 -0.0085567785 -0.013175304 -0.00083083173 
  275000    238.41752    6201.9014     3048.625    32.917092  0.025237898 -0.0063578294 -0.0086429125 
  276000    252.68111    4903.1871     3048.625    33.397568 -0.015137454 -0.029437524 -0.0042516845 
  277000    243.05945    9605.8705     3048.625    33.525306 -0.0013126658  0.028629434  0.050940147 
  278000    253.20096    7483.1114     3048.625    32.131427 -0.010446517 0.0088918442   0.02166041 
  279000    250.77411    12481.184     3048.625    29.026468 -0.014419517 0.0046642294 0.0076853766 
  280000    268.16697     9852.699     3048.625    27.061084 -0.012680251  0.032535063 -0.013486102 
  281000    241.14665    6834.3246     3048.625    30.736994 -0.011262884 -0.0010170919 -0.0024054479 
  282000    251.39266    9657.1703     3048.625    34.791137  0.024060858 -0.0074387173  0.011846273 
  283000     216.1245    20492.398     3048.625    35.801021 -0.038079189 -0.012059291 -0.030323291 
  284000    232.52967    11031.574     3048.625    33.699701  0.030678896 -0.0074645263 -0.050786643 
  285000    214.10132    16808.931     3048.625    31.661629  0.019478844 0.0017061218 -0.035693234 
  286000    251.19997    14098.231     3048.625    32.490867 -0.011997322 -0.014477399 -0.018495684 
  287000    222.12221    10155.781     3048.625    31.519303 0.0073499996  0.007589156  0.033987232 
  288000    216.95452    14497.293     3048.625    30.151772 -0.020345219  0.016198527 -0.0068061607 
  289000    265.36357    1950.4559     3048.625    28.539868  0.011094086 -0.006440009 0.0079973514 
  290000     266.0638    8367.2754     3048.625    27.163776 -0.0059581028 -0.030190853 -0.0074396282 
  291000    246.66115    7839.5935     3048.625    26.691237 -0.0096781852 -0.017746108 0.00038975289 
  292000    228.37912    14010.234     3048.625    28.298609  0.048343042 -0.017646459  0.013203939 
  293000     225.2102    12065.944     3048.625    28.223645  0.015992411 0.0056293397  0.010198521 
  294000    221.96302    16519.768     3048.625    25.432326  -0.01229648 -0.026920112  0.031110842 
  295000    252.79905    9497.7963     3048.625    21.984801 -0.0079010377  -0.03457923 -0.00071995263 
  296000    230.38111    9122.0811     3048.625    22.035895 -0.0015838302 -0.017659248 -0.0028874479 
  297000    237.59576    11681.098     3048.625    24.854745  0.023189302  0.014323879 -0.0094764605 
  298000    229.22985    11377.631     3048.625    26.606329  0.011770094 0.0051756373  -0.03255758 
  299000    231.96369    14578.839     3048.625    23.411682   0.03703922  0.019692421  0.014279169 
  300000    241.77982    4855.1621     3048.625    17.294238  0.025200882 0.0026288117  0.025280983 
  301000     249.7782    7705.0593     3048.625    15.560856  0.011757181 -0.0015356167 -0.025545944 
  302000    243.20631    12058.193     3048.625    19.839426 0.0018793194  0.018016502 -0.010522654 
  303000     229.4204     6200.762     3048.625      25.6286  0.011412368 0.0065262269 -0.0021424371 
  304000    255.84024    4368.0655     3048.625    31.294887 -0.0079873877  0.019436035 -0.0067780447 
  305000    244.86473    8777.5871     3048.625    33.012248 0.0064273559 -0.0048828847 -0.018650738 
  306000    245.08125    13830.033     3048.625    28.903627 -0.014699959 -0.00046672953  0.056567661 
  307000    246.34718    5588.2706     3048.625     26.11252 -0.0097598951  0.020088979 0.0091317305 
  308000    235.53776    8242.6533     3048.625     26.43796 -0.014704828  0.017174595 0.0054062214 
  309000    256.74507    6097.0789     3048.625    26.704145  0.010521986  0.030719327 0.0046913134 
  310000    251.31335    8182.7774     3048.625    29.301511 -9.7231802e-05 0.0040505971 -0.010852445 
  311000    256.28562    11809.449     3048.625    30.606762 -0.0083804214  -0.01211616  0.020769841 
  312000    262.43827    1139.4093     3048.625    29.489167 -0.0075473509 -0.016892821  -0.02169951 
  313000    265.84832    9475.5025     3048.625    27.210992 -0.00039916439 -0.015558516  0.034516964 
  314000    259.17646    1347.8233     3048.625    22.871709 -0.001364655  0.022388811 -0.0056894488 
  315000    245.44034    12129.911     3048.625    19.829118 6.3359425e-05  0.022457722 -0.0067302301 
  316000    229.35428    18486.455     3048.625    22.632923 0.0058343686 -0.0034441351 -0.034008163 
  317000    256.22739    5016.2577     3048.625    23.846925  0.014189114 0.0024709374 0.0074262418 
  318000    260.93964    3189.5656     3048.625    22.703951  -0.02607996 0.0080243227  0.015124882 
  319000    230.70491    14530.351     3048.625    22.855912 0.0080256606 -0.027041114 -0.022360136 
  320000     235.4925    6761.4364     3048.625    27.141447  0.025767517 -0.013038007   0.02075492 
  321000     256.9944    8535.8214     3048.625     30.49217 -0.0061088413 0.0026914604 -0.015991359 
  322000    256.96841    7443.5192     3048.625    30.490271 -0.0087152151 -0.0034686216  0.012197772 
  323000    246.38712    2855.2875     3048.625    28.714095  0.010723283 -0.016784548  0.026237891 
  324000    250.35192    17054.387     3048.625    28.338107 0.0040816859 -0.0014997545  0.011658924 
  325000     258.1862   -2987.7194     3048.625    32.714773 -0.0013561967 -0.023777421 -0.011543482 
  326000    248.64306    762.95788     3048.625    35.625923  0.011140036  0.008254785 -0.029920818 
  327000    254.63225    15743.516     3048.625    32.084319 0.0039449018 0.0061706967 -0.0063596837 
  328000    261.68006   -1873.5262     3048.625    25.993075 -0.010866119 -0.013197917 0.00030408025 
  329000    259.62601    8503.6363     3048.625    22.694262  0.022126678 -0.042866442  0.017435331 
  330000     250.4573    8754.7253     3048.625    25.517865  0.032268097 0.0063139174 -0.0054179163 
  331000    240.41334    5473.1224     3048.625    28.329312 0.0023885318  -0.01974973 0.0036373012 
  332000    219.24283    15677.245     3048.625    29.062762 -0.0031894585 -0.057958863 0.0095590392 
  333000    239.36615    9387.7297     3048.625    30.795529  -0.01175545   0.02253368 0.0048410053 
  334000    250.96919    3708.8448     3048.625     33.97475 -0.034837489 -0.0056256886  0.048388549 
  335000    245.45724    8113.3576     3048.625    34.437421 0.0095334819 -0.030165692 -0.0064574636 
  336000    222.56424    5269.2188     3048.625    32.448799 -0.013696363 -0.026500842 0.0064264027 
  337000    212.58803    19941.619     3048.625    27.677176 -0.0078207219  0.007250074 0.0089151332 
  338000    247.22846    15653.385     3048.625    19.925271 -0.0077040025  0.032673163  0.020971637 
  339000    236.05902    442.01111     3048.625     14.99617 -0.028586904 -0.021539717 -0.0038936245 
  340000    240.70856    14258.962     3048.625    16.243643 -0.036222091  0.026408358  0.012586553 
  341000    255.63091    6540.3154     3048.625    20.879144  0.022449541 -0.032384855   0.01806042 
  342000    245.13869    4175.6381     3048.625    25.648095  0.028503145  0.016672847  0.001090611 
  343000    240.73733    11949.771     3048.625    28.224701 -0.0023569322 -0.0024874446 -0.017189003 
  344000    250.43516     7690.651     3048.625    29.113105 0.0088849985  0.015669162  0.020289482 
  345000     199.9735    15360.162     3048.625    28.463667 -0.044183741 -0.0024099687 -0.014431296 
  346000    229.56114    9176.8357     3048.625    23.903717 -0.033956351  0.012598335 -0.0025144156 
  347000     240.2449    5434.7595     3048.625    20.951869 -0.0089237485 -0.0071410431 0.0034768553 
  348000    233.07403    12869.044     3048.625    21.280492 -0.020433264 0.0098609183 -0.011771868 
  349000    245.61063    9233.4339     3048.625    23.621116 -0.014854437 0.0018596937 -0.020830821 
  350000    257.41709    8793.9357     3048.625    25.941526  0.010402126 -0.025531899 -0.0087775618 
  351000    261.29678    329.64248     3048.625    26.552026 0.0086712933 -0.013803915 -0.016432542 
  352000     242.2926    11853.896     3048.625    24.353842  0.018807798 -0.027445712 -0.016113123 
  353000    239.16467    12552.826     3048.625    22.955486 -0.012072446 -0.021735282  0.028015439 
  354000    226.93111    10770.191     3048.625    23.867965 -0.023817391 -0.019422253  0.025340308 
  355000    237.11995    12436.361     3048.625    23.178082  0.047750639 -0.011568975  0.019890696 
  356000    227.28382    9298.0564     3048.625     17.18581 -0.011073189  0.012226467 0.0058729166 
  357000    230.74682    9315.5847     3048.625     10.67077  0.019377127 -0.019728248 -0.015678537 
  358000     260.1228    11589.912     3048.625    12.653126  0.034052762  -0.00676771 0.0050407703 
  359000    252.72281     13432.65     3048.625    19.479323 -0.032526262  0.011109653 0.0018611592 
  360000    231.85961    5451.5365     3048.625    24.397948  0.019261073 0.0046263376 -0.00066976687 
  361000    252.83539    10013.389     3048.625    24.519244 0.0090934389  0.026350099 -0.019644097 
  362000    258.17686    4401.3123     3048.625    24.400266 -0.031122227 -0.011653856 -0.022176699 
  363000    256.81618    2947.8908     3048.625     25.94403 -0.0096314764 -0.0013031416 -0.0069679816 
  364000    221.25408    13307.249     3048.625    26.185586 -0.020309962  -0.01048223 -0.036409354 
  365000     250.9585    8749.8022     3048.625    27.393934  0.031646796 0.0004768982 -0.031187237 
  366000    255.32312    676.87323     3048.625     28.20166 -0.015200163 0.0058838874  0.027929044 
  367000    261.53625    13290.631     3048.625    29.885576  0.006200259 0.0021831778 0.0004293269 
  368000    247.54051    3097.1671     3048.625    28.228643 -0.0071498121 0.0088910904 -0.0037005336 
  369000    237.77713    9891.7975     3048.625    25.438174 -0.042676491 0.0030771704 0.0021444021 
  370000    249.86076    5980.3619     3048.625    25.490628 -0.014983403 -0.0035461285 -0.029312165 
  371000    246.17107    11920.586     3048.625    28.647274 0.00090153005 -3.9133535e-05 -0.024974449 
  372000    264.72406    3363.9082     3048.625      30.7789 -0.0032698363 -0.017356093  0.022665211 
  373000    254.52923    9906.0378     3048.625    29.064709 0.0018021856 -0.018233269 -0.012501107 
  374000    248.58234    2938.8904     3048.625    24.984096  0.017375941 -0.0033045873 0.0058050894 
  375000    270.22037    1083.1768     3048.625    22.527886 -0.022101224 0.0076969799 -0.0049672434 
  376000    261.95127    2217.0256     3048.625    25.010754 -0.011403628  0.020024213 -0.021440141 
  377000      233.369    7650.2733     3048.625    29.321882  0.010797684  0.055731111  0.022830548 
  378000    243.73242    9842.4089     3048.625    29.759212 -0.00076819543 -0.0064789187 -0.0003491313 
  379000    249.72444     8079.297     3048.625    27.943008  0.040586385 -0.010535891 -0.010292881 
  380000    243.81901    9783.3458     3048.625    28.584045 -0.028902282  0.018751299  0.016075849 
  381000    248.04153    10148.593     3048.625    29.393919  0.012376202  0.021420501   0.01510458 
  382000    273.93113    1138.5018     3048.625    26.798231 -0.0085352372 -0.011737993 0.0079100852 
  383000    247.62051    6543.3129     3048.625    20.957027 -0.032383372    0.0118957 -0.018655456 
  384000    231.93331     16889.76     3048.625    18.461324 0.0074963642 -0.0031827405 -0.0012512091 
  385000    257.25241     1370.021     3048.625    22.788059 0.0059548035 -0.0030884988  0.024399814 
  386000    249.75147    6831.6758     3048.625    30.644781  0.015363314 -0.038493739 0.0058141213 
  387000    252.12875      11740.6     3048.625    34.893294 0.0039378975 0.0083576212  0.007822568 
  388000    234.65396    3631.0958     3048.625    30.682718 -0.036122768  0.017657935  0.030807185 
  389000    224.74931    11340.359     3048.625    25.810491  0.013659721 -0.013935413  0.012888406 
  390000    244.92764    18153.515     3048.625    27.810008 -0.015917268 0.0064387248  0.026249437 
  391000     242.2698    1715.4044     3048.625    28.457055  0.021111651 -0.019860794 -0.038563416 
  392000    231.97362    14427.235     3048.625    25.779238  0.018915305 0.0046133482 0.0061013976 
  393000    236.37467    9862.5171     3048.625    22.847303 0.0036462592 -0.0052055782  0.015188449 
  394000    225.57467     15022.47     3048.625    22.200463 0.0076097498 -0.0040519499 -0.0054281869 
  395000    226.23059    4582.3509     3048.625    26.215721 -0.0090384263   0.04002826   0.00562074 
  396000    250.58691    10532.413     3048.625    31.025065 0.0091708044  0.016296404 -0.032573449 
  397000     255.6606    12891.382     3048.625    29.238268  0.039791737  0.033855345 -0.0046235162 
  398000    264.30904     1414.832     3048.625    25.448121 -0.012517448 0.0080207585 -0.023058705 
  399000    251.29735    3890.3638     3048.625    26.251084 -0.035517023  0.026583687 0.0082999395 
  400000    260.39165    6266.4084     3048.625        27.74 0.00091456481  0.018460939 -0.0076027118 
  401000    243.20868    8281.3228     3048.625    26.318936 -0.028513378 -0.036707359 -0.034490603 
  402000    250.75466    9389.4692     3048.625    24.845802  0.016353404  0.073557388   0.01368551 
  403000     252.1619    8441.9057     3048.625    27.997142 -0.012553081 0.0030732284 0.0081439357 
  404000    248.23579    2043.0081     3048.625    31.811369 -0.014048889  0.045069578 -0.0062002273 
  405000    258.51392    9681.7449     3048.625    27.556041  0.014812451 -0.010624017   0.01723732 
  406000    244.38594    9942.2632     3048.625    22.440608  0.012476799 -0.011388736 -0.013387389 
  407000     239.3111     8135.344     3048.625     22.89358 0.00068926415 -0.0018744228  0.039189754 
  408000    221.36856    4681.6813     3048.625    25.454148 -0.0028434271 -0.0041335474 -0.00041246852 
  409000    232.69277    10008.692     3048.625    26.429749  0.014189948 -0.013213581 -0.009703099 
  410000    242.37255    3257.8615     3048.625    28.066266 -0.015818622 -0.0060488962 -0.0021591538 
  411000    248.96392    5209.2182     3048.625    30.619253 -0.011854812 -0.010918445 0.0049544869 
  412000    228.91861    19580.055     3048.625    32.592495 -0.025831917 -0.002069878 -0.021633796 
  413000    247.96891    883.09678     3048.625    31.310606 -0.021715711  0.013507828 0.0041597961 
  414000    241.27821    8239.3663     3048.625    26.920537 -0.002007558 0.0019643151  -0.01613131 
  415000    249.21043    10727.514     3048.625    22.130743   0.01448261 -0.017431938  0.013296759 
  416000     223.5644    11141.875     3048.625    20.342125 -0.0059927923 0.0028790684 0.0044085548 
  417000    239.28135    3717.0368     3048.625     22.73245 -0.017511848 0.0089051609 -0.0065481708 
  418000    259.14192    10240.887     3048.625    27.006955 0.0014191962   0.00199795 -0.0097510709 
  419000    262.59139    8273.3988     3048.625    28.545947 -0.035271672  0.013182269 -0.010103879 
  420000    228.75395    9089.9996     3048.625     24.70111 -0.040395221 0.0065917028 -0.0052728002 
  421000    220.47742    6015.3035     3048.625    21.335518 -0.0067431308 -0.0020680479 -0.018007746 
  422000    245.03306    5796.5776     3048.625    21.086838  0.022038365 0.0096125269 -0.0027563755 
  423000    263.27145    9979.8991     3048.625    23.827306 0.0016469039  0.027094501 -0.0031220201 
  424000    250.24261    6002.3775     3048.625    23.380945 -0.0094766709 0.0069866133 -0.048709343 
  425000    252.72138    3410.0488     3048.625    19.891433  0.011458532  0.010128149 -0.014899522 
  426000    245.59744    9905.2152     3048.625    20.548006  0.003621859 0.0051821484 -0.020917138 
  427000    257.99866    1610.2884     3048.625    23.448134 0.0060370752 0.0063602636 -0.010001067 
  428000    250.55002    8939.6929     3048.625    24.738968 0.0055917977 -0.0078281835 -0.030159634 
  429000    234.32012    5476.5876     3048.625    25.885271  0.015362659 -0.0057515856 -0.00051356589 
  430000     237.2764    14381.547     3048.625    24.449735 -0.034913501  0.024671878 -0.030296265 
  431000    253.08078    7122.9948     3048.625     23.57875  0.022720294 0.0073700654 -0.0068324355 
  432000    237.12065    8367.1582     3048.625    23.105193 -0.016487616 -0.011429951  0.017269879 
  433000    240.65109    6348.2934     3048.625     22.04039 -0.041901539   0.01373303 0.0014593954 
  434000    246.03969    10426.687     3048.625    20.919708 0.0098876333  0.040065279  0.018906405 
  435000    227.78935    13471.595     3048.625    20.000141 -0.00013827274   0.02583135  0.011763944 
  436000    245.13196    5462.3868     3048.625    17.099353 0.0015494739 -0.0082131202  0.003646429 
  437000    241.42741    5434.3092     3048.625    17.462502 0.0027910106  0.013953636 0.0070705162 
  438000    229.99049    7743.8734     3048.625    23.133217   0.01265651 -0.014755896 -0.031084113 
  439000    241.02135     14577.38     3048.625     26.47147 -0.019483416  0.034888632 0.0055586984 
  440000    259.75422    3807.7974     3048.625    26.164978  0.000516364  0.011433913  0.019566688 
  441000    245.37706    7412.1845     3048.625     24.89711 -0.020727272 -0.0070378859 -0.0025241677 
  442000    249.22188    4230.7207     3048.625    25.432949  0.027495635  0.020181311  0.024356673 
  443000    245.36835    7839.2766     3048.625    27.868149 -0.019188063 -0.0097056678  0.028615253 
  444000    247.45458    11383.987     3048.625    27.981961 -0.017016323  0.043499451  0.020239899 
  445000    245.57047    5278.3074     3048.625    24.095253 -0.0032686191 -0.0051089725  0.012907813 
  446000    249.39574     3902.665     3048.625    21.978099 0.0023645895 0.0017336198  0.043629021 
  447000     273.6744    5698.5047     3048.625    25.096411 -0.040920169  0.042936692 -0.0064654279 
  448000    246.17505    8898.7929     3048.625    24.813075 -0.036942534 0.00016043207  -0.01252414 
  449000    237.96216    6163.6277     3048.625    21.503841 0.00085328545  0.061924755 -0.0055225627 
  450000    246.36066    15466.619     3048.625    24.396644  0.016664438 0.00057866699 0.0010680279 
  451000    262.20743    3110.1765     3048.625     31.88508  0.024585806   0.01667241    0.0205897 
  452000    248.11041    506.83187     3048.625    29.723316 -0.0013430654 -0.012738627  0.016949765 
  453000    257.92173    11994.377     3048.625    23.588594 0.0071335158    0.0168978 0.0044086703 
  454000    254.17278    4037.9911     3048.625    28.065318  0.010534456 -0.018602084 -0.0057752588 
  455000    240.46205    4959.5038     3048.625    35.649539  0.032173929 -0.0027517851 -0.045392344 
  456000    234.30205    8535.0974     3048.625    32.299758 0.0022126947  0.020548772 0.0080725863 
  457000     247.1439    8536.0278     3048.625    24.207635   0.01243399 -0.0092927487  0.025847635 
  458000    239.38884    5630.4763     3048.625    23.480917 -0.00026545861 -0.0085995158 0.0037310154 
  459000    253.32984    3855.8419     3048.625    29.297056 -0.0078542685 -0.023652285  0.010358571 
  460000    263.66884    6131.1804     3048.625    31.684539  0.014333749   0.03336479  0.022886893 
  461000    230.94571    11422.408     3048.625    29.675767 0.00035446746  0.037207303 -0.00079953558 
  462000    240.43195     6234.593     3048.625    26.279303 -0.030306873   0.01640597 -0.0088423283 
  463000    255.59208    6345.5362     3048.625    22.266718  0.011719463 0.0019155902 -0.013119809 
  464000    258.39939     6007.479     3048.625    20.199043 -0.00091485871 0.0018062197  0.025208225 
  465000    252.86125    7153.1066     3048.625    21.806214 -0.012024949 -0.020916577 0.0044507306 
  466000    254.26409    7642.9333     3048.625    26.458965 -0.027665286 -0.00073981754  0.019605333 
  467000     243.4386    7692.3197     3048.625    26.864088   0.01348311  0.016455391 -0.019233175 
  468000    252.22076    5063.6625     3048.625     24.43537 0.0045600577  0.041426397 -0.045132418 
  469000    257.41476    4051.7504     3048.625    25.682154  0.023310788 0.0061282419 -0.016306473 
  470000     238.8657    4961.9749     3048.625    30.286453 -0.0037739471 -0.0019660939 -0.012459519 
  471000    262.69607    10278.699     3048.625    33.262569  0.021645875  0.009253811 -0.027576339 
  472000    259.42957    5788.8684     3048.625    29.515883 -0.025661457 -0.0091052655 0.0097112284 
  473000    247.12875    5555.1566     3048.625    23.727673 -0.0053193142  0.013754226 -0.010426865 
  474000    244.65655    8318.9662     3048.625     25.72858  0.017661918 -0.031687597  0.016300489 
  475000     246.8408    5598.2536     3048.625    32.908348 -0.017256454  -0.03111731 -0.0032363532 
  476000    252.80364   -285.52921     3048.625    32.228316  0.010527854 -0.0013631965 -0.021328762 
  477000    269.86312    3845.2348     3048.625     26.81591 -0.027906462  0.061369436 -0.0021859812 
  478000    255.04777    7980.0791     3048.625    27.515075 -0.012112314  0.031624392  0.017451925 
  479000    252.92475    2348.6087     3048.625    33.443175 -0.021945872 -0.0016207268 -0.012762276 
  480000    238.47249    3145.8756     3048.625    35.487935  0.017820178  -0.01623657 -0.017698778 
  481000    259.55946    7192.4443     3048.625    31.097475 0.00068241748  0.014988739 0.0031109657 
  482000    257.66448    3322.7473     3048.625    25.902585 -0.022023525 -0.0010182381  0.018446074 
  483000    249.02939    10463.849     3048.625    25.195228 -0.010131396 -0.0025586503 0.0084287644 
  484000     264.5906    1256.1983     3048.625    29.146625  0.025684426  -0.03079269 -0.0029375443 
  485000     262.0209    5165.2068     3048.625    32.435987 0.0080186083 -0.0063643431 -0.023551481 
  486000    242.19748    10627.148     3048.625    29.677859 -0.020210345  0.020479895 -0.017533215 
  487000    248.48839    8092.6163     3048.625     27.04915 0.0063099436  0.036678232 0.0013505142 
  488000    222.09694    3313.9932     3048.625    26.709025  -0.01793718 0.0081712694  0.020578977 
  489000    248.41419    6684.0014     3048.625    29.659462 0.0069531431 -0.015989898 0.0067363626 
  490000    255.68792    7548.9454     3048.625    32.464027 -0.019016451 0.0032351119 8.8447957e-05 
  491000    258.87021     2631.604     3048.625    31.560774 -0.017318336 -0.026717118  0.010079286 
  492000    263.34858    3747.9316     3048.625     28.56138  -0.01763625 0.0069543985 -0.0011623797 
  493000    248.02705    8129.1963     3048.625    25.493799 -0.0080776725 0.0099535339 0.0097020247 
  494000    240.35814    8797.9153     3048.625     24.10036 -0.0094845728 -0.022614519 -0.019825631 
  495000    246.28408    2288.6567     3048.625    25.406442 -0.017102434 -0.014897076  -0.01474493 
  496000    245.69309    11458.282     3048.625    29.878254 0.0012095299 0.0070716912 -0.021224938 
  497000    223.52858    6289.0938     3048.625    33.857463 -0.0033017397  0.018018118 -0.020861693 
  498000    234.54225    7980.9151     3048.625    33.089097  0.021582446  0.020538655 -0.010951164 
  499000    246.74843    4364.2497     3048.625    26.256686 0.0043556665 0.0022983351   0.00594946 
  500000    253.95391    12672.735     3048.625    19.560193  0.040968688 -0.0034533643 0.0035134678 
  501000    255.80689    649.98244     3048.625    18.657352  0.019691406 0.00067978746 -0.028376009 
  502000     245.3797    3246.0674     3048.625    22.360742 0.0055426947 -0.00013523137 0.0043247904 
  503000    245.00748    9960.3617     3048.625    27.294674  0.016755147  0.033060536  0.038012578 
  504000    242.59614    9533.1757     3048.625    32.385431  -0.01575337 0.0099585997  0.011753339 
  505000    250.10402    3324.6169     3048.625    34.596251 -0.026432406 -0.028373811 -0.035160713 
  506000     229.6359    12063.278     3048.625    31.224423  -0.02238587 -0.024498766 -0.020492263 
  507000    245.91907    10777.541     3048.625    23.596703 -0.035581674  0.011277203  0.025437442 
  508000    237.85071    9289.1563     3048.625    19.332255 0.0038565682 -0.022928119  0.010933923 
  509000    246.34484    9253.3022     3048.625     17.91365 -0.023322069  0.015184699 -0.026088057 
  510000    227.30181    6219.4973     3048.625    19.193925  0.030074298 0.0011819584 -0.00055467122 
  511000    252.85463    2769.0322     3048.625    25.149958  0.020598208 -0.00011258118  -0.02670789 
  512000    256.16862    4866.3632     3048.625    31.156933  0.018263507 -0.0029979925  0.010636249 
  513000    232.63332    14235.378     3048.625     34.41455 -0.0017239461 -0.0067599692 0.0094459513 
  514000    240.97681    8763.1335     3048.625    32.607028 -0.017910027 0.0031425052  0.036237563 
  515000    245.85954    2311.7227     3048.625     27.99989 -0.0037255951 0.0092772807  0.053900738 
  516000    229.39161    7970.8393     3048.625    24.599826 0.0045122553 -0.023311491  0.059887227 
  517000    229.22016    11328.143     3048.625     23.94773 -0.013919776 0.0038887754  0.035336176 
  518000    238.47754    5566.7232     3048.625    26.897872 -0.0067951271 -0.032321549  0.015714462 
  519000    232.68572    11469.139     3048.625    28.905932 -0.018736724 -0.011471333 -0.010145321 
  520000    258.60241    8898.3666     3048.625    28.048369 -0.014183437  0.014327497  0.012846296 
  521000    236.99152    8442.2403     3048.625    27.725098 -0.033923211   0.01104919 -0.0015479788 
  522000    224.55808    5611.8233     3048.625    31.291464 -0.0050299718  0.049987192 -0.00087402174 
  523000    221.28215    12394.712     3048.625     34.59186  0.034638222 0.0060265992 0.0019814663 
  524000    224.80152    10113.072     3048.625    34.310433  0.040693864  0.020613354 -0.0022181409 
  525000     231.5761     11655.89     3048.625    29.373003 0.00086902231 -0.0046074675 0.0084282715 
  526000    228.65108    7365.6857     3048.625    25.159579 -0.020050133 0.0004920021 0.0075618072 
  527000    255.57255    4332.1042     3048.625    26.147638 -0.010472859 0.0015767685  0.029761186 
  528000    258.05542    5444.6634     3048.625    28.722207  0.024678408 -0.0080999976   0.03403235 
  529000    229.98029    11026.817     3048.625    25.699995  0.031842285  0.031491774 0.0039218839 
  530000    221.59687    7201.8753     3048.625    20.085355  0.015303209 -0.022215894 -0.0026924181 
  531000    249.24801    8804.5743     3048.625    15.133834 -0.013417969 -0.00010199161 -0.023256764 
  532000    228.54454    8332.6326     3048.625    14.927857  0.030661573 0.0034563899 -0.015216617 
  533000    222.62432    9806.4004     3048.625    20.427969 0.0033808329  0.023231978 -0.016943987 
  534000    239.49713    12013.486     3048.625    26.978544 -0.012684723 0.0084538871 -0.0020893145 
  535000    222.23769    14271.867     3048.625    30.696881 -0.011694328 -0.035006834 0.0089865526 
  536000    241.26011    3143.0868     3048.625     30.16727  0.050736308 0.0032290657  0.010806812 
  537000    253.90578    10262.113     3048.625    27.028498  0.032964382 -0.028373707  0.021388546 
  538000    247.96508    6657.9531     3048.625    27.078269  0.052191367  0.035267475 0.0061190925 
  539000    259.00392     2185.748     3048.625    30.966876 -0.0040980554  0.010001655 -0.0018005793 
  540000    235.46005    7210.2717     3048.625    32.585533  0.015975329  0.014249771 -0.022836579 
  541000    233.06367    10794.977     3048.625    30.368654 0.0043421456  0.000223579  -0.03084408 
  542000    252.82493    7351.0427     3048.625    28.619685 -0.012195827 0.00082491647 -0.0030036231 
  543000    231.08796     14191.69     3048.625    27.324268 -0.037872457 0.0031381384  0.039547951 
  544000    234.77443    5590.6773     3048.625     26.90822 -0.017810112  0.033199893  0.018667433 
  545000    235.96803    10461.091     3048.625    24.767159  0.024118083 -0.0073884852 -0.024428017 
  546000    249.39402    9501.3065     3048.625    21.555727 -0.001143689 -0.016386479 0.0037197708 
  547000    244.68418     10441.79     3048.625    22.202062 -0.017380401 0.00011597599 -0.0064786888 
  548000    241.08359    3179.3427     3048.625     26.38332  0.031188396 -0.0055180331 0.0045449815 
  549000    247.63863    14585.302     3048.625      29.1788 -0.00046482052 -0.00085717039 -0.034108965 
  550000    249.40796    7885.5168     3048.625    25.847855 0.0018661314 -0.010924388 -0.012709622 
  551000    239.02652    754.63224     3048.625    19.871763 -0.0025248662   -0.0106945 -0.017421743 
  552000     242.8896    8933.8194     3048.625    21.443391  0.022407222  0.021899035  0.029495097 
  553000     234.8881    6442.1724     3048.625    27.632362 0.0015418401   0.01455695  0.041816973 
  554000    233.95169    4419.1593     3048.625    28.914875  0.011961608  0.017897128 0.0024859476 
  555000     229.3416    10662.214     3048.625    22.977339 -0.010000146  0.036336434 -0.0039032817 
  556000    249.05166    6621.4762     3048.625    17.074668 -0.020251541 0.0050712472 0.0048661498 
  557000    245.35896   -2330.5245     3048.625    18.226636 0.00015796306 0.0065978375  0.015852188 
  558000    242.73053    9646.7693     3048.625    22.360508 -0.025419705 -0.018375251 -0.011511421 
  559000    234.00172    9147.3433     3048.625    22.229591  0.028649656 -0.0085783194 -0.011381391 
  560000    239.01958    5037.2292     3048.625     20.94904 0.0022895373 -0.031058384  0.016110845 
  561000    231.39154    9447.6725     3048.625    22.201714  0.053389213  0.015673662 -0.017384941 
  562000    235.74772    9092.5766     3048.625    23.424003 0.0085496537 -0.0027112663 -0.020551419 
  563000    247.85919    9773.0382     3048.625    23.216593 -0.010475481 -0.00053404675 0.0077335419 
  564000    227.64799    10179.995     3048.625    20.960119 -0.013241795 0.0032802407 0.00057696699 
  565000    234.45607    9447.6285     3048.625    24.191632 -0.0058375823  -0.03279467 -0.019488907 
  566000    224.79639    8870.7426     3048.625    30.334421 0.0099996033 -0.0067224296 0.0038771921 
  567000    243.71071    10318.357     3048.625    34.656672 0.0030869809 -0.018027198 0.0084436908 
  568000    255.37312    4200.1996     3048.625     35.28591 -0.024976416 -0.010800143 -0.017171264 
  569000    225.59734    12381.539     3048.625    34.182006 0.00076692926  0.018105752  0.028968615 
  570000    217.93001    7965.4813     3048.625    30.798856  0.020902945 0.00033584249 -0.0006659766 
  571000     236.3051    9096.5641     3048.625    26.049464 -0.017232084  0.001711446  0.016668884 
  572000    243.42235    6472.3773     3048.625    22.435126  0.025170364   -0.0079575 -0.0031707416 
  573000    251.41083    8206.2727     3048.625    22.130344  0.026709947 -0.012686518 -0.0024959611 
  574000    242.93596    3930.2609     3048.625    25.805005 -0.0017063343  0.006815502  0.035118206 
  575000    244.02971    12508.401     3048.625    30.854466 -0.0026844283 0.0087926798 -0.031712905 
  576000     232.9069    2368.5087     3048.625    32.080915 -0.0054740957  -0.02261283  0.026854796 
  577000     241.4333     650.5655     3048.625    32.890525 -0.025972192  0.013241263 -0.023022722 
  578000    235.32694     13251.86     3048.625    35.059325 -0.029966074  0.011853662  0.034451113 
  579000    242.61409    7677.0371     3048.625    35.617943 -0.010876835 0.0084904394  0.013490091 
  580000     228.1532    1446.9349     3048.625    33.827529 -0.017181555 -0.014254294  0.011340923 
  581000    248.18911    11456.618     3048.625     27.92057 -0.0026696774  0.015696202 0.0087937247 
  582000    246.37442    6898.1297     3048.625    20.265694 -0.016852178 -0.00027661357 -0.012600438 
  583000    235.58852    2985.0281     3048.625    17.964156 -0.011332786    0.0140891 -0.00043958625 
  584000    262.65894    5194.5113     3048.625    20.546545 0.0031752706  0.023329304 -0.027942123 
  585000    254.36161    3640.8867     3048.625    24.435343 5.6099676e-05  -0.01205141 -0.021730707 
  586000    238.10507    8889.0942     3048.625     25.97432 -0.0080951285 0.0057002056  -0.04348041 
  587000    252.12913    7900.7496     3048.625    24.469624 -0.024372907  0.022381842   0.02401965 
  588000    270.59144    6999.0094     3048.625    27.765959 0.0044634067  0.033773744 -0.00062806406 
  589000    248.92301    7266.0227     3048.625    31.245354 0.0097694217 -0.016266137 0.0095842387 
  590000    242.45824    4107.7728     3048.625    28.321157 -0.00078811913 -0.0053157753  0.007400096 
  591000    233.29435    1757.6529     3048.625    21.722904  0.025963452  0.008691637 -0.0079814311 
  592000    244.53504    13108.977     3048.625    20.546821 -0.012462778 0.0023932813  0.033216548 
  593000    251.23569      6014.19     3048.625    25.351528  -0.01318597  0.017559174 0.0021734789 
  594000    243.66448    1375.5416     3048.625    25.002029  0.031762351 -0.026070956 -0.021959511 
  595000    238.36922    11964.556     3048.625    19.976197 -0.013526489  0.016592178 -0.013531065 
  596000    240.78071    13693.474     3048.625    17.165628 -0.021845526 -0.0097089226 -0.0022767388 
  597000    246.64335   -204.10346     3048.625    21.580661  0.016864683 -0.0054485616 0.0036156465 
  598000    249.73159     10020.15     3048.625    27.533007   0.01346605    0.0066026 0.0029913091 
  599000    254.23818    8732.6044     3048.625     29.21026 -0.022451712   0.01220197 -0.005519833 
  600000    236.22617    3857.8112     3048.625    29.403606 -0.016978194  0.017490379 -0.023998974 
  601000    249.12002    12166.307     3048.625    27.976457 -0.019267452 -0.016400989 -0.0074042092 
  602000     253.4131     5284.304     3048.625     26.55379 -0.021110057 -0.021398438 -0.0007140279 
  603000    259.60185     466.1094     3048.625    25.898559  0.011019115  0.011213633 -0.028234452 
  604000    246.46454    6731.1625     3048.625    26.842697 0.0013138123  0.023059359 -0.015254878 
  605000    231.92449      7854.66     3048.625    24.686774 0.0045463114 -0.0026849002 -0.0017981046 
  606000    258.48537    8404.9633     3048.625    24.186483 -0.015939807 -0.0027058151  0.001126777 
  607000    243.33521    10160.991     3048.625    24.940156  0.014685365 -0.0014196908  0.016608202 
  608000    238.22594    3332.0952     3048.625     23.06797 -0.012632832  0.014667198 -0.023618948 
  609000    255.15427    5599.0739     3048.625    19.752133 -0.010612026 -0.012379712 -0.0064128148 
  610000    257.55995    9697.5992     3048.625    18.335213 0.0047982771 0.0039852309 -0.0033401892 
  611000    228.01547    9662.7194     3048.625    20.993821 -0.004394062 -0.0092325864  0.010412044 
  612000     228.7746    6284.6974     3048.625    22.865861 -0.018561604 0.0098654406 -0.0091995993 
  613000    226.08147    12696.201     3048.625    25.386345 -0.016269356 -0.003149037 -0.013751309 
  614000     226.0314    6682.2194     3048.625    26.025779  0.029294179 -0.0017580015 0.0045300322 
  615000    245.10809    3080.2381     3048.625    21.959455 -0.021276321  0.024888771  0.028493506 
  616000    242.71143    10400.509     3048.625    17.195753 0.0084718874  0.027750294  0.014067909 
  617000    245.13932    7773.2219     3048.625    16.192066 -0.0056682293 -0.026327916 -0.004132227 
  618000    249.12567    6079.8237     3048.625    22.446403 -0.0015651469  0.029499068 0.0096137528 
  619000    244.10215    7535.1124     3048.625    28.793204 -0.010077447 -0.041661602  0.010498759 
  620000    233.76933    4211.4106     3048.625    31.612428 -0.010875198 0.0017638126 -0.017739767 
  621000    258.96718    3198.7204     3048.625    31.343422 -0.019892229  0.020459633  0.016160633 
  622000    239.70842    6935.5244     3048.625    28.549948 0.0060648486 0.0092701052 -0.0059130182 
  623000    230.69335    3197.8189     3048.625     27.37459 -0.024168353  0.030012074  0.018986681 
  624000    222.36555    14260.673     3048.625    28.763623 -0.011266914 0.0068715688 0.0082714365 
  625000    242.05415    4054.5642     3048.625    29.840554 -0.017542606 -0.001882215 0.0015774636 
  626000     260.4108    7990.7781     3048.625    29.610582 0.0047565009 -0.048122843 -0.0010761375 
  627000    259.36898    4997.3386     3048.625    31.805031 0.0083594388 0.0061660889  0.022122038 
  628000    250.85092    3921.6415     3048.625    33.869621 -0.0093631018 -0.015376318 -0.0041288844 
  629000    264.42623     1627.953     3048.625    34.884121 0.0029368878 -0.019206719 0.0094599414 
  630000    241.54238    9108.3663     3048.625    33.558368 -0.00013431547  0.012021805 -0.0087647893 
  631000    238.30646    13808.604     3048.625    31.348761 -0.014107583   0.03875839 -0.008825937 
  632000    241.62372    6352.5873     3048.625     31.71358  0.010745192  0.014243081 -0.019207931 
  633000     234.5081    6621.9192     3048.625    33.916953 -0.0015328231  0.026444998  0.010982705 
  634000    241.81618    8249.5587     3048.625    34.919467  0.022187324 -0.037914211 0.0063968594 
  635000    231.26549    11468.159     3048.625    32.043462 0.0030167643  0.015762867 -0.0011895839 
  636000     246.7102    8472.9481     3048.625    25.525354  0.012716265 -0.0047209068  0.014207676 
  637000    241.41775     7578.475     3048.625    22.747051  0.024607591   0.02824646  0.011068507 
  638000    235.33894    7878.8666     3048.625    25.495465 -0.0040985311  0.011773349  0.014637687 
  639000    232.99748    7987.9946     3048.625    27.220888 0.0088162087 -0.0077911062 -0.00092978215 
  640000    219.35718    6658.3146     3048.625    24.130785 0.0046210902 -0.011274939  0.015020687 
  641000    235.75379    11165.423     3048.625    19.805217  0.027135438  0.016280047  0.017656866 
  642000    245.98584    5480.0215     3048.625     18.64997  0.025368866  0.021885612 0.0059415239 
  643000    245.77914   -309.33525     3048.625    21.429492 -0.016053759 -0.0031520142  0.011615213 
  644000    223.06043    13702.017     3048.625    25.524945 0.0048599873  0.015383344  -0.04467407 
  645000    244.99365    6692.4228     3048.625    26.746446  0.035703639  0.004125437 -0.00054628495 
  646000    239.48436    5172.8675     3048.625    23.995906 0.00037798078 0.0022175757  0.027647282 
  647000    260.54285    4908.9447     3048.625    22.998431    0.0113619  0.016875134  -0.01716483 
  648000    226.02006    8069.6922     3048.625    25.589295  -0.03411605  0.022693519 -0.023593781 
  649000    228.13802    9045.8385     3048.625    27.583489 -0.0086594516 0.0095265232 -0.0052512468 
  650000     254.1565    8458.6027     3048.625    24.716098 0.0061801097 -0.015614003 -0.041531088 
  651000    238.81643     926.7191     3048.625    23.541331 -0.0086823944 0.0079301414 -0.00045787817 
  652000    222.75186    17282.776     3048.625    26.771572 -0.0013542817 0.0052319489  -0.03915167 
  653000    243.91219    3396.7511     3048.625     29.39041 -0.0043253531  0.016598889  -0.01400913 
  654000    238.07259    4816.9545     3048.625    27.558966  0.013399183  0.033236123  0.011306264 
  655000    244.76279    12938.049     3048.625    23.120478  0.021439799  0.022382567 0.0029613819 
  656000    228.39691    3512.3863     3048.625    23.709584 -0.0015251534    0.0139095 0.0073974543 
  657000    248.05216    6986.7019     3048.625     26.81169  0.017049325 0.0020298584  0.011999759 
  658000    216.25757    7059.7098     3048.625    27.070344  0.018849158 -0.016805514 0.00077151631 
  659000    246.95529    7141.9105     3048.625    24.850838 -0.0024601778 -0.020211497 0.0069517981 
  660000    236.96618    6027.2581     3048.625    23.039251 -0.018807933 -0.016228238  0.026245819 
  661000    227.61393    10131.232     3048.625     25.44801 -0.018119105 0.0017707016  0.017367893 
  662000    231.09429    9530.1345     3048.625    26.268405  0.015767355 -0.010952234 0.0058021071 
  663000    236.64668    6651.4703     3048.625    24.970311  0.015432637  0.010038024  0.019740635 
  664000    235.82385    16065.139     3048.625       26.396  0.010905161  0.010977361 -0.0030862046 
  665000    235.92107    6156.8938     3048.625    29.733787  0.038108427 0.0086237835 0.0084321083 
  666000    248.91554    3448.6307     3048.625    29.073603   0.03482135  0.017852151  0.015935643 
  667000    254.05505    2399.1122     3048.625    24.259449  0.033050623  0.025380925  0.018465337 
  668000    231.02612    13341.146     3048.625    22.015435 0.0060634287 -0.021079372 -0.0083498055 
  669000    223.10125    13930.741     3048.625    25.088933 -0.0037522076   0.02402595   0.02019475 
  670000    224.16605    4166.7928     3048.625    29.713235 -0.013643196  0.046891296  0.024788163 
  671000    221.92273     7001.154     3048.625    33.228623  0.008906423  0.051049874  0.023898826 
  672000    222.32386    20972.479     3048.625    33.933082  0.032055083  0.034409592 -0.018580384 
  673000    228.68274    10842.683     3048.625    30.547768  0.013604285  0.014341359 -0.0023415205 
  674000     227.8324    -1372.317     3048.625    27.553576 -0.0026006254  0.020156469  0.010338383 
  675000    224.66843    17120.391     3048.625    26.503729  0.037918727 -0.028115909 0.0068328033 
  676000    221.33588    10196.577     3048.625    30.038778 -0.010532778 0.0014391885 -0.0013419166 
  677000    231.22376    4747.1499     3048.625    32.687244 0.0063921022 -0.0098711536  -0.02241293 
  678000    215.85312    9361.6907     3048.625    31.466704 0.0016351903  0.043677157  0.024798237 
  679000    222.07057    15010.435     3048.625    27.999346 0.0099359604  0.013314234  0.030951417 
  680000    226.19234    2732.5742     3048.625    25.961955 -0.0097560075  0.012780644 0.0034389892 
  681000    259.27609   -1512.8106     3048.625     23.78855  0.027580998  0.014946893  0.021426268 
  682000    239.55401    8775.2046     3048.625    25.587553 -0.016950876 -0.00096231794  0.014424343 
  683000    232.83225    10296.086     3048.625    30.218821 -0.0047331707 -0.0025716216 0.0097600723 
  684000    223.83731    8940.9216     3048.625    33.786866   0.02310156 -0.037032009  0.016956709 
  685000    238.75886     9729.515     3048.625    35.937084  -0.01006404 -0.0067846143 -0.012143234 
  686000    234.32352    15545.911     3048.625    35.405217   0.02209527  0.016468469 0.00040237083 
  687000    240.37713    5668.3805     3048.625    31.660563  0.026350882  0.014914521 0.0034533342 
  688000    222.33489     8982.938     3048.625    27.356311  0.010952573 -0.032870858 -0.016890482 
  689000    230.42994    16193.463     3048.625    24.616653 -0.0094236587 -0.016666225 0.0015892946 
  690000    233.53245    5038.5102     3048.625     25.10335 -0.0073814001 0.0034009998 0.0017660702 
  691000    221.57043    5485.8096     3048.625    27.583511 -0.0010844362  0.009126641  0.037978541 
  692000    237.15931     14655.39     3048.625    29.731919  0.015413456  0.015357424  0.017126696 
  693000    243.84171    4657.4116     3048.625    30.519779  0.017772906 0.0082193674  0.012393603 
  694000    237.85084    7605.3795     3048.625    32.369574  0.012931864 0.0034459996 -0.014114786 
  695000    237.18059    10153.565     3048.625     34.20587 -0.0017713513  0.025080972 0.0018090835 
  696000    233.39421     916.9264     3048.625    36.012311 0.0058841934  0.034849201  0.036600873 
  697000    246.90557    9273.9291     3048.625    34.352684  0.035389699 -0.009613699    0.0125288 
  698000    237.54144    8462.6256     3048.625    30.675392  -0.00377105  0.023728282 -0.00084807719 
  699000    252.95121    220.02132     3048.625    27.587365  0.016299102 0.0060536341 0.0016655761 
  700000    261.53786    5375.5122     3048.625    28.789334 -0.012934042 -0.021564449 -0.0034909316 
  701000    245.94923    7246.7446     3048.625    32.368653  0.013911834 0.0017486531  -0.01445827 
  702000      246.598    3440.8736     3048.625    31.005656 0.0062742123 -0.010252661  -0.01789302 
  703000    243.96458   -363.39412     3048.625    22.787554 -0.0034138919 0.0060711361 -0.026573446 
  704000    255.79442    13146.705     3048.625    16.738636 -0.0026991116  0.015935839 -0.020462642 
  705000    254.56985    4875.1967     3048.625    19.100146 -0.021554933 -0.013448232  -0.01576822 
  706000    247.81975    4624.8228     3048.625    22.415431 -0.0081059382 -0.00058747446  -0.01729518 
  707000    255.14067    3254.5618     3048.625    23.432074 0.0020587306  0.011461052 -0.017454902 
  708000    235.55908    5338.2669     3048.625    20.284028  -0.01926745  0.002084886 -0.0011130599 
  709000    211.22529    6313.5464     3048.625    18.966766 -0.003035998 0.0017824346  0.011787056 
  710000     239.7209    4873.4194     3048.625    20.987282 0.0029450055 -0.017491331 -0.018797519 
  711000    246.11429    12717.388     3048.625    25.127442  0.012796984 -0.009154074 0.0013814468 
  712000    253.06383     3026.739     3048.625    27.919856  0.010742494 0.0084719268  0.011761302 
  713000    225.85116     4407.324     3048.625    27.059301 0.0093993977  0.027723456  0.019994429 
  714000    242.17458    8121.3729     3048.625    21.454398 -0.0093799655  0.021532996 -0.031949702 
  715000    234.20343     4170.955     3048.625    20.000596 -0.033914121 -0.0056198984 -0.031008605 
  716000    241.11982    6204.8334     3048.625    24.767394 -0.033239858 -0.016940862  0.023662233 
  717000    254.02904    13086.384     3048.625    32.143173 -0.028396625 -0.015739563  0.013947189 
  718000    251.63477    3514.0691     3048.625    34.411316 -0.026085133 0.0058741503 -0.015409605 
  719000    231.16663    4644.4824     3048.625    31.043632 -0.015985779  0.027647275 -0.028326847 
  720000    258.54277    5628.5858     3048.625    25.465612  0.024560385 -0.017045601 -0.0041893187 
  721000    245.81297     7924.689     3048.625    22.417632  0.013000276  0.011666462  0.013006865 
  722000    231.70809    8250.6022     3048.625    23.039888  0.012904939  0.012339239  0.011038552 
  723000    244.13103    3417.3878     3048.625    27.041492  0.026711034 0.0067961947 -0.012102994 
  724000    236.92576    6918.6173     3048.625    31.110069  0.012509422 0.0011290138  0.011201919 
  725000    222.76474    10663.805     3048.625    30.446394 0.00089180535 0.0033128133  0.020817749 
  726000    249.70845    5837.5918     3048.625    26.179064 0.0078878915 -0.011213648  0.013158258 
  727000    249.18253    1201.3746     3048.625    25.305092  0.013393444  0.033083243 -0.042212459 
  728000    250.90187      4511.42     3048.625    30.038781 -0.022531477 0.0060008658  0.008152896 
  729000    256.37587    5443.4617     3048.625    35.091509 -0.0085661178  0.024842111 -0.00016834052 
  730000    256.81504    8828.9644     3048.625    32.151688 -0.0010809493  0.015117398  0.026902889 
  731000     232.8305    4074.7529     3048.625     25.93939  0.044593227 0.0018019929   0.01800267 
  732000    232.69786    7061.7122     3048.625    24.674289 0.0081942551 0.00031441574  0.011515181 
  733000    238.82322    5524.4081     3048.625    27.382464  0.014724417  -0.03563665 0.0055160455 
  734000     245.8328    670.71196     3048.625    28.978522   0.01333422 -0.039325111 0.0080568212 
  735000    252.22278    5106.6597     3048.625    28.294656  0.042856773 0.0087871601 0.0084022055 
  736000    250.33653    4408.2159     3048.625    26.122535 -0.033027792 -0.014388152 -0.0064133077 
  737000    253.33734    3412.7234     3048.625    24.657664 0.0070096842 -0.025833373 -0.020020064 
  738000    234.85178      8531.98     3048.625    24.756523 0.0050021078 -0.0081649071  0.036962226 
  739000    211.44117    12853.657     3048.625     26.89058 -0.015911749 0.00085339097 0.0062639508 
  740000    248.95417    6853.8777     3048.625    30.722248  0.028604391  0.008237661 -0.0037919978 
  741000    254.59834   -1047.0419     3048.625    32.640889  0.038257778 -0.019128121 0.0089175178 
  742000    245.12709     10262.68     3048.625    30.168213 -0.0012713982  0.033977106  0.006539042 
  743000    251.07197    9517.4259     3048.625    26.864652 -0.00099970151 0.0046137628 -0.018742469 
  744000    245.94975    7723.4983     3048.625      26.4294  -0.02421833 0.0045609664  0.010118974 
  745000    242.70445   -865.15802     3048.625    29.322238  0.031023105 -0.023711949  0.013899284 
  746000    251.04446    7048.6522     3048.625    30.769274 -0.028251544  0.012716857 -0.008680731 
  747000    222.33744    9352.5344     3048.625    29.263075  -0.02484361 0.0079654203 0.0023012831 
  748000    230.64018    3139.5658     3048.625    28.547966 -0.0069231667 0.0041302945 -0.016261629 
  749000    245.60767    8776.0745     3048.625    31.655108 -0.0077808573 0.0024067732 -0.017936788 
  750000    235.43999    7070.8157     3048.625    33.404147  0.026888728  0.030250487 0.0026084154 
  751000    240.05255     5522.004     3048.625    33.117967 0.00047672926 -0.013126991 0.00039302181 
  752000    248.71876    2972.8297     3048.625    31.653628 -0.0019397049 -0.0089492366 -0.0093004394 
  753000    265.38367    5277.9469     3048.625    30.264283  0.013090889  0.015138257 0.0043375412 
  754000    247.52737    9383.5509     3048.625     30.44887  0.047882365 -0.010069049 -0.019468543 
  755000    261.31283    6224.2419     3048.625    30.391794  0.024222412 -0.015884894 -0.0066857364 
  756000     264.0377    6546.5957     3048.625    27.366002 -0.035972332  0.010451215 -0.0029823339 
  757000    254.07484    8545.2658     3048.625    26.298306 -0.0044933815 -0.0056962799  0.003626222 
  758000    242.77468    3057.0239     3048.625    29.074486 -0.031995536   0.02337702  0.023712821 
  759000     239.7963    6948.2267     3048.625    30.315403  -0.03255425 -0.014316386 -0.0073562041 
  760000    245.42845    7610.2241     3048.625     28.25637 -0.027334294  0.039219698  0.025691054 
  761000    233.49742    7646.6644     3048.625    27.168487 -0.017939815 0.0059745141  0.018233666 
  762000       258.98    4947.7351     3048.625    26.385885 -0.0069543816  0.034813265  0.026926791 
  763000    238.69866    4987.4357     3048.625    28.116902 -0.033754467  0.020535476 -0.017921149 
  764000    246.26062    5488.4452     3048.625    31.583992  0.017501995 -0.021507347 -0.026644757 
  765000    230.97239    9609.3503     3048.625    31.265528  0.010170854 -0.043456277 0.0054547349 
  766000    228.35246    10777.536     3048.625    30.111815   0.04329171 0.0011973245  -0.00553908 
  767000    238.32896     3767.729     3048.625    28.064381  0.019567114 -3.326756e-05  0.013546814 
  768000    245.30429    4568.1266     3048.625    25.178742 0.0026876929 -0.0089887404 0.0077146864 
  769000    243.80147     9171.316     3048.625    23.682114  0.013750955 0.0025274913 -0.0044148188 
  770000    238.70063    2174.3789     3048.625    26.689258 -0.019620503  0.021723986 -0.0049104975 
  771000    248.66018    10990.364     3048.625    28.450624 0.0045404396 -0.024283436 0.0086696277 
  772000    264.42948    1614.5725     3048.625    26.873748  0.023040465 -0.024012613  0.020129108 
  773000    253.26735    102.20739     3048.625    22.883794 -0.0080885581 -0.029947779  -0.02658127 
  774000    243.18002     4853.279     3048.625    22.807792  0.019331093 -0.0029057715 0.0064375175 
  775000    238.73144    7631.8628     3048.625    28.081063 0.0047913467 -0.013333991 -0.0099719292 
  776000    232.99395    1871.7478     3048.625    32.341389 -0.0041323451 -0.0071400241  0.013546313 
  777000    247.36327    5709.8009     3048.625    33.318067 -0.011713624 -0.013524722  0.016176634 
  778000    252.33009    6979.5717     3048.625    30.791059 0.0066741385 -0.0093632899  0.012698486 
  779000    253.74271    6027.4096     3048.625    26.122469 -0.016022211 -0.012155532 0.00062948695 
  780000    244.99622     2522.224     3048.625    24.312583  0.032215541 -0.0077140629  0.031901418 
  781000    247.16621    239.07281     3048.625    27.378227 -0.028185553  0.004200842 0.0018426356 
  782000    245.71815    5249.3613     3048.625    30.337346 -0.0034246798  0.014983541 -0.018187161 
  783000    244.71126    10001.099     3048.625    28.579265  -0.01094483  0.019542433 0.0089708394 
  784000    251.62546     8209.236     3048.625    24.333599 -0.00016538508 0.0080134666  0.012181646 
  785000    243.24495    939.68971     3048.625    24.796758 -0.021302172 -0.0090769352 -0.0086247647 
  786000    242.54538    8201.0237     3048.625    31.850006 -0.022846199  0.023462655 -0.015574236 
  787000    247.59628     3209.079     3048.625    36.326705 0.0092114139 -0.021908336 0.0040946916 
  788000    248.28453    4348.6351     3048.625    30.021856 -0.026109772 -0.026491881  0.011610453 
  789000    236.13852    5294.0962     3048.625    21.689073 -0.019558684 0.0065192136  0.011554127 
  790000    241.20455    4456.9432     3048.625    21.812065 -0.0056937756 -0.0029790873  -0.01398285 
  791000    240.68139    6998.6926     3048.625     27.55712 -0.037339899  0.010072178  0.009215141 
  792000    249.91019    6153.7094     3048.625    29.362315 -0.021198917  0.002420419 -0.013442516 
  793000    230.36796    3195.8784     3048.625    24.494623  0.015464964 -0.0054109856   0.02154983 
  794000    235.30028    2272.0461     3048.625    21.201956  0.010745265  0.015205062 0.0044285039 
  795000    249.85908     9789.431     3048.625    25.429752 -0.030414122  0.031685365 -0.019026324 
  796000    238.82715    4775.9396     3048.625    28.996184 -0.035726284 0.0054115435 0.0066535276 
  797000    214.26928   -1555.7616     3048.625    25.751451 -0.045479107  0.012020873  0.012879032 
  798000    230.60475    9349.7925     3048.625    24.290937 -0.028043189 0.0042673082  0.018308067 
  799000    239.20252     13690.14     3048.625    27.841961 -0.022303734 -0.017497131 0.0034938018 
  800000    237.71886    4663.2071     3048.625    31.037843    -0.015168  0.021518152  0.012923229 
  801000    237.61962    4878.1954     3048.625    28.742751 -0.0067808784 -0.0020514348 -0.0062987813 
  802000    235.94424    10288.433     3048.625    24.163394  0.017710292 -0.0096695763 0.0061858615 
  803000    237.66288    4173.7714     3048.625    21.866913 0.0052646055 -0.012732129 -0.014525177 
  804000    255.55948    1749.4208     3048.625    23.412496 -0.00022376027 -0.013698096  -0.00388344 
  805000     239.5344    8773.2046     3048.625    26.628508 -0.0088340424  0.011648868  0.022613422 
  806000     235.4051    8393.8083     3048.625    28.638301  0.048510714 -0.0047681611 0.0078850669 
  807000    248.76793    4732.6999     3048.625    28.531524 -0.00057875248 0.00091084054  0.018193453 
  808000    246.69434    6153.1879     3048.625    28.765898 -0.023514765  0.010847625 0.00033558692 
  809000    257.56519    7725.0935     3048.625    29.595761 0.0078948276  0.019263356 -0.0015532605 
  810000     249.1918    2520.4741     3048.625    29.078526 0.0057872857  0.012644699  0.039155322 
  811000    251.89836    8754.0219     3048.625    25.183354  0.028006307 -0.034981122 0.0077435912 
  812000     236.0927    1160.5699     3048.625    22.339408  0.029334399 -0.012402372  0.028071972 
  813000    243.00165    8962.4804     3048.625    21.340471 0.0096906588  0.020510946 -0.0088338763 
  814000    257.57105     4133.732     3048.625    23.683217 -0.032512717 -0.002115095 -0.021601527 
  815000    239.22805    5880.4529     3048.625    28.997369   0.01124428 -0.022285316  -0.02054875 
  816000    248.61922     2989.939     3048.625    34.437825 0.0062512493 0.0048762708    0.0199878 
  817000    245.81901    7599.2725     3048.625    35.055325  0.013754158 -0.0067684785  0.035672722 
  818000     261.0979    7927.8428     3048.625    32.250999  0.015966294 -0.0058169865 -0.018958933 
  819000     257.3423    4565.6549     3048.625    30.529345 -0.014406162 -0.011832023  -0.02575546 
  820000    252.92304    7545.1381     3048.625     30.63187 -0.0079437416  0.013528302 -0.019966283 
  821000    239.66685    3283.6744     3048.625    32.239354 -0.017846968  0.017028769  0.019872045 
  822000    247.67906    2732.1771     3048.625     31.96874 -0.011032837 0.0065031712 -0.00032297523 
  823000      263.396    3980.3508     3048.625    30.594782 -0.039927207  0.027005042  -0.04191482 
  824000    243.11753     4098.915     3048.625    30.015923 -0.017681034  0.020402042 0.0043334135 
  825000    248.55079    16723.258     3048.625     32.37135 -0.010035784 -0.0073159719 -0.010103458 
  826000    243.70788   -595.50395     3048.625    32.127099  0.010010156 -0.017548454 -0.0044420314 
  827000     241.8065    2235.4317     3048.625    28.395912 0.00024983118 -0.043268393   0.01443032 
  828000    240.25188    12489.208     3048.625    26.489602 -0.000987772 -0.0069497671 -0.033392653 
  829000    250.31515    4679.0665     3048.625    27.897402 -0.059998635 0.0026963763 -0.0075722447 
  830000    247.52969    613.91048     3048.625    31.898726 -0.021584574  0.011665554 0.0012845751 
  831000    244.89888     7728.974     3048.625    33.990448  0.019878835 -0.010447622 -0.0095927835 
  832000     260.3776    6524.3102     3048.625    31.908673  0.048062296 -0.0051219764 -0.007671351 
  833000    235.29065     6829.711     3048.625    27.859312 -0.0011173502 -0.0018539541 0.0013857163 
  834000    216.91642    9395.1539     3048.625    24.754464 -0.0034810606 -0.0054114816 -0.015771854 
  835000    227.83222    1875.6529     3048.625     25.30253 -0.0050050752 0.0023975388 0.0047378172 
  836000     232.1403    11238.781     3048.625    28.986528 0.0093177783 0.0055174484 0.0081931648 
  837000    245.37642    3592.3839     3048.625    28.403025 0.0083217496 -0.016826189 -0.0076083149 
  838000    243.03164    6977.3997     3048.625     24.06443 -0.0014768628 -0.049440311  0.010972538 
  839000    240.23072    6512.5792     3048.625    20.871646 0.0098534032 -0.0021850936  0.021098456 
  840000    236.09512   -1938.2869     3048.625    22.044572   0.01749996  0.062059522  0.018669507 
  841000    238.91687    5456.5517     3048.625    27.654094 -0.0088813471  0.019834469  0.043538184 
  842000    271.81518    7323.3907     3048.625    31.373434 -0.019814044 -0.0066061938  0.017702541 
  843000     235.8216    5232.5842     3048.625    28.446627  0.038689772 -0.022157108 0.0055138503 
  844000    226.13247   -723.43487     3048.625    22.970678 0.0089485625 0.0049838455 -0.016192488 
  845000    249.52071    9506.6182     3048.625    20.854407  0.029525109  0.029093698   0.02726817 
  846000     217.8882    11977.978     3048.625     23.51437   -0.0393982  0.010141486 0.0019059545 
  847000    230.01962    357.34698     3048.625    30.242057  0.021036158  0.038736383 -0.0059934872 
  848000    231.36422    6468.2598     3048.625    34.689633 -0.024211839  0.010677312 -0.032977415 
  849000    240.73696    6480.2821     3048.625    34.552785  0.011501065  0.023164734 -0.017354565 
  850000    235.38621     5469.072     3048.625    29.370214 -0.035415707 -0.020122183 -0.038124248 
  851000    240.75201    5914.4295     3048.625    23.289636 0.0045124366  0.006517449 0.0016736378 
  852000    250.89725    4066.5348     3048.625    19.944057 -0.017731002 -0.003429208 -0.051866774 
  853000    242.67103    2996.1635     3048.625    19.373419  0.023230083 -0.035454368  0.042907811 
  854000    252.38229    7027.7918     3048.625    20.263012  0.014348809 0.0056837997 0.0026054498 
  855000    258.16237    3468.4246     3048.625    20.909445  0.010991154 -0.0025748442  0.014334312 
  856000    242.06045    1956.0126     3048.625     20.63789 -0.018483125  0.010317521  0.012059122 
  857000    242.89957     7172.057     3048.625    21.618825 -0.015417672 -0.0080846564 -0.011454525 
  858000    239.43637    9323.5028     3048.625    24.680548  0.012306079 -0.024036354 -0.006322923 
  859000    245.17723    2308.2813     3048.625    28.901869  0.016546891 -0.032136749   -0.0162928 
  860000    242.16887    977.93124     3048.625    31.942408 -0.015427799  0.015143943  0.014694237 
  861000    244.89841    5783.3772     3048.625    31.233228 -0.00026944307   0.01099939 -0.0095865035 
  862000    235.07165    7123.5614     3048.625    26.956317  0.015599503 -0.0065770031 -0.0028405777 
  863000    233.47074    3928.0677     3048.625    19.951547 -0.0012477369 -0.0073584147 -0.0064310557 
  864000    240.74191      12970.8     3048.625    15.108878   0.01825907  0.013650196 -0.00097937535 
  865000     245.0775    3966.2541     3048.625    15.163052 0.0059904525 -0.041079348  0.026334157 
  866000    244.86913    10272.551     3048.625    17.796059 -0.019368176 -0.022577855  0.010224092 
  867000    255.76538    1177.5886     3048.625    20.756284  0.023886071 -0.015256593 -0.040046142 
  868000     235.2608    -1607.529     3048.625    22.414903  0.014844427 -0.0092584495 -0.022056749 
  869000    243.99997    10969.426     3048.625    24.690613 0.0070048317 -0.0023760706  0.025127273 
  870000    238.49554     14617.24     3048.625    25.647397   0.02949537  0.017706419 0.0084344951 
  871000    240.34839   -1849.2576     3048.625     25.12359  0.020824637  0.022033852 0.0059557544 
  872000    238.28431     1127.318     3048.625    27.075646  0.024644911   0.02220459  0.016720528 
  873000    236.23167    9482.4739     3048.625    30.661065 -0.025250612 -0.0037807007  0.029666957 
  874000    255.01031    13231.622     3048.625    31.129776 -0.034453922 0.0014538372  0.011038457 
  875000    249.78756   -346.88531     3048.625    26.606338 -0.035886646 -0.0095083865  0.019984233 
  876000    248.95045   -2050.7913     3048.625     20.81168 -0.022879481  0.027092681  0.027143974 
  877000    247.54102    9721.1901     3048.625    17.983017  0.023483661 0.0030084502  0.017233085 
  878000    250.27531    3086.4922     3048.625      21.6352 -0.030392256  0.010224953 0.0062282947 
  879000     249.2763   -3613.7938     3048.625    30.413216  0.033032234 -0.027229113 -0.014399309 
  880000    255.60277    10051.275     3048.625    34.267629 0.0095124608 0.0058309097 0.0068682093 
  881000    246.50573     11877.25     3048.625    30.694211  0.018534297 0.0030666827 -0.0094605264 
  882000    249.21996    1428.9349     3048.625    25.816779  0.020749671 0.0056680083 0.0034642826 
  883000    244.30602    1996.3134     3048.625    26.517777   0.02763653 -0.011642972 -0.013321061 
  884000    232.82622    10437.674     3048.625    31.492278  -0.01312194 -0.0013366901 0.0067514031 
  885000    245.34367    50.307591     3048.625    35.384324  -0.02562836 0.0084415944  0.020646227 
  886000    246.19986    3837.5154     3048.625      34.0123 -0.0060980308 -0.012246641 -0.0013015479 
  887000    250.04687     7818.134     3048.625    28.721829 0.0056937525 -0.0028593951  0.015313265 
  888000    260.84674   -2296.5137     3048.625    23.948561 -0.010092181 -0.029619152 -0.0037598216 
  889000    234.08147    4007.2277     3048.625    24.888528 -0.0089709044 -0.0090512261 -0.0065319715 
  890000    241.59103    6461.6743     3048.625    29.012915 0.0085018781 -0.00038130933 -0.012343791 
  891000    250.96238   -1736.6995     3048.625    31.451499 0.0067800286 -0.019309378 -0.0086006094 
  892000    256.82355    7955.2694     3048.625    28.727192 -0.0012769337 0.00034936702 -0.019868139 
  893000    239.55454     4370.244     3048.625    23.729983   0.04151484  0.011550388 -0.0042967124 
  894000    241.89529    2756.4737     3048.625    21.903711 -0.016032216  0.020595675 0.0045990711 
  895000    246.02776    1519.4306     3048.625     22.51781 -0.0057778315   0.02511871  0.010133409 
  896000    242.60134    3555.2471     3048.625    25.989743 0.0023477592  0.018750925 -0.030408494 
  897000    249.36785    8560.3507     3048.625    27.949844  0.022071714  0.056997096 -0.019585426 
  898000    250.10585    6567.6207     3048.625    26.589145 -0.0062822103  0.041852358  0.013044884 
  899000      239.488    5629.3061     3048.625    26.261046  0.018899786 -0.040690323 0.0098463402 
  900000    258.05026    3699.5142     3048.625    30.056862 -0.032891872 -0.035160379  0.016412879 
  901000    232.69566    4359.2426     3048.625    31.996053  -0.01853085   0.02779809  0.015612045 
  902000    256.80437    6167.4755     3048.625    28.746599  0.036856088  0.002999369 0.00065840269 
  903000     245.1435    3503.1233     3048.625    24.406864 0.00010828523 -0.0015920271 0.0058616536 
  904000    240.51329    2639.7298     3048.625    23.950947 0.0036480485  0.017862084  0.007369377 
  905000    243.32907    9886.5803     3048.625    28.380664 -0.014283489 -0.0034283045 -0.011273078 
  906000    246.62794    2235.3971     3048.625    31.257492 -0.0076468699  0.030003489 -0.017932696 
  907000    252.98805   -1056.4395     3048.625    30.176369 -0.019064015  0.012864947  0.017968568 
  908000    256.01362     8961.646     3048.625    29.652099 -0.012952241  0.031132188 -0.022728653 
  909000    262.02393    7678.5444     3048.625    33.437217  0.035434383 -0.020940638  0.031031815 
  910000    240.51006   -2532.7384     3048.625    36.183975 -0.012444608 -0.017465073 -0.0010337423 
  911000    247.46297    2495.1052     3048.625    33.313314  0.012109484 -0.018542653  0.026600904 
  912000    252.59295    6845.2496     3048.625    28.654753 -0.0014874611 -0.0047133163 -0.018142178 
  913000    264.18946    5655.2326     3048.625    29.349899 -0.0053478383 -0.0045763803 -0.015669574 
  914000    255.43756    3859.4508     3048.625    34.265917 0.0039665926 -0.012823542 -0.0034071374 
  915000    251.24157    1741.6242     3048.625     34.25033 -0.016967549 -0.0069377225 -0.0062953946 
  916000    243.37523    3687.1506     3048.625    29.475905 -0.0014163201  0.014163385 -0.022427699 
  917000    249.73377    1760.6297     3048.625    28.154429  0.023723136  0.021669955  0.031069995 
  918000    230.14561    7286.9392     3048.625    31.639273 -0.018214451 -0.017803041 -0.010598556 
  919000    241.50858   -1102.3989     3048.625    33.772796  0.018815221  -0.03083821  0.028150209 
  920000    238.54691    920.26733     3048.625    31.178102  0.020227618 -0.033798863 -0.0068063321 
  921000    230.11121    15742.899     3048.625    27.099001 0.0060861483 -0.016041883 0.0057309235 
  922000    245.67763    5850.6677     3048.625    26.893787  0.038639534 -0.0049444055 -0.020018903 
  923000    244.18411   -3634.8492     3048.625    31.949779  0.014937466 0.0083335371 -0.025793492 
  924000    232.72608     8746.143     3048.625    35.025665    0.0242148  0.045315493 -0.001734545 
  925000    229.59745    9934.5573     3048.625    32.558282 0.0068277879 -0.0052593527  0.019971584 
  926000    228.33263    697.46011     3048.625    26.457572 -0.034119116 -0.018070225 -0.016205099 
  927000    245.04735    1890.0758     3048.625    24.038976  0.013454995 -0.030254042 -0.004419652 
  928000    236.05043    9953.7116     3048.625    27.791894 0.0011599207 -0.0056705112 0.0058431637 
  929000    223.25377    5411.8177     3048.625    31.758508 -0.0077607128 -0.022429959  0.033680209 
  930000    235.33877   -1492.5973     3048.625    32.339533  0.011534154 0.0013815154 0.0045328662 
  931000    234.68816    14253.278     3048.625    31.208506  0.007766846 -0.0058451779 -0.029522677 
  932000    224.96708    8757.9363     3048.625    27.508528 -0.014837807  0.001382823 -0.016773239 
  933000    219.19527    7604.8571     3048.625    24.427076  0.015821414 -0.014870979 0.0031505648 
  934000    230.95396    5923.4708     3048.625    24.842485 -0.0067206587 -0.017547686 -0.0068511597 
  935000    243.46916    11777.764     3048.625    28.934344 -0.0059245572 -0.019821472 -0.017905147 
  936000     226.2229     7568.809     3048.625    33.227803 -0.0036795427 -0.023045138 0.0040979023 
  937000    230.81882    4352.4027     3048.625    33.294396  0.029069367 0.0010425958 -0.0095244655 
  938000    239.68959    6323.6018     3048.625    29.870243  0.010045968  -0.03990208  0.016129514 
  939000    246.66691    5999.6713     3048.625    25.804083 -0.016560274 -0.012013478 0.0052258688 
  940000    251.51582    10558.377     3048.625    23.482405 -0.010107844 -0.0026052818 -0.0001991312 
  941000    238.96084    1680.5898     3048.625    25.841874  0.014884325 -0.018250009 -0.0059135201 
  942000    226.58844    7721.5499     3048.625    30.034245 -0.0099746076 0.0019273192 -0.010863247 
  943000    219.82604    8627.2145     3048.625    30.123824 -0.019989728 -0.034910772  0.033933294 
  944000    250.24656    8597.4376     3048.625    25.952536 -0.0063567611  0.022182875  0.005616351 
  945000    229.11879    2943.0855     3048.625    21.382001  0.018311478 -0.013135843  0.036229547 
  946000    246.71645    7981.1606     3048.625    20.728915  0.022035061  0.021628455   0.04133562 
  947000    262.62637    4072.6417     3048.625    24.287751 -0.0090671857 -0.031347541  0.054779917 
  948000    238.37779    7259.2823     3048.625    26.784846 -0.023710607 -0.0007777854  0.012481552 
  949000    226.73544    4228.3313     3048.625    23.440615 -0.0047834514 -0.016542896 0.0024583748 
  950000    244.32981    1997.1241     3048.625    18.846453 -0.0029342579 -0.041598269  0.025729671 
  951000    260.11267    5263.5917     3048.625    18.471019 -0.0095308009 -0.022883466 0.00064546502 
  952000    231.30878    745.60103     3048.625    24.949271 0.0029175735 -0.0022247369 -0.028591237 
  953000    236.42058   -668.30185     3048.625     32.53317 0.0090145872 0.0096675198 -0.032430366 
  954000      240.527    14544.343     3048.625    32.598737 0.0036348876 -0.0079695155 -0.010566012 
  955000    235.46892    1850.5346     3048.625     26.48769  0.010200021 -0.0053526999 -0.043078139 
  956000    238.82998    7458.2218     3048.625    20.678817 -0.0088840848   0.01366957  0.026428571 
  957000    239.61127    10076.561     3048.625    19.715921 -0.012199101 -0.0099635609 -0.030975049 
  958000    238.64226    5383.7656     3048.625    24.418438 0.0089854303 0.0084058505 -0.0081192125 
  959000     237.2737    5539.2409     3048.625    27.505519  0.027658459 -0.0074801103  0.027096935 
  960000    250.52781    9083.8001     3048.625    25.917547 -0.0015160368 -0.018525903  0.026322738 
  961000    252.70395    2557.5589     3048.625    25.010757 -0.012576869  -0.02320064 0.0014060989 
  962000    221.37728    5094.0593     3048.625    28.374182  0.014748831 -0.011711017 0.0046504419 
  963000    240.93952    2029.4473     3048.625    33.892017  -0.00358186 -0.010125304 -0.0074162448 
  964000    243.85654    7421.8812     3048.625    34.782036 -0.037001752 0.00088191881  0.050347787 
  965000     219.7434    8910.7665     3048.625    29.680406 0.0017536352 -0.039379522 -0.016566176 
  966000    228.46146    2603.1903     3048.625    25.323337 0.0019989324 0.0064051941 -0.022687769 
  967000    234.79754     8570.531     3048.625    24.632172 -0.0068163323  -0.01380994 -0.020565814 
  968000    251.32512    11281.304     3048.625    28.599167 -0.012810406  0.025238229 -0.0022302511 
  969000     239.8688    5732.0076     3048.625    34.477362  0.033002326 -0.023875861 -0.046213706 
  970000    243.20569   -3416.8159     3048.625    34.061051   0.03235851 -0.026665647 -0.0084655139 
  971000    250.14828    10407.944     3048.625    27.585221  0.027112788 -0.0028395581 -0.00080619742 
  972000    229.85055    5802.5232     3048.625    22.452047 -0.0030479869 -0.0092771902   0.02687905 
  973000    241.06059    3796.2837     3048.625    22.152514 -0.0023836172  0.018208428  0.014258013 
  974000    229.23367    10385.104     3048.625     24.59483 0.0060474764   0.02789799  0.014371912 
  975000    225.77294    9731.1262     3048.625    28.219252 -0.0075013755 0.0061110944 0.0092273853 
  976000    218.14118    5955.6856     3048.625    28.887801 -0.013943215 -0.0050993487  0.022188489 
  977000    226.47207    7219.9304     3048.625     26.65405 -0.019353279 -0.022373025 0.0042900534 
  978000    225.83757    10577.718     3048.625    24.175491 -0.0030965568 -0.015245568 -0.0074059089 
  979000     220.8009    7971.1047     3048.625    24.860297 -0.047346014 -0.0078198486 0.0034456773 
  980000    218.21029     7765.431     3048.625    27.591306   -0.0102311 -0.013799614 0.0082540123 
  981000    224.77652     11749.31     3048.625    29.597528  0.023319179 -0.0066902081  0.041891857 
  982000    245.17497    8839.2841     3048.625    30.057439 -0.0066051246  0.019446649 -0.022420561 
  983000     233.0441     4609.442     3048.625    30.373171  0.042091623  0.008617199 -0.0015214059 
  984000    239.63923    3722.4783     3048.625     29.96011 -0.014927771  0.013627548   0.01759166 
  985000    255.70965    7844.5805     3048.625    28.506211  0.005013564 -0.018749465  0.010114071 
  986000    255.28794    1883.0354     3048.625    27.059538 -0.001394911 -0.0050006729 -7.9237438e-05 
  987000    237.74045    3948.2304     3048.625    26.545122  0.018895567 -0.011986858  0.028373389 
  988000    249.76683    6176.5163     3048.625    26.557804 0.0027140226 0.00090096699  0.002143319 
  989000    250.47989    10076.396     3048.625    24.397082  0.021902511  0.031065737 4.4158943e-05 
  990000    245.12174    4275.4347     3048.625    22.963768  0.020745928  0.038681912  0.010474328 
  991000    250.70221     6267.707     3048.625    24.580882 -0.0062193679 -0.013859172  0.012089419 
  992000    248.09837    3398.2843     3048.625    29.422473  0.026089292  0.014803737 -0.0011579621 
  993000    225.98497    3900.9298     3048.625    30.793724 -0.013235021 -0.037575497 -0.0074875924 
  994000     231.6737    12686.558     3048.625    25.911538   0.01154547 -0.012465969  0.013514652 
  995000    255.52085    4409.1006     3048.625    22.338629 -0.021244046  0.024445916 0.0042431895 
  996000    240.40103    -164.7254     3048.625    23.693893    0.0270569 0.0086430291 0.0089797288 
  997000    238.74896    8669.8973     3048.625    28.079587 -0.016205959 -0.017918182 -0.033946291 
  998000    235.28886    6055.3227     3048.625    32.829987 0.0035834381 -0.017904304 -0.025097625 
  999000    242.40369    585.82177     3048.625    32.482253 0.0021772468 0.0028746955 -0.00035109261 
 1000000    230.32653    12164.892     3048.625    28.325357 -0.0048805763 -0.001312835 -0.0050927422 
Loop time of 17949.4 on 1 procs for 1000000 steps with 240 atoms

Pair  time (%) = 17727.5 (98.7635)
Bond  time (%) = 0.511772 (0.00285119)
Neigh time (%) = 78.8676 (0.439388)
Comm  time (%) = 46.2813 (0.257843)
Outpt time (%) = 0.280714 (0.00156392)
Other time (%) = 96.0036 (0.534856)

Nlocal:    240 ave 240 max 240 min
Histogram: 1 0 0 0 0 0 0 0 0 0
Nghost:    5841 ave 5841 max 5841 min
Histogram: 1 0 0 0 0 0 0 0 0 0
Neighs:    87806 ave 87806 max 87806 min
Histogram: 1 0 0 0 0 0 0 0 0 0
FullNghs:  175612 ave 175612 max 175612 min
Histogram: 1 0 0 0 0 0 0 0 0 0

Total # of neighbors = 175612
Ave neighs/atom = 731.717
Ave special neighs/atom = 0
Neighbor list builds = 7043
Dangerous builds = 0
#	run			10000
	unfix			1
	uncompute		myKE
	uncompute		myPE
	uncompute		myStress
	uncompute		flux
	uncompute		myDis
	unfix			JJ

	next seed
	next iseed
jump lmp.in.gk loop_seed
variable iseed loop 10
variable seed index 11111 22222 33333 44444 55555 66666 77777 88888 99999 11110
clear
###########################################################################
#x0
###########################################################################
units 			metal
atom_style		full
read_data		fort.26.nonbonded
  0 = max bonds/atom
  0 = max angles/atom
  0 = max dihedrals/atom
  triclinic box = (0 0 0) to (14.5 14.5 14.5) with tilt (0 0 0)
  1 by 1 by 1 MPI processor grid
  240 atoms
  0 bonds
  0 angles
  0 dihedrals
  0 = max # of 1-2 neighbors
  0 = max # of 1-3 neighbors
  0 = max # of 1-4 neighbors
  1 = max # of special neighbors
group         		C type = 1
60 atoms in group C
###########################################################################
#OLPS
###########################################################################

################################################################################
#### Pair potentials
################################################################################
pair_style hybrid/overlay tersoff lj/cut 12.0
pair_coeff * * tersoff C.4.tersoff 1 2 3 4
pair_coeff 1 2 lj/cut 0.0007000000 3.5500000000
pair_coeff 1 3 lj/cut 0.0007000000 3.5500000000
pair_coeff 1 4 lj/cut 0.0007000000 3.5500000000
pair_coeff 2 3 lj/cut 0.0007000000 3.5500000000
pair_coeff 2 4 lj/cut 0.0007000000 3.5500000000
pair_coeff 3 4 lj/cut 0.0007000000 3.5500000000
special_bonds lj 0.0 0.0 0.0 coul 0.0 0.0 0.0

#pair_style tersoff
#pair_coeff * * C.4.tersoff 1 2 3 4

#pair_style lj/cut 12.0
#pair_coeff 1 1 0.0700000000 3.5500000000
#special_bonds lj 0.0 0.0 0.0 coul 0.0 0.0 0.0
###########################################################################

#--------------------------------------------------------------------------
#variables
#--------------------------------------------------------------------------
variable   	dt 		equal 0.001
#--------------------------------------------------------------------------
#kappa parameters
#--------------------------------------------------------------------------
variable    	p 		equal 100000 	# correlation length
variable    	s 		equal 10  	# sample interval
variable    	d 		equal $p*$s 	# dump interval
variable    	d 		equal 100000*$s 	
variable    	d 		equal 100000*10 	

#--------------------------------------------------------------------------
variable 	T_run 		equal 300
#--------------------------------------------------------------------------

log 	log_heat_${iseed}.lammps
log 	log_heat_2.lammps
