	reset_timestep  	0
	fix 			1 all nve
	compute   		myKE all ke/atom
	compute   		myPE all pe/atom
	compute   		myStress all stress/atom virial
	compute   		flux all heat/flux myKE myPE myStress
	variable  		Jx equal c_flux[1]/vol
	variable  		Jy equal c_flux[2]/vol
	variable  		Jz equal c_flux[3]/vol
	fix       		JJ all ave/correlate $s $p $d c_flux[1] c_flux[2] c_flux[3] type auto file J0Jt_${iseed}.dat ave running
	fix       		JJ all ave/correlate 10 $p $d c_flux[1] c_flux[2] c_flux[3] type auto file J0Jt_${iseed}.dat ave running
	fix       		JJ all ave/correlate 10 100000 $d c_flux[1] c_flux[2] c_flux[3] type auto file J0Jt_${iseed}.dat ave running
	fix       		JJ all ave/correlate 10 100000 1000000 c_flux[1] c_flux[2] c_flux[3] type auto file J0Jt_${iseed}.dat ave running
	fix       		JJ all ave/correlate 10 100000 1000000 c_flux[1] c_flux[2] c_flux[3] type auto file J0Jt_5.dat ave running
	compute 		myDis all msd
	thermo_style 		custom step temp press vol c_myDis[4] v_Jx v_Jy v_Jz
	thermo			1000
	timestep		${dt}
	timestep		0.0010000000000000000208
	run			1000000
Memory usage per processor = 7.90665 Mbytes
Step Temp Press Volume myDis[4] Jx Jy Jz 
       0    287.32341    11644.193     3048.625 2.5136882e-31  0.007469623 0.0028207786   0.01497555 
    1000    258.89502    14751.544     3048.625    12.955788   0.01937392 -0.013763717 0.0099491176 
    2000    273.99492    13649.268     3048.625     27.98727  0.011081335 -0.014124546 -0.0016291652 
    3000    274.15834    8351.2631     3048.625    21.365276  0.010613279  -0.02196014  -0.01736655 
    4000    303.87153    7649.8627     3048.625    11.686625 0.0061836094   0.01900357  -0.03487084 
    5000    304.15426    10838.133     3048.625    20.617237 -0.0086006361  0.019186942 0.0062929632 
    6000    288.69869    6415.4399     3048.625    28.006452 -0.021602373 -0.021258345  0.028899582 
    7000    262.08345    16254.141     3048.625    25.640306 -0.020149229 -0.0031790172   0.01291579 
    8000    273.54347    16339.939     3048.625    28.599276  0.002618302  0.031294313 -0.030448415 
    9000    260.11635    11850.414     3048.625    28.805689   -0.0109214  -0.02852609  0.033343242 
   10000    226.81202    17091.393     3048.625     24.83313 -0.024196718  0.054029742  -0.01675408 
   11000    240.66842    16378.897     3048.625    23.119402 -0.022135025  0.015446076    0.0339401 
   12000    274.00662    12150.495     3048.625    25.535309 -0.0068967742  0.015539223 0.0082925195 
   13000    241.34261    22148.575     3048.625    27.911116 -0.010264444 0.0081053582  0.040431604 
   14000    266.42732    13956.186     3048.625    24.507754 -0.0046033235 0.0082498564   0.01047424 
   15000    262.49202     5876.902     3048.625    21.288635 0.0037574349 0.0062090221   0.03193437 
   16000    278.43532    14319.599     3048.625    27.530036 -0.023031965 -0.0029305125 -0.024876212 
   17000    292.96297    5224.9483     3048.625    27.407665  0.011120842 -0.026433455 -0.030805231 
   18000    242.08866    16640.243     3048.625    22.626435  0.054728319 -0.0042209155 0.0040102855 
   19000    266.13249    12413.986     3048.625    20.534148 -0.0045936138 0.0066896143 0.0041424333 
   20000    264.76331    11568.054     3048.625    26.329685  -0.03636675   0.01388591 -0.010283878 
   21000     281.7133    17289.915     3048.625    27.658858 -0.0019100378 -0.011121799   0.04270583 
   22000    266.10264    11292.936     3048.625    21.193543 -0.0014845897 -0.0038586768  0.019309821 
   23000    261.45551    15268.761     3048.625    24.117095 -0.040115223 -0.0092162784 -0.019384059 
   24000    262.57933    12674.041     3048.625     28.54128 -0.0017524811  -0.01192924 0.0046057946 
   25000    273.31695     10344.59     3048.625    26.788554  0.016565478 -0.0040676722  0.021210329 
   26000    298.54454    6120.7575     3048.625    21.585174 -0.0071589552 -0.010207119 -0.014773236 
   27000    286.73357    9469.1239     3048.625    19.274333 -0.0082979569 -0.0063899086  0.015347379 
   28000    292.62659    12281.704     3048.625    24.992999  0.027908001  0.027621439 -0.0018700482 
   29000    250.40908    15179.123     3048.625    28.347622 -0.018505551 -0.022039691 -0.013335494 
   30000    285.22473    6948.8693     3048.625    22.300309 0.0027490329 -0.015004681 0.0074442512 
   31000    251.18414    17670.686     3048.625    30.658774 -0.012858467 -0.0080918869 -0.025977654 
   32000    268.29155    13374.224     3048.625    26.361334  0.014156642 -0.029406749 -0.031362659 
   33000    266.40359     10548.78     3048.625    23.433867  0.012721767 -0.001596096 -0.0064835348 
   34000      273.331      9531.92     3048.625    30.330588  0.012508955 -0.018279113 -0.00038121239 
   35000    269.05468    19314.561     3048.625    23.423946  -0.02142245 -0.026433619  0.017896047 
   36000    276.93335    13816.532     3048.625    33.256103  0.027482494 0.0040890846  0.010419096 
   37000    258.48988    9955.7237     3048.625    31.667949  0.042132887 -0.038424787  0.026586116 
   38000    265.90827    7684.3315     3048.625    29.267822 0.0074613221 -0.024491568 -0.043228829 
   39000    295.41939    9842.9758     3048.625    30.942888  0.011016556  0.015297736  0.039362783 
   40000    296.13031    2743.9119     3048.625    17.285572   0.00938542 -0.017124795 0.0078837928 
   41000    294.02129    4209.9713     3048.625    22.861807 -0.015202666 -0.012357586 -0.057388982 
   42000    262.54478    12897.075     3048.625    18.283729  -0.03281473 -0.0024252491  0.021848896 
   43000     262.1114    15668.442     3048.625    22.954892 0.0022093839 -0.041408158  0.034347363 
   44000    281.57565    11940.507     3048.625    30.702362 -0.016566284 -0.037090928 -0.048117306 
   45000    303.42857    7025.9704     3048.625    23.821733  -0.02456361 -0.0079604112 -0.0081753938 
   46000    292.36698    7823.0577     3048.625    30.524013 -0.00039593129  -0.02358644 -0.00065989629 
   47000    287.48491    13339.431     3048.625    20.134621 0.0011779531 -0.021414133  0.023448233 
   48000    291.00522    4606.0924     3048.625    22.530993 0.0030849921 -0.033812745 0.0032333441 
   49000    296.61555     8485.814     3048.625    19.939144 -0.044269152 -0.0026616942 0.0027140049 
   50000    313.07471     10314.29     3048.625    13.878785 -0.028819495 -0.004446732  0.002548065 
   51000    303.61966    6611.9418     3048.625    20.465687 -0.0014888976 -0.015901106 -0.0016047928 
   52000    292.07103    3476.2616     3048.625     17.90959 -0.036276368  0.023715246 -0.032027731 
   53000    294.43618    7637.8089     3048.625    30.631784 -0.013094112 -0.0037171616 -0.035762305 
   54000     271.8923     14217.83     3048.625    28.019644 0.0015303006 -0.020111767 -0.005155975 
   55000    295.03963    9523.9031     3048.625    22.515327 -0.0062758106  0.015383432 -0.0020972475 
   56000    285.83236    9121.2823     3048.625    25.603079 0.0073316664 -0.012330221  0.015994859 
   57000    280.03623    9855.7033     3048.625    19.599058  -0.03034274 -0.0020934174 -0.030038403 
   58000    285.11289    11557.866     3048.625    21.394601 -0.027333645  0.029573588 -0.022065115 
   59000    264.38011    7008.2894     3048.625    29.362503 -0.014889109  0.012447513 -0.0083909404 
   60000     271.0683     19732.72     3048.625    29.041251 0.0058197342  -0.04510919  0.042785415 
   61000    247.11609    11842.296     3048.625    28.207536 -0.0033659798 -0.0067071774  0.023969335 
   62000    275.66325    10173.784     3048.625    32.360477 -0.0067261499 -0.0040677215 -0.0058436715 
   63000    279.56474     15326.41     3048.625    33.927766 -0.0030856523 -0.019687752  0.031836296 
   64000    306.30682    3024.6086     3048.625    29.134187 0.0028557069 -0.0071498833 -0.00070661551 
   65000    280.01848    9767.6518     3048.625    28.085791  0.011137772 -0.028609415   0.02819362 
   66000    266.42849    6715.6151     3048.625    27.352263 -0.0003132508 -0.0054270854 -0.025875851 
   67000    253.62599    14930.484     3048.625    20.755461   0.00198323  0.012594341  0.019568298 
   68000    275.68658    5221.5475     3048.625    14.567436 -0.0081230033  0.017223844 0.0028383219 
   69000    287.21149    14791.381     3048.625    13.896185 0.0042008469  0.013521808  -0.01493319 
   70000    248.56875    9741.1798     3048.625    17.849789  -0.02304746 0.0086496584  0.012619399 
   71000    235.88381    20672.392     3048.625    23.289316 -0.030387423   -0.0327862   0.02699725 
   72000    218.57764    14568.696     3048.625    28.118115 0.0093472239 -0.0081469575  0.024334578 
   73000    285.33132    15337.334     3048.625     27.74467 -0.0056863093 -0.0059888014   0.01787288 
   74000    286.38007    11095.091     3048.625    25.570734 -0.030496679 -0.0017977135 -0.011040356 
   75000    241.68339     13950.42     3048.625    26.911005 -0.00023204871 0.0040730127  0.023939633 
   76000    293.70645     12493.32     3048.625    29.717305  0.010066877 -0.0019623067  0.029128424 
   77000    249.55737    11758.867     3048.625    33.752465 0.0071452224  0.019857698  0.011461676 
   78000    264.51253     11158.59     3048.625     32.53069  0.021385229  0.017188347  0.024240112 
   79000    251.28395    17454.889     3048.625     28.20612 -0.006578838 -0.034164014 -0.0011737009 
   80000    252.83025    15692.973     3048.625    28.738019 -0.034327051 -0.0017810679 0.0099935086 
   81000    283.48366    9703.7267     3048.625    30.747849 -0.022155249 0.0059846727  0.028501911 
   82000    237.19609    12767.217     3048.625    27.954627 0.0064040299  0.034770159 -0.0043615007 
   83000    244.39706    10670.793     3048.625    23.919677 -0.041265356 -0.0020008419 0.00059665109 
   84000    269.12206    13259.553     3048.625     22.12586 0.0003547723 -0.013391397  0.025408418 
   85000    278.34005    6964.5881     3048.625    23.294969  0.031831748 -0.028639758  0.028795522 
   86000    300.58423    6019.3833     3048.625    25.936574 0.0011951816 -0.035446015 0.0076098833 
   87000    296.50711      3197.43     3048.625    26.898558 -0.002520253 -0.028703975  0.021373786 
   88000    232.67879    19081.263     3048.625    25.405538   0.02228515 -0.030379789 -0.028686323 
   89000    234.77101    13345.413     3048.625    23.650279  0.028020323 0.0017037635 -0.028290671 
   90000    219.42858    21242.545     3048.625    25.809782  0.018693833  0.011653323  0.038054642 
   91000     243.7426    9346.7561     3048.625    28.584161 0.00074331706  -0.01578406 -0.021447095 
   92000    241.61389    19765.192     3048.625    24.250235  0.013395172  -0.01583975 -0.025092814 
   93000    258.76929    10293.716     3048.625    19.322509 -0.021998869 0.0045742742 -0.018995663 
   94000    284.84305     8700.901     3048.625    17.214527 -0.027742416 0.0028690166 -0.014846553 
   95000    277.55495    11657.752     3048.625    23.958512  0.046071237 -0.0020427479  0.016031311 
   96000    289.35094    5988.7942     3048.625    29.323935 8.5021809e-05 -0.019194078 -0.014353424 
   97000    269.31476    11345.928     3048.625    27.411995 -0.011535014 -0.011943664 -0.022437701 
   98000    268.38813    7150.3749     3048.625    25.365606 -0.0015264689 -0.018718164 -0.016408327 
   99000    274.00774     13850.57     3048.625    30.963333  0.031952022 -0.007681727  0.020616558 
  100000    289.85795    8900.5013     3048.625    34.789273 -0.0052685378  0.016817841 0.00018944858 
  101000    305.23755    2422.0865     3048.625    26.971319 -0.0070494892 -0.055025261   0.01262145 
  102000    291.30191    8473.9237     3048.625    18.699463 -0.010628133 -0.0075834089 0.0028176825 
  103000    292.35484    5881.9438     3048.625    24.078371  0.032180898 -0.012997103 -0.0016002175 
  104000     289.0536    10239.771     3048.625    31.386136  0.053304436  0.024539751 0.0063472558 
  105000    274.67796     5996.372     3048.625     28.47618 -0.0080493969 1.7436484e-05 0.0076189838 
  106000    248.58991    15280.462     3048.625    26.344017 -0.003716218 -0.0074858483  0.022303561 
  107000    266.22544    11155.025     3048.625    32.148578  0.010691222  0.025739592 -0.019150352 
  108000    275.76323    13560.837     3048.625    35.118657    0.0293565 -0.047980659  0.019871017 
  109000     284.2849    6148.9534     3048.625    32.341687  0.018297508  0.011303837   0.04683981 
  110000    279.59713    9882.6093     3048.625     29.42884 -0.014948559  0.022846418  0.006791526 
  111000    257.83898    13846.869     3048.625    29.406249  0.039347212   0.02097633 -0.017068165 
  112000    228.90231    17162.274     3048.625    32.374615 -0.0026177152 -0.0095976877  0.016495262 
  113000    232.27964    10906.082     3048.625    35.743694  0.030782791 -0.029836658 0.0073284695 
  114000    255.52779    16042.132     3048.625    33.189126 -0.045643681 0.0047145639 0.0034665127 
  115000    286.51821    5125.6228     3048.625    28.999327  0.005501587 -0.0027155172 0.0030178652 
  116000    245.22629    18619.194     3048.625    28.401393 0.00019929999 -0.0029549295  0.018376044 
  117000    279.62021    6941.7261     3048.625    31.174863  -0.00508374 -0.026706465  0.004555539 
  118000    215.90569    13674.387     3048.625    35.242158 0.0037240733 -0.00053663294 -0.014049972 
  119000    285.42636    13997.266     3048.625    34.879986 -0.00051412081 -0.028292857 -0.0082837499 
  120000    236.22342    8397.6699     3048.625    30.221004 0.00036532011 0.0036549491 -0.00016434091 
  121000      284.645    12032.661     3048.625    25.201784   0.02862761  0.027036669 -0.044151392 
  122000    271.70665    11349.363     3048.625    22.579255  0.016328449 -0.018026967 -0.023239293 
  123000    288.23817     10609.98     3048.625    20.952599   0.01017012 -0.0059270553 -0.0067011018 
  124000    280.90098     2676.307     3048.625    23.601934  0.028255389  0.021987492  0.019288376 
  125000    246.43516    14415.608     3048.625    26.195032  0.015367666 -0.018785387 -0.003956715 
  126000    285.46723    4155.4512     3048.625    27.107357  0.020226808 -0.0015795859 0.0045698969 
  127000    266.46631     15669.71     3048.625    28.567221   0.03178197  0.028904473 -0.011211216 
  128000    257.43738    6890.3878     3048.625    29.234114 -0.0092804191 -0.048382458  0.010560925 
  129000     250.7384    15348.903     3048.625    29.007176 0.0023881353  0.040384014  0.031601248 
  130000     283.0178    8617.0077     3048.625    29.634384  0.012360848 -0.025133478  0.011534068 
  131000    296.03729    1496.9379     3048.625    31.700099 -0.016670833 -0.005124205  0.010057921 
  132000     290.2448    9799.2455     3048.625    34.033123 -0.0044393411 -0.0076797574  0.020861417 
  133000    273.21969    8482.0604     3048.625      35.2993 0.0043605106 -0.0091932208  0.032486187 
  134000    284.60756    6503.8527     3048.625    35.314242  0.016086954 -0.0047349479  0.033291717 
  135000    285.34938    7452.7765     3048.625    34.089592 0.0017860819 -0.0014495484 0.0019731291 
  136000    276.00826    6125.8507     3048.625    30.626018  0.018975305  0.058098815   0.02350446 
  137000    269.05274    14260.459     3048.625      28.8548  0.015335401 -0.012244442  0.013099665 
  138000    279.41478    3351.5349     3048.625    27.414788 -0.031624532   0.01541314  0.010987519 
  139000    260.42934    14356.801     3048.625      26.9556  -0.01407679 -0.043913207 0.0073401485 
  140000    258.54557    13987.222     3048.625    28.103631 -0.0064206856  0.021186527  0.034182242 
  141000    246.56218    10204.775     3048.625    29.649608 -0.017531764  0.028341375  0.014260637 
  142000    242.61813    11221.996     3048.625    30.839038  0.017472396 0.0017437228 0.0079051442 
  143000    256.92383    7443.5665     3048.625    32.353678  0.015646175 -0.015750233 -0.029284527 
  144000    274.35626    11278.497     3048.625    34.584485 -0.011546263  0.035484281  0.005844502 
  145000    261.47877    3839.5509     3048.625    36.051223 -0.023525441 0.00048188214 0.0039046766 
  146000    290.20064    8240.2077     3048.625    34.908028 0.0033995945  0.062123069 0.0081142523 
  147000     260.4034    15971.171     3048.625    34.758791  0.026843412 -0.0091159761 -0.033040477 
  148000    258.24892    7258.3736     3048.625    34.874425 0.0077805185 -0.025963733 0.0055618269 
  149000    250.50334    11620.904     3048.625    33.061176 -0.014098027  -0.01987409 -0.033588351 
  150000    283.39019    8547.8033     3048.625    29.042396  0.059244508  0.014563199  0.015754302 
  151000    282.28746    7613.6783     3048.625    26.658106 -0.028644223 0.0062799879  -0.02389767 
  152000    243.84015    10657.115     3048.625    25.430535  0.026767032 -0.022626219 -0.033827439 
  153000    265.51918    13110.264     3048.625    27.375388  0.008802422 -0.020629296 -0.024320333 
  154000    289.98169    4098.0829     3048.625    30.642236 -0.020184254 -0.0085696412 -0.00014736889 
  155000    289.84912    9963.0243     3048.625    33.202596 -0.012057431  -0.01597799 -0.006057776 
  156000    268.69051    2447.7675     3048.625    33.133679 -0.017972796  0.030139564 0.0067577426 
  157000    251.12719    14755.635     3048.625    31.747599 -0.012129415  0.015183196 -0.0034695623 
  158000    246.27304    14866.417     3048.625    29.520736  0.043445234 0.0088668043  0.025475939 
  159000    277.80561    10209.225     3048.625    26.894531  0.043790323  -0.01414996 -0.024747599 
  160000    263.53482    11397.022     3048.625    27.673181  0.020112206 -0.046807128  0.024412204 
  161000    244.35734     14595.52     3048.625    28.799842  0.016717648 -0.021989862 -0.017162832 
  162000    258.70397    9419.3357     3048.625    26.305897  0.019466793 -0.022162216  0.005105853 
  163000     242.7258    10378.621     3048.625    21.761909  0.021354576 -0.017357856 -0.015400436 
  164000    235.93462    16911.569     3048.625    22.662318 -0.018766117 0.0095170665  0.011032582 
  165000     241.3704    15421.948     3048.625    27.023129  0.010508096 -0.0063046989 -0.0036717313 
  166000    274.53685    5257.6926     3048.625    29.671054 0.0074160223  0.014831016  0.029627564 
  167000    246.87495    7540.6883     3048.625    29.615147 -0.0071333829  0.010370493  0.039522967 
  168000    240.80723    16638.579     3048.625    31.000902 -0.013765344 -0.014664357 -0.017643106 
  169000    242.15089    13277.215     3048.625    31.169381 -0.0078924978 -0.010396874  0.024365082 
  170000    244.42165    16927.007     3048.625    30.448663  0.018803836  0.024183282 -0.0051184288 
  171000    227.10408    13475.867     3048.625    32.027101 -0.003885962 0.0074112561 -0.022391539 
  172000    258.13824    15950.537     3048.625    30.221542 -0.0066427876 -0.018966266 -0.016795356 
  173000    263.92397    3666.7323     3048.625    26.151684 -0.014227801   0.01664315  -0.02000113 
  174000    293.66462    12309.193     3048.625    21.829151 0.0028000258  0.025398875  -0.04456763 
  175000    287.56592    4701.5007     3048.625     18.74947 -0.035022221  0.010698772 -0.011148134 
  176000    284.19654    10208.808     3048.625    23.059637  0.018116176 -0.014323465 -0.0065102039 
  177000     270.3954    12840.997     3048.625    29.560917 -0.0035900485  0.016288593  0.017239446 
  178000    266.65021    15186.095     3048.625    30.403125 -0.022159869  0.008675431 -0.012226743 
  179000    253.70894    14647.808     3048.625    29.726939 -0.015912434  0.009006304  0.010255934 
  180000    242.48559    15974.857     3048.625     29.12129 -0.00094898754 0.0046786167 -0.014216728 
  181000    228.96964    9569.4036     3048.625     28.36224 0.0041891877 0.0074303426 -0.032874038 
  182000    267.17605    20067.982     3048.625    26.131405 -0.023634361 -0.0026479416 -0.013372481 
  183000    275.83684    4218.0403     3048.625    22.146827 -0.00061382754 -0.0055925498 -0.0082292465 
  184000     285.8167    3904.2421     3048.625    23.286335  0.001278253  0.016775788 -0.0076190095 
  185000    252.09842    11190.552     3048.625    28.586091   0.01013388  0.010877378 -0.00040270433 
  186000    235.79764    13515.995     3048.625    30.510044 -0.021038538 -0.0072635076 -0.017385329 
  187000    237.73492     15532.89     3048.625     29.77036 -0.022364445 -0.012654131 0.0031408743 
  188000     230.4858     15843.25     3048.625    29.038033  0.016337497  0.036635349 -0.0059490146 
  189000    241.06935    16986.199     3048.625    25.558802 -0.0035962674 -0.0085782576 0.0030954327 
  190000    259.86571     9956.158     3048.625    21.096589 -0.0065975598 -0.0038334943  0.019450427 
  191000    262.68357    8826.8951     3048.625     18.68624 -0.0055312012 -0.041140325  0.021165868 
  192000    272.10416    7026.8561     3048.625    24.300185 0.0046958102 -0.0040208603 -0.028031196 
  193000    277.80642    12029.566     3048.625    33.046788 0.0043376613 -0.021824164 -0.028241547 
  194000    273.23892    9408.8128     3048.625    35.553385 0.0054610636 -0.022934017 -0.018241171 
  195000    280.50194    10441.478     3048.625    30.337037 0.0084850401  0.011669185  0.035033339 
  196000    264.24899    7500.4657     3048.625    23.749956  0.016984093 0.00056592405 0.0056994981 
  197000    264.84768    8918.1657     3048.625    21.622097    0.0108775 -0.021247802 -0.010784754 
  198000    275.92315    5301.9078     3048.625    26.141891  0.019376231 0.0061384035  0.026245323 
  199000    256.09974    10181.524     3048.625    32.259618 -0.0089716792  0.011988442  0.006288836 
  200000    251.68881    17515.738     3048.625    34.292999 0.00054875973  0.007857408 0.0019123265 
  201000     248.1788    7823.5252     3048.625    32.211593 -0.0027040302  0.005389972 0.0029649798 
  202000    230.54791    22393.712     3048.625     32.34522  0.017819367 -0.018616823  -0.01806582 
  203000    223.50961    17993.726     3048.625    32.235374 -0.017706995  0.013698751 0.0041970275 
  204000    267.59038    5597.8246     3048.625    30.972295  0.041137061  0.047996422  -0.01827745 
  205000    240.57297    6618.4206     3048.625    30.791772 -0.00014694254   0.02316754 -0.0036429344 
  206000    243.99594     12852.35     3048.625    28.128829 -0.0056208119  0.020055198 -0.011820213 
  207000    270.34842    16047.384     3048.625    27.797476 -0.0086207273 0.0089945172 0.0010597048 
  208000    269.51019    7298.2944     3048.625    33.057955   0.04604133  0.013101564  0.021378442 
  209000    271.18463      14228.2     3048.625    35.283607 -0.021687458  0.015892497 -0.010622468 
  210000    243.37688    5337.4375     3048.625    32.664314  -0.03206792 -0.033207422 -0.0095423487 
  211000    265.87698    15821.497     3048.625    27.122513 -0.023030225 -0.016881572 -0.045682267 
  212000     243.9092    9501.3637     3048.625    21.282393 0.0099974256  0.040457789 -0.021480956 
  213000    232.86239    23621.687     3048.625    21.781001  0.016784884 -0.0096985838  0.007501679 
  214000    270.04084    5861.8507     3048.625    26.295563 -0.010428791 0.0058745706 -0.002734809 
  215000    242.24469    10574.121     3048.625    30.099034 -0.0053227785 -0.0067364749 -0.016341804 
  216000    249.63005     14959.48     3048.625    31.531477 -0.018108451 -0.020424621 -0.0060189546 
  217000    280.45565    10800.685     3048.625    30.808667 0.0021329216 -0.0099904046 -0.010054226 
  218000    251.85106    9418.0065     3048.625    29.102049 -0.001374541   0.02423173  0.019507376 
  219000    280.52689    8048.0875     3048.625    27.956699 -0.022438277 0.0094102102 -0.019618905 
  220000    273.61358    9331.1527     3048.625      29.0401 -0.0089414231  0.022353862 0.0088814807 
  221000    252.88758    10616.765     3048.625    28.204474 -0.027701286  -0.02876866 -0.0068920835 
  222000    235.92939    9927.6009     3048.625    23.278543  0.025965949 -0.017808861 -0.011870218 
  223000    242.70488    10283.186     3048.625    17.324679  0.029279799 -0.011427346  0.011486946 
  224000    271.32784     5923.627     3048.625    20.285304 -0.032467299   0.03639896  0.020060329 
  225000    259.28595    11598.407     3048.625    29.266127  0.017714447  0.018875545    0.0173759 
  226000    268.30485    12461.795     3048.625    35.054052  0.040155968  0.019272081 -0.012624321 
  227000    260.06786     11465.96     3048.625    35.127761 -0.011657041 -0.0020713166   0.03475346 
  228000    253.15925    14012.038     3048.625      30.3008 -0.015097856  0.031637927  0.036039524 
  229000    251.75668    5598.6845     3048.625    23.830316 -0.00077043328 -0.013999355 0.0032257364 
  230000    267.75277    9176.1422     3048.625    21.344428  0.043725417 -0.011469655 0.0039430414 
  231000     262.5538    13163.249     3048.625     24.96482  0.012207871  0.041353863  0.020795808 
  232000    271.18503    7520.8422     3048.625    31.484561  0.059460764  0.022183215 -0.00029297579 
  233000    271.33936    5573.1361     3048.625    34.331903 -0.019367045 -0.0015749763 -0.013298472 
  234000    257.93933    9200.7142     3048.625    33.172807  0.064060429   0.02822006 -0.033622566 
  235000    271.38695    7422.8499     3048.625    31.723606  0.011106079 7.7975969e-05 -0.027710536 
  236000    278.79474    7319.0189     3048.625    30.232217 -0.0098550633 -0.019782329 -0.0057708741 
  237000    261.71203    11218.398     3048.625    26.216984 -0.012042847  0.027557866 -0.00036220156 
  238000    274.75305    5163.5205     3048.625    21.504359 -0.026310757 -0.028890223 -0.016112166 
  239000    250.04936    10927.533     3048.625    19.134342  0.010854778  0.032538322 -0.019579261 
  240000    259.85939     10809.42     3048.625    20.960972 -0.0091361852 -0.0097125079  0.013804023 
  241000    256.58955     10726.83     3048.625    21.365493  0.015590689  0.023970855   0.03095268 
  242000    258.92799    11139.811     3048.625    24.615966  0.050099677 -0.022374773 -0.020392999 
  243000    262.38449    11319.637     3048.625    29.245158 -0.0035679245  0.012243653  0.012552993 
  244000    265.58599    13122.919     3048.625    32.652962 -0.003727666  0.014043429 -0.021763802 
  245000    262.72161    8134.6705     3048.625    28.953069  0.029497947  0.014282601  0.028006072 
  246000    254.50527    10058.045     3048.625    19.529778 -0.0035368676  0.028125618 0.0026056589 
  247000     259.7892    12146.331     3048.625    19.737944  0.013451421 -0.030810756 -0.018714285 
  248000    255.08505    8511.2608     3048.625     23.75321  0.018823666 -0.024237541 -0.040009488 
  249000    277.87331    8741.7157     3048.625    27.286563 -0.015775862  -0.01649178 -0.013609699 
  250000    268.06589    5371.5454     3048.625    28.400021 -0.0054543126 -0.014197529 0.0071579723 
  251000    260.56209    13291.906     3048.625     27.63594 -0.0030039478 -0.021505461 -0.0094917093 
  252000    277.52023    3598.7508     3048.625    23.037027 -0.0061562673 -0.0069137406  -0.02296675 
  253000    278.69829    2454.6548     3048.625    16.478338 -0.045758638  0.019656032  0.025018202 
  254000    276.09665    13916.577     3048.625    14.468446  0.016053398 -0.004581444 -0.0085226102 
  255000    265.79742    6113.2334     3048.625    21.090863 0.0034335437  -0.01772794   0.03044328 
  256000    253.42215    9430.7275     3048.625    25.483425 -0.021781129  0.038390018  0.014245534 
  257000     268.1403    7411.7541     3048.625    18.046709 -0.0057673574   0.03750351  0.026079868 
  258000    260.36932    6815.3371     3048.625    13.412432 -0.0035608764    0.0238103 0.0078920698 
  259000    271.47245    7408.0712     3048.625    19.238383 -0.016798312 -0.030897136  0.021976183 
  260000    279.42314    7614.5632     3048.625    22.079683 -0.026075466 -0.012145459  0.023080523 
  261000     260.9037    7106.8384     3048.625    19.473041 -0.010867586 -0.012110481 -0.031344164 
  262000    272.11442    10839.311     3048.625    20.107188 -0.041184405 -0.011441988  0.026337156 
  263000    257.48705    13899.822     3048.625    26.055181  0.010529112 -0.0019530994 -0.011751196 
  264000    277.57505    1392.8976     3048.625    30.702023  0.034355206 -0.017105357 -0.0075745837 
  265000    279.36522    9459.7932     3048.625    28.341074 0.0084924073 0.0092607566 -0.021599223 
  266000    254.91166    8600.8031     3048.625    19.713871   -0.0197874 0.0052413924 -0.031742418 
  267000     244.6757    22147.232     3048.625    14.356227 -0.021453261  0.023237978  0.013135609 
  268000    259.17344    9506.2126     3048.625    21.799411  0.024253267 0.0043775006   0.01629673 
  269000    257.66478    6265.5876     3048.625    30.901431 -0.018763748 -0.0039084178  0.015315213 
  270000    281.16053    9508.8311     3048.625    24.479867  0.017644876  0.021569831 -0.013878912 
  271000    266.89512    8442.0736     3048.625    12.904185 0.0030685926 -0.0034713947  0.010884633 
  272000    265.46098    2258.9872     3048.625    15.353399 0.0075020977 -0.0096283287  0.021890243 
  273000    276.03083    15741.512     3048.625    27.115993 0.0086610061 -0.037834354  0.035067407 
  274000    288.39619    4066.1653     3048.625    24.426505 -0.015108819 -0.023797955  0.038486836 
  275000    267.91075    4541.0279     3048.625    19.093554  0.037236642 0.0027096292 -0.016574972 
  276000    265.44577    2468.3913     3048.625    26.150841 -0.0065291847 -0.016042084 0.0079247308 
  277000    280.00181    5720.3982     3048.625     35.86062 -0.035634561 -0.026694363  0.016830441 
  278000    242.95793    9297.3348     3048.625    32.235872 -0.0094305874 -0.028317348 -0.010352572 
  279000     248.7027    11838.165     3048.625    20.815697 -0.026247903 -0.021785061 -0.0033431508 
  280000    262.11123    4547.6936     3048.625    20.265828 -0.019447708 -0.018978138 0.0026163995 
  281000    262.62573    8686.3197     3048.625    30.860872  0.024293994  0.053871216  -0.01742522 
  282000     244.2721    12535.368     3048.625    32.716646 0.0016686229  0.015001415 -0.0034171793 
  283000    250.44061    7344.5949     3048.625    24.331337 -0.013939548 -0.022489044 -0.026505891 
  284000    258.85114    12871.408     3048.625    19.881534 -0.0041940889 -0.018260824  0.015472292 
  285000    280.74699    1988.7512     3048.625    24.267505  0.010465695  0.013570685 -0.0041656111 
  286000    275.02712    9180.9104     3048.625    31.011124 -0.0062011224 -0.030833292 -0.0017650469 
  287000    264.30826    14633.431     3048.625    33.253403 -0.022239992 0.0047523354 -0.0092129726 
  288000    254.70801    3341.2281     3048.625    29.255449 -0.0069371471 -0.0028688239 -0.0067383574 
  289000    253.52221    9532.3544     3048.625    22.251647  0.010657463 -0.031431093  0.033306609 
  290000    259.87449    7127.0336     3048.625      16.5567 -0.026615261 0.0011839901  0.035107948 
  291000     249.6129    11346.066     3048.625     17.33165  -0.01863741  0.029646188 0.0096158906 
  292000    240.18348    12112.566     3048.625    21.711145 0.0060050198 -0.015904966    0.0370604 
  293000    246.34089     9861.418     3048.625    23.274223 0.00098391479 -0.022318648  0.019836693 
  294000    255.01617    5114.8453     3048.625    22.144889  0.013076131 -0.037733782 -0.0032929905 
  295000    259.63769    4206.2027     3048.625    25.178162 -0.021541271 -0.011094473  0.014384581 
  296000    268.22712    4073.3146     3048.625    26.383838 -0.028143658  0.056463451  0.013436978 
  297000    279.49325    9936.4176     3048.625    22.520809 -0.021985284  0.019631674 -0.0017443487 
  298000     273.3576    3701.7522     3048.625    20.609624 0.0021370161  0.018156303  0.028357111 
  299000    279.99776    8830.6198     3048.625     21.03097 0.0099256812 -0.038071927   0.01798463 
  300000     274.5726     7860.089     3048.625    17.561768  0.011605756 -0.0095352062  0.020644969 
  301000    283.72095     4965.797     3048.625    11.832494 0.0027911742 -0.011395686 -0.022918295 
  302000    284.24214     5107.144     3048.625    13.288179   0.01079651  0.015223535 -0.0074579934 
  303000    272.43781    6371.5264     3048.625     23.82485 -0.021455953 0.0040238889 0.0059204651 
  304000    267.51702    5027.2577     3048.625    34.639925 0.0066927328  0.024054217  0.015323475 
  305000    258.00816    7500.8155     3048.625    32.332979  0.002327747 -0.0056408142  0.022372776 
  306000    256.85668    8044.6452     3048.625    21.075679 -0.015492854  0.033423407  0.024062701 
  307000    267.92283    9319.5486     3048.625    13.184037 -0.0046853135 0.0044602825 -0.026529273 
  308000    249.56165    7305.6015     3048.625    17.630168 -0.0062306031  0.014394377 -0.011216664 
  309000    236.51762    13372.603     3048.625    26.266022 -0.020356362 -0.016230003 -0.0092515015 
  310000    268.31348    2994.0432     3048.625    30.668188 -0.053455112  -0.01338792   0.03329365 
  311000    285.49112    6093.6013     3048.625    26.458621 0.00093380972 0.0042588658  0.018422122 
  312000    285.36518    4547.5558     3048.625    19.785151 -0.0063693129 -0.030762488 0.0070407195 
  313000     283.9425   -1346.1459     3048.625    17.070765   0.02086311 0.00078396703  0.052689084 
  314000    262.77033    12360.605     3048.625    18.651136 0.0073063153  0.021580696 -0.021314972 
  315000    241.89908    8653.8733     3048.625    21.824086 -0.0053724112  0.036126457 -0.0099640396 
  316000    245.22407    11933.093     3048.625    25.236992 -0.059778222   0.02335218  0.030171032 
  317000    280.00742    6784.3555     3048.625    31.616893  0.011728296  0.021229988 -0.0022975314 
  318000    265.93358   -2194.2147     3048.625    32.444014 -0.011257666 -0.0039890813 -0.00064116796 
  319000    250.64845    16365.323     3048.625    27.410879 0.0050971789 -0.015563184 -0.026305474 
  320000    258.54943    11834.326     3048.625     24.05618  0.011732446 -0.0054433305 0.0026476236 
  321000     259.4452   -394.46113     3048.625    23.786185  0.026723467  0.016898635  0.012526456 
  322000    257.28706    5818.2091     3048.625    24.696747  0.010902908  0.031014046 -0.0055741506 
  323000    263.95555    6281.8202     3048.625    27.515301  0.026609699 0.0007562513 0.0096063746 
  324000    258.81684    3449.4852     3048.625    29.338723  0.010782231 -0.034396207   0.03987311 
  325000    272.92002    10849.371     3048.625    30.062186  0.029188674  0.023017095 -0.027633755 
  326000    274.32662    5418.9983     3048.625    31.807923 -0.035205308 -0.012082639  0.028033707 
  327000    271.38483    4246.4529     3048.625    33.688317 0.0052157416 0.0039480931 -0.057986513 
  328000    266.18875   -1522.9161     3048.625    31.837256 0.0026435391  0.018065968  -0.02374309 
  329000    256.57725    9613.8901     3048.625    27.246389 0.0045541129  0.017007137  0.027499343 
  330000    255.08658    7769.3552     3048.625    25.313216 -0.017732668  -0.01215066  0.024704395 
  331000    248.18824    6136.7825     3048.625    29.306148  0.014603165 -0.0093650082  0.029202549 
  332000    251.86316    5904.5097     3048.625    34.614607 -0.025982161  -0.01747485 -0.012112817 
  333000    257.74806    9464.6905     3048.625    33.074111 0.0054601522 -0.040816605  0.027702283 
  334000     262.6408    10337.657     3048.625    28.468103 -0.032428958 0.0013095364 -0.0044204404 
  335000    277.12507    4473.3035     3048.625    26.844725 0.0014698086 0.0041045094  0.014355161 
  336000    259.13305    7984.7996     3048.625     30.73348  0.030400904 0.0048900089  0.023994254 
  337000    256.21757    7135.6645     3048.625    34.689772 -0.0097413382 -0.0015194344 -0.028383332 
  338000    265.25508     7029.235     3048.625    34.455412 -0.0079023954 -0.034408758 0.0041770269 
  339000    270.22298    6740.8376     3048.625    30.618253  0.011981959  0.013263604  0.035791412 
  340000    277.40845    1322.4237     3048.625    29.106469 0.0072554139  0.010972635 0.0020975121 
  341000    253.78628    11761.115     3048.625    30.824241 -0.038909853  0.032362359 -0.0039707776 
  342000    242.95599    6527.6199     3048.625    31.755954  0.010952885 -0.010300223 0.0077886997 
  343000    259.12424    9704.9665     3048.625    29.709574 -0.017941802 0.0080975953 0.0028731209 
  344000    249.38675    8585.9596     3048.625    27.383565  0.015668461 0.0010856508 -0.025366123 
  345000    262.55967    10238.618     3048.625     31.23221 0.0084042545 -0.019852487 -0.032167564 
  346000    264.14036    6965.9968     3048.625    33.100929 -0.0074936413 -0.025051509 -0.024641338 
  347000     277.8445    8457.2299     3048.625    31.786222 -0.020471944 -0.026488542 -0.017878292 
  348000    254.37392    748.78525     3048.625    30.076956 -0.018406998 -0.011512411 -0.0031811453 
  349000    274.34089    10039.403     3048.625    28.410682 -0.0022050488  0.024878848    0.0134294 
  350000    243.14892    5030.0448     3048.625    27.365991 0.0039714672 0.00086060315  0.012675013 
  351000    264.13059     2897.763     3048.625    24.272852  0.027371757 -0.0094483887 0.0073852929 
  352000    266.78013    10001.432     3048.625    23.854034  0.019192129   0.02449068 -0.0095942544 
  353000    276.34014    6205.4393     3048.625     25.23858  0.043789149 0.00022106673  -0.03668454 
  354000    270.33842    4973.2674     3048.625    27.310399 0.0086673751  0.028648671 0.0063476248 
  355000    263.52739    7572.7021     3048.625    28.164805    0.0283887 -0.028389584 -0.0060962556 
  356000    279.15036    3880.3941     3048.625    27.863182 -0.034435086  -0.01181629 -0.025350747 
  357000    252.90005    5152.7511     3048.625    25.428862 -0.064578103 0.0037854409 0.0016090364 
  358000     244.3241    17411.224     3048.625    18.568831  0.018930523 -0.003817983 -0.018344618 
  359000    252.88474    11412.137     3048.625    14.424436  0.037135797  0.015319984 -0.031626164 
  360000    268.38348    6268.9715     3048.625    19.503365  0.032953633  0.038248426 -0.012869271 
  361000    268.14138    8060.7561     3048.625     26.98291 -0.017973072 -0.00015262686 -0.011446818 
  362000    279.52621    8633.6427     3048.625    31.603763 -8.19689e-05  0.010965128 -0.014879374 
  363000    267.83035    7899.1968     3048.625    30.005279  0.025294429 -0.032359824 -0.0013472886 
  364000    259.29051    994.05665     3048.625    29.085852 -0.0065476612 -0.016872818  0.033226215 
  365000    266.81477    11322.908     3048.625    30.953304 -0.022756187 -0.017067468   0.01739179 
  366000     235.9703    9274.9849     3048.625    33.293148 0.0041145794  0.012788245 -0.024078443 
  367000    246.14868     6363.448     3048.625    33.343473  0.014308698  0.035091645 0.0026104105 
  368000    249.83576    11405.033     3048.625    28.488979  0.052216085  0.016123642 0.0098596309 
  369000    251.79723    9207.8641     3048.625    23.493079    0.0505526 0.0044158697  0.029596013 
  370000    245.40567    11013.227     3048.625    22.796127 -0.010333914 -0.014525374 4.9020652e-05 
  371000    238.57821    14685.644     3048.625    27.475324  0.018833046   -0.0177468  0.038115207 
  372000    262.27326    128.04522     3048.625    32.002361 -0.0040284456  0.013098337 0.0012823923 
  373000    263.23266    13631.229     3048.625    34.220855  0.018232084 -0.0053716362 0.0023828905 
  374000    252.53101   -674.75186     3048.625    33.203908 -0.018937245 -0.019206649 -0.0033569295 
  375000    269.91268     4918.486     3048.625    29.580976    0.0145417 0.0015171402 -0.024555273 
  376000    255.29606    15947.049     3048.625    25.144339 -0.018159045 0.0034212489  0.012068439 
  377000    242.98561    8524.7472     3048.625    21.280236 -0.0091739533 0.0039558337  0.007562373 
  378000    230.16889    4013.8606     3048.625    20.024031  0.014701928 -0.0034628533  0.013993325 
  379000     242.5109    15577.769     3048.625    22.663765  0.013377886 -0.013807706  0.012405564 
  380000    222.70777    12632.157     3048.625    24.195889 -0.0091074567 -0.0094452627  0.013165283 
  381000    235.48742    10116.282     3048.625    23.251828 -0.026090512 -0.0067624794 -0.0040344437 
  382000    251.35073    6213.8904     3048.625    23.366389 -0.037989153   0.01839189 -0.031526782 
  383000    263.96075    5452.3206     3048.625    26.064263 -0.010980049  0.013120342 -0.019677753 
  384000    256.31593    7221.4355     3048.625    27.299893 0.0032687155 -0.0033936355  0.007513472 
  385000    277.31135    8353.5217     3048.625    24.500408 -0.00074919948  -0.01029894   0.03594209 
  386000    273.99354     3930.234     3048.625    23.533902 0.0061546201  0.016938796  0.030702133 
  387000    263.35793    7404.6166     3048.625    26.009207 -0.029973737  0.011272869  0.026718569 
  388000    260.11855    9112.1224     3048.625    29.180448 -0.018551669 -0.0075778315   0.02733651 
  389000    268.71819    8088.0953     3048.625     29.86902 -0.030206864 -0.0082814844  0.011412125 
  390000    253.05039    8084.4742     3048.625    28.443545 0.0081777311 0.0072984246  0.033160465 
  391000    270.08063    4906.9172     3048.625    28.256851 -0.0074468282  0.009332218 -0.0082705337 
  392000    268.25119    5603.3874     3048.625    30.204973 0.0047829035 0.0060501841  0.031718418 
  393000    278.46702     6297.406     3048.625    30.747095 0.0039105616  0.014538164  -0.03741144 
  394000    264.75847    5806.2412     3048.625    26.424415 -0.0088565626  0.015166404  0.033876709 
  395000    268.62795     5042.726     3048.625    18.746863 -0.021769248 -0.010722306 -0.0096874574 
  396000     266.2972     11138.91     3048.625    16.188349 -0.014010155   0.03651078  0.027464804 
  397000    266.65417   -712.22014     3048.625    22.340732  0.013598298 -0.0075378678 0.0073722389 
  398000    259.50659    10712.622     3048.625    29.795931 0.0036197623  0.041343617 -0.0004125082 
  399000    259.43688     9817.846     3048.625    31.226885 -0.0019066751 -0.012804164  -0.01944731 
  400000    249.86703    3115.6182     3048.625    27.483315  0.014822264  0.010748795 0.0018713776 
  401000    265.44628    12973.054     3048.625    24.898665 -0.011276866 -0.025454116  0.039952336 
  402000    262.79745    3798.6982     3048.625    25.627237 -0.013581096 -0.011951569 -0.013130046 
  403000    272.49662    5957.5587     3048.625    26.837471 -0.038377427  0.015329786  0.026441862 
  404000    261.11353    4007.1879     3048.625     27.81626 -0.031425672 -0.0039118816  0.019953429 
  405000    254.33143    9020.0776     3048.625    24.823012 -0.026484548 0.00014155486 0.0064441655 
  406000    255.25609     6740.278     3048.625    19.963745 0.0014343543 -0.018567351 -0.016747988 
  407000    269.54895    6516.8566     3048.625    18.559477 -0.026180687 -0.022941395 -0.011947054 
  408000    272.86094    -509.6069     3048.625    24.239211  -0.02875442 -0.039671737 -0.0057198699 
  409000    279.94225    9158.8701     3048.625    30.645484  -0.03267619  -0.02662205 0.0041043315 
  410000    267.19522    3291.2016     3048.625    30.688331 -0.036881697  0.015793738 -0.0096158507 
  411000    260.15064    3094.8846     3048.625    24.878904 -0.034224077  0.027039947 0.0062572102 
  412000    258.78034    10931.751     3048.625    23.403429  0.025040281 -0.0015908716 -0.021230325 
  413000    243.65688    9830.9402     3048.625    26.845203 -0.016423957 -0.0011545693 0.0099149914 
  414000    256.87039    8529.3156     3048.625    29.624849 -0.0055900836 -0.010269909 -0.016823774 
  415000    251.15092    7209.0183     3048.625     29.32045 0.0040026604 -0.028036578   0.01424852 
  416000    236.04757    6662.3259     3048.625    26.423958 0.0080034265 -0.019084956  0.030129899 
  417000    249.88745    5310.6251     3048.625    23.453877  0.016150481  0.023738362 -0.0010110253 
  418000    256.86127    16277.229     3048.625    23.298176 -0.021223966  0.032717569 0.0037408041 
  419000    263.99298    6325.4539     3048.625    26.012412  0.019155111 -0.0046673188 0.0085291587 
  420000    259.30453    3382.9334     3048.625    27.843457 -0.005312625 0.0012800436 0.0039386342 
  421000     257.9095    12656.501     3048.625    28.791942 -0.063606945 -0.031720196 -0.036572108 
  422000    266.99236    3697.6808     3048.625    30.314384 -0.0045305296 -0.027574077 -0.034907304 
  423000    251.34836    4757.5353     3048.625    30.867933   0.01954493 -0.019386374 0.0070257434 
  424000    258.37018    10551.943     3048.625    27.174098 -0.021609529 -0.042604654 -0.00074452123 
  425000    249.14915    4316.7408     3048.625    22.993777 -0.018695461 -0.015007738  0.020969541 
  426000    243.17729    9838.8225     3048.625     23.52507  0.029341966  0.032310093 0.0018824325 
  427000    253.50565    6469.8099     3048.625     25.80069  0.017002633 -0.020520978 0.0028930827 
  428000    260.89072   -95.032408     3048.625    27.906939 -0.0082178704 -0.012272253  0.015310259 
  429000    261.92913    11311.264     3048.625    30.393932  0.018752633  0.019496085 -0.012182744 
  430000    245.02041    6464.1032     3048.625    31.531702  0.038299802  0.034044392 -0.0047358403 
  431000    252.84452    8318.8401     3048.625    28.492225 0.0059178372  0.022368124  0.026953247 
  432000    249.21188    13012.707     3048.625    25.415828 -0.032608377  0.005903425 -0.012489357 
  433000     253.9022    4577.5892     3048.625    26.691886 -0.005572504 -0.013647767 -0.011226624 
  434000    266.37565    7847.2391     3048.625    31.918333 -0.0032121269  0.042031074 -0.023293927 
  435000    270.00563    7821.5749     3048.625    34.668312 0.0084595245 -0.039229474 -0.027787308 
  436000    243.24928    9277.2166     3048.625    32.841548 -0.035650974 -0.017837347 0.0087047999 
  437000    259.43832    11507.447     3048.625    30.895843 -0.011020052 -0.0080479527 0.0057925708 
  438000    239.24665    5613.3114     3048.625    32.194367  0.018217618 -0.023193636  0.017241938 
  439000    214.80512    10649.172     3048.625    35.041377  0.017348672 -0.033049731  0.022182995 
  440000    237.02649     15197.62     3048.625    35.069412  0.013319367 -0.010868464 -0.024328112 
  441000    254.32702    7612.6229     3048.625    32.857353  0.013185455 -4.3790084e-05 -0.0014406542 
  442000    262.48606    503.09221     3048.625    33.542181  -0.01064173 -0.019815087  0.016856712 
  443000    286.78322    6185.6199     3048.625    35.039711 -0.0028987069 -0.0038855986  0.027743249 
  444000    282.57343    3012.1798     3048.625    33.411517 0.0081679263 0.0028499999 0.0038078102 
  445000    276.80536     8305.016     3048.625    31.248128 -0.046100405  0.032655214 -0.013412715 
  446000    259.56703    3353.7622     3048.625    33.653527  0.040026444 -0.0072507828  0.032635358 
  447000    242.89779    5497.8341     3048.625    35.437992 -0.035073923 -0.040683867  0.022375367 
  448000    267.51311    7133.8034     3048.625    32.685798 -0.030587939  0.009220543  0.021661657 
  449000    258.67647    3222.2673     3048.625    31.703273 -0.010648046  0.017214297  0.020354877 
  450000    265.13633    9277.7283     3048.625    33.044744  0.023155739 -0.025002147 -0.0023103231 
  451000    268.21419    12137.993     3048.625    32.127116 -0.020407656  0.021108429  0.024230227 
  452000    260.02979    5954.0032     3048.625    33.266732 0.0090399204  0.026711306 -0.020541058 
  453000    267.82796    9574.6501     3048.625    34.675926 -0.016481832 0.0064599909 -0.016951455 
  454000    262.01764     6119.174     3048.625    29.774979 -0.012633958 -0.032220121  0.013551037 
  455000    264.56462    4641.5947     3048.625     24.00183  0.016167525 -0.020476698  -0.04251725 
  456000     253.7905    6284.4476     3048.625    23.448063  0.030851579 0.0034757554  0.014001088 
  457000    231.33729    12473.077     3048.625    26.195837  0.010217198 -0.0074620202  0.038179988 
  458000    263.79554    7441.0857     3048.625    29.400495 -0.024596791 -0.021956626 0.0063857913 
  459000    249.89588    5261.7934     3048.625    32.381082  -0.05091191  0.037534982 0.0022753023 
  460000    238.02553    9315.6756     3048.625    32.097982 -0.035706114 -0.017585441 0.00010663873 
  461000    258.58789    5754.7711     3048.625    29.532054 0.0007738607  0.022629953 -0.013108416 
  462000    262.12237    7483.7054     3048.625    28.817825 -0.018798998   0.02855168 -0.011280121 
  463000    254.52983    10152.171     3048.625    29.848784 0.0018125168  0.023457286   0.01126912 
  464000    260.20341    6824.5784     3048.625    27.926005  0.017030647 -0.0048270729  0.011718238 
  465000    265.59031    7576.8898     3048.625    22.909567  0.017708748 0.0042361631 0.0019401518 
  466000    275.04998    7657.7154     3048.625    21.411841 -0.012880875  0.017496222 -0.017458832 
  467000    244.82781     8105.003     3048.625    24.642426 -0.023926485 -0.010030151 -0.016362656 
  468000     258.5009    11403.153     3048.625    27.722709 0.0041522988 -0.0028764961  0.010481744 
  469000    257.44967    4890.0855     3048.625     26.19887    -0.030903 -0.0082265162    0.0483055 
  470000    275.26001    2442.8746     3048.625    26.003348 -0.025525767  0.032964268  0.023266817 
  471000    272.40394    4841.3217     3048.625    28.761177 -0.0039988585   0.03604844 -0.044637637 
  472000    272.72497     10002.64     3048.625    31.839046 -0.0059415288  0.016934115 -0.034549401 
  473000    271.01821    2208.1227     3048.625    29.107406 0.0079662224 0.00064539982  0.010128445 
  474000    272.58483    6842.7194     3048.625    28.144515 -0.013801532  0.019878508  0.022103797 
  475000    268.26713    6096.0334     3048.625    32.702643 -0.037176377 -0.017717821  0.011671819 
  476000    252.62594    240.59008     3048.625    35.788779  0.050232393 0.0012369959 -0.0014306755 
  477000    242.38365    12335.729     3048.625     32.39853  0.015272757 -0.010492682 0.0094544288 
  478000    271.78258    5862.2935     3048.625    27.177411 -0.010736018 -0.019145845   0.01159799 
  479000    270.92418    152.11361     3048.625    27.972806  0.017915303  0.019271211  0.032693463 
  480000     270.4242    3012.7275     3048.625    31.973409  0.034118414 0.0075230197 0.0034638001 
  481000    254.35497    6922.4485     3048.625    34.543949  0.033948845  0.025800862 0.0040891298 
  482000     247.5807    10463.079     3048.625     32.71492  0.011472439 -0.0037336175  0.021169998 
  483000    254.63287      2808.81     3048.625    29.327903 -0.031027449 0.0061366369 -0.029061775 
  484000    289.17512    8438.4634     3048.625    26.663042 -0.025302361  0.028641718  0.026394708 
  485000    274.87287    5652.6217     3048.625    28.173616 -0.0029255274  0.012197485 -0.012970684 
  486000    265.33767    2371.2417     3048.625    29.959295  0.040134315 -0.036867691 -0.031046819 
  487000    255.14854    5621.3558     3048.625    29.296708 0.0099131472 -0.0062844372 -0.0038653048 
  488000    252.40227    7586.1558     3048.625     29.36486 -0.0095380842 -0.019464526 0.0097658427 
  489000    279.01615    12665.729     3048.625    32.582029 -0.0074505352 0.0042064042 -0.017413869 
  490000    268.04068   -604.23302     3048.625    34.758373  -0.02727892 0.00095714058  0.032257707 
  491000    267.35248    11237.576     3048.625    31.190418  0.021486593 0.0010183941  0.010734787 
  492000    248.76085    7345.1479     3048.625    25.514379 0.0071796071 -0.0014197025 -0.0040215066 
  493000    275.40631    2851.5386     3048.625    22.170003 -0.014377397  0.020833518 -0.0051611822 
  494000    258.36804     6930.476     3048.625    23.980872  -0.01671178  0.038672603 -0.0056255812 
  495000    285.93344    4835.3183     3048.625    29.821073 -0.013328875 -0.0046896152 -0.017558978 
  496000    261.91109    6986.9054     3048.625    34.707172 0.0084046072  0.012623423  0.024673092 
  497000    242.67902    7825.4484     3048.625    34.439777 0.00033648434 -0.014508777  0.026484522 
  498000    265.38863     6008.496     3048.625    28.121658  0.010226138  0.021198344 0.0044887614 
  499000    260.52094    5919.9135     3048.625    21.959386 0.0070521855 -0.013277732  0.011601869 
  500000     268.5842    10613.287     3048.625    21.608215 -0.016820894 -0.029930811  -0.01639547 
  501000    274.90099   -1243.7821     3048.625     25.56199 -0.0078029298  0.044423896  0.023257075 
  502000    251.94528    11601.142     3048.625    28.148483 -0.010803449  0.016075442  0.025277205 
  503000    282.28246     3157.556     3048.625    28.966689 -0.020700653 -0.042930899 -0.0048559961 
  504000    253.45024    3719.8157     3048.625     25.73872 -0.014568502 -0.011409206   0.02003873 
  505000    262.03325    11208.731     3048.625     22.32408  0.018645409  0.012464122 -0.0026746344 
  506000    242.26498    2805.8684     3048.625     24.45436 -0.010150024 -0.030363876 -0.022774842 
  507000    247.55712    7333.7346     3048.625    28.658236 -0.0027749385 -0.013410313 0.0034701307 
  508000    258.57571    9309.9534     3048.625    32.007325 -0.012383627 -0.030777341  0.017489575 
  509000    256.40779    5991.0141     3048.625    31.866896 -0.040674987 -0.014705426 0.0058270273 
  510000    257.73768    4816.8592     3048.625    28.273723 -0.0024942605 -0.027880047 -0.0027098048 
  511000    252.46992    7119.4865     3048.625    23.776846  0.028556266   0.02264238 0.0047347495 
  512000    269.77896    6984.6591     3048.625    22.471871 -0.024155159 -0.0029234983 0.0069948901 
  513000    280.43024    6885.9201     3048.625    26.496007  0.040523501 0.0018075239 0.0037811238 
  514000    263.71047    5954.5804     3048.625    31.215242  0.010741891  0.010334314 0.0038424548 
  515000    255.00233    13392.449     3048.625     32.17361  0.031095731 -0.0081684324  0.022387559 
  516000    265.42309    2036.7527     3048.625    28.196106 -0.015880209 -0.0097674369 -0.0071334254 
  517000    262.53909    5323.2569     3048.625    22.168552  0.017314251 -0.016421203 0.0035796384 
  518000    256.10744    4449.5291     3048.625    21.778735  0.041231232  0.047434938 -0.015932464 
  519000    269.31894    6935.2605     3048.625    26.792881 -0.024039411  0.030119385  0.022189191 
  520000    252.77214    3358.5126     3048.625    30.149489 -0.015938751 0.0051183295  0.016876454 
  521000    256.07273    10151.719     3048.625    28.989848  -0.01777031 -0.0023308646 -0.0084987449 
  522000    254.56797    10093.065     3048.625    25.606857 -0.013630742  0.011793773  0.006870088 
  523000    251.56992    4895.2967     3048.625    25.931465  0.004362175 0.0019140053 -0.0083415532 
  524000    254.58442    8659.4547     3048.625    30.686204  -0.03185975  -0.01431469 0.0055968863 
  525000    251.80936    4821.4853     3048.625    32.927495 -0.028461494 0.0043870286 -0.034707788 
  526000    273.88988    793.33031     3048.625    30.304183 -0.0040068992 -0.0026424996 0.0093660016 
  527000    244.35207    10844.779     3048.625    27.325853  0.004010251 0.0031294237  0.010243262 
  528000    229.52553    11241.526     3048.625    31.046881 -0.0093741493 -0.015746618  0.027551639 
  529000    261.51904    5283.5914     3048.625    34.866797 -0.021305661 -0.0060440865  0.030521939 
  530000    256.85687    8186.3563     3048.625    31.893729  0.001074682 -0.0041757487 -0.0040622128 
  531000    266.08265     11333.56     3048.625    25.084177  -0.01794087 -0.0010631762 -0.015850384 
  532000    262.85353   -3806.7121     3048.625     23.60096 -0.0004819885  0.025224524 0.0011492221 
  533000    267.71719    14908.007     3048.625    22.862604  0.027390961 -0.0015972277 -0.0084170978 
  534000    254.92881     5197.918     3048.625    26.074397 -0.011163244   0.02866372 3.2835058e-05 
  535000    258.51475    2346.0436     3048.625    26.274376 -0.028528902 -0.037911351 0.0032435503 
  536000    250.16331    12253.134     3048.625    27.286882 -0.0058879709 -0.007754866 -0.012249851 
  537000     253.2258    1300.7362     3048.625    31.559623  0.014839778  0.025139424 -0.0079215608 
  538000    250.36081    11404.259     3048.625    33.761787 -0.0054502596 0.0058861982  0.010624481 
  539000    260.14148    7099.0912     3048.625    29.427724 -0.023632395  0.015745203 0.0045589435 
  540000    267.70479    971.02783     3048.625    23.446543  0.014748261  0.020140277 -0.00063911649 
  541000    261.61399    5672.7712     3048.625    19.124435  -0.01866695 -0.048988179  0.017678623 
  542000    258.97619    5836.7743     3048.625    17.792188  0.024450688 -0.011899585 -0.002629427 
  543000     245.6442    6117.9934     3048.625    22.387564 -0.0077493187 -0.018635781 0.0075396125 
  544000     263.7613    5126.3672     3048.625    28.297914  0.025241944  0.027846412 0.0035394338 
  545000    262.23402    5792.8746     3048.625    28.855669 -0.011805461  0.023953299 -0.0035083931 
  546000    261.30458    7884.4732     3048.625    27.039468 -0.012991131 -0.011011997 0.0056414848 
  547000    260.31037    6729.6071     3048.625    28.162142 -0.0060473215 0.0054997666 0.0047160923 
  548000    264.44182    -637.4522     3048.625    31.125087  0.034495648 -0.019506811 0.0012823343 
  549000    279.65232    5214.6732     3048.625    33.057003 -0.036341448  0.029611345  0.017569239 
  550000    267.94617    10664.808     3048.625    33.232156 0.0071600869 -0.028802194 -0.0011278224 
  551000    244.12401    8637.5336     3048.625    31.286175 0.0066966795 -0.00035626928 -0.0052092489 
  552000    243.65353    5914.5776     3048.625    26.636621 0.0017533265  0.012813638 -0.0052566403 
  553000     262.4542     10882.66     3048.625     22.99458 -0.00097523717 -0.027439959  0.039611034 
  554000    272.13082     7417.018     3048.625    23.804147 0.0059847903 0.0028799679 -0.00085709342 
  555000    267.08745    4743.4938     3048.625    26.247268 -0.0090481062 -0.00078914165  0.032924008 
  556000    266.82304    5488.4948     3048.625     27.43679 -0.010597524 -0.0027351361 -0.0089237591 
  557000    244.65643    11180.867     3048.625    25.607861 -0.025538619 -0.012817251 0.0014873261 
  558000    258.47409    9419.4735     3048.625    23.908323 -0.0018258634 -0.020161433 -0.001741844 
  559000    269.34421    3008.6091     3048.625     27.31935 -0.0037256263 -0.008237049 -0.0038988168 
  560000    250.41462    1112.8414     3048.625    28.938344 -0.021293003 -0.0032803033  0.021055189 
  561000    258.89487    9614.6601     3048.625    24.482763  0.027904522 -0.019255015 -0.013413272 
  562000    263.34666    15728.779     3048.625    20.709601  0.016586324 -0.012988664 -0.015608991 
  563000    229.68851    8673.4116     3048.625    26.129253 0.0070691532 -0.025635318 -0.0011952402 
  564000     235.6421    9747.0461     3048.625    32.942935 0.0065719055  0.017444526  0.042738746 
  565000     251.1307    5544.6712     3048.625    34.800585 -0.0072194627  0.030683062 -0.018953958 
  566000    279.97058    6957.3061     3048.625    31.251291 -0.0047460272 -0.0087915865 -0.011506409 
  567000    264.20322    5741.7621     3048.625    27.340268 -0.0074216247 -0.013467264 -0.0070746572 
  568000    241.25714    8990.1865     3048.625    27.226221  0.058205683 -0.0032570516 -0.0015537073 
  569000    243.28597    6660.9611     3048.625    31.686248 0.0065033483 -0.031374143 -0.0074531009 
  570000    242.42411    12269.745     3048.625    33.758159 -0.011932078 0.0036678052 0.0079834121 
  571000    240.80167    6871.3989     3048.625    31.140352 -0.010855249  -0.00282859  0.004505028 
  572000    264.62463    8633.0644     3048.625    25.246387  -0.01210006  0.011723913   0.01800481 
  573000    265.83223     7810.594     3048.625    27.161098 -0.020410134  0.019521637  0.026891489 
  574000    257.20386    3006.6624     3048.625    32.484641  0.020382719  0.010487089  0.010781512 
  575000    250.45637    9907.3396     3048.625    35.954186 -0.023232854 -0.0011063691 -0.0031499267 
  576000    242.13252    6814.3277     3048.625     32.58411  0.031330356 -0.014809132 -0.024890301 
  577000    245.52821    4495.0235     3048.625    29.850429 0.0062797723 -0.021002494  0.014763396 
  578000    255.73688    10440.039     3048.625    31.226592 -0.0083841078 -0.039021773  0.005237219 
  579000    255.20688    1971.4032     3048.625    31.025511 -0.024362112 0.0074052134   0.03399929 
  580000    268.39769   -675.43509     3048.625    27.871802 -0.042904288 0.0018231212 0.0087961033 
  581000    270.52965    3962.4299     3048.625    26.004016 -0.029041735 -0.0055706328 -0.0098517599 
  582000    276.46573    6087.0018     3048.625    30.020005 -0.022562169  0.005133935 -0.0035527007 
  583000    241.81526    9072.2287     3048.625    35.101769 -0.00054181766  0.029121474  0.021594169 
  584000    261.55314    3952.8376     3048.625    35.123487 -0.030348716  0.026240925  0.028535724 
  585000    254.55715    3596.3627     3048.625    30.000152 -0.014895945 -0.026198187  0.012014359 
  586000    247.13797    11536.892     3048.625    27.684968 -0.016093238 -0.010372859  0.013151031 
  587000    278.08217    9424.4349     3048.625    30.781729 -0.0096826562 -0.028702377 0.0032026725 
  588000    274.13636    2838.5922     3048.625    33.498755  -0.02458974 -0.0017420008    0.0265897 
  589000    275.51129    2522.9128     3048.625    29.625299  0.016046828 -0.0001385247  0.012910853 
  590000    246.94619    4211.3219     3048.625    24.433295 -0.020940086 -0.0049314639 -0.027429367 
  591000    271.80185    9423.8836     3048.625    23.198424 -0.0063127813 -0.012429225  0.051510756 
  592000    254.22047    2063.1397     3048.625    25.478224  0.028172041  -0.04070031  0.018489976 
  593000    261.82675    8811.0536     3048.625    26.018592 -0.010264824 -0.011636724 0.0073912956 
  594000    248.38264    6970.9093     3048.625    22.662939  0.052491948  0.010804894 -0.00031512133 
  595000    262.90803    6929.7025     3048.625    21.624579 -0.047535825  0.039305944 -0.0094225375 
  596000    258.92287    6573.5254     3048.625    23.597309 -0.026188139 0.0067428185 0.0011474059 
  597000    245.50117    6324.8371     3048.625    25.099029 -0.019959258 -0.019611483 -0.014009333 
  598000    240.73756     5335.157     3048.625    22.009368  0.019841919 0.0024531641  0.023592721 
  599000    271.15226    10758.368     3048.625    17.858756 0.0066172802 -0.062707954  0.028667135 
  600000    262.75719    2164.4563     3048.625    18.471896 -0.006841037 -0.041359165  0.033344506 
  601000      255.947    314.77845     3048.625    26.491152 -0.016106821   0.01694533  0.034370159 
  602000    232.93704    15868.982     3048.625    32.333734  0.027286285 0.0060556386  0.010506889 
  603000    240.24217    5671.1702     3048.625    30.609835  0.045977563  0.013249733 0.00083723394 
  604000    250.20921   -3406.3538     3048.625    26.009048 0.0076124125  0.020740593  0.031006053 
  605000    262.10116    11827.059     3048.625    29.817181 -0.024718697   0.02129881 -0.011378407 
  606000     264.1676    8245.6548     3048.625    32.617199  0.001497459 0.0026348358 -0.0062631961 
  607000     271.1473    610.78618     3048.625    28.600616   0.02344477 0.0078401208 -0.012681506 
  608000    256.86294    2707.5736     3048.625    24.875874 -0.011305317  0.024212187  0.012528049 
  609000    252.24557    6459.5855     3048.625    31.326858 -0.021984289  0.014150126 0.0054609804 
  610000    254.95401    5169.3646     3048.625    34.393738 0.00078691174  0.025728782 -0.044177586 
  611000    262.78917    10544.654     3048.625    27.387668 0.0029953765  0.025558673  0.012232799 
  612000    256.34976    5324.7236     3048.625    26.994247 0.0064220999  0.011743575 -0.0054574892 
  613000     258.9549     4034.774     3048.625    34.664201 -0.032831161  0.025914472 -0.0081172536 
  614000    272.26359     9037.558     3048.625     33.11393 -0.014009804 -4.6499066e-05 -0.0098024863 
  615000    271.59897    1855.7712     3048.625    27.080936  0.012118138 -0.023676482 -0.021456564 
  616000    266.89368    8026.6098     3048.625    30.217364 0.0056181263  0.020709997 0.0073923842 
  617000     235.7301    12623.975     3048.625    35.874613 -0.031562773  0.037561369 0.0040890482 
  618000    265.87293    7400.9035     3048.625    33.401879 -0.0022277324  0.014172648 -0.028034196 
  619000    267.42839   -2003.3862     3048.625    26.572652 -0.00017683808 -0.0036032371  0.010267165 
  620000    251.28796    10412.103     3048.625    25.659852  0.033368343  0.014395303 -0.022612688 
  621000    246.64447    13290.598     3048.625    29.789041  0.019224112 0.0058087404  0.007328267 
  622000    243.41989    3697.9334     3048.625    31.585169 -0.011736746   0.01854122  0.005423393 
  623000    244.31646    8968.3027     3048.625    28.309322 -0.033318717  0.015391348 -0.014256005 
  624000    250.28971    11851.588     3048.625     27.32512  -0.01275324  0.024003897 -0.0089228387 
  625000    255.78274    10084.866     3048.625    32.433268 -0.0091676735 0.0069010596 -0.013908723 
  626000    265.95015    6126.5224     3048.625     35.92862  0.015723382  0.015449035 0.0028019203 
  627000    257.74899    8214.3567     3048.625    35.081527  0.010466369 -0.022651288 0.0026443376 
  628000    264.81721    1691.6743     3048.625    31.817111 -0.013257295  0.037549515  0.010733765 
  629000    235.84432    7003.4082     3048.625    29.089302  0.012450933  0.031901592 -0.015070913 
  630000    246.77944    7988.1209     3048.625    30.926569 -0.023380178 0.0090717176 -0.042906807 
  631000    228.84116    7957.3069     3048.625    34.229796 -0.001826352 0.0047691065 -0.036037499 
  632000     236.0458    8239.7873     3048.625    35.115951  0.026239649 -0.009180915  0.030940792 
  633000    227.58923    16663.699     3048.625    33.701389 0.0030306351 -0.0075756014  0.011621068 
  634000    233.57522    5186.6612     3048.625    33.006988 -0.010733801 0.0036552996 0.0046052147 
  635000    239.21338    10052.917     3048.625    33.980918  -0.04177627  -0.00757353 -0.021852069 
  636000    247.57887    13751.619     3048.625     33.20654 -0.0024861324  -0.01707679 -0.026447226 
  637000    251.07491    3894.1276     3048.625    30.724882 -0.014826241  0.024254649 0.0095009642 
  638000    268.27063    998.88448     3048.625    29.852992  -0.01510402 0.0095770592  0.038073245 
  639000    254.71248     12339.77     3048.625    30.148409 0.0011786308  -0.00351898 -0.004682583 
  640000    262.38486   -268.86282     3048.625    32.386895  0.014222308 0.0066949082 -0.029303491 
  641000    263.22565    8388.0967     3048.625    34.145378  0.010682449  0.018069456  0.012999477 
  642000    258.33277    10262.601     3048.625    34.775307  0.010552439 0.0034598916 -0.010496827 
  643000    248.92265    2735.9413     3048.625    31.651497  0.012968709  0.037173337 -0.049646573 
  644000    247.07523    3382.7169     3048.625    27.045757 -0.031703942 -0.027253896 -0.019760294 
  645000     260.7732    10807.971     3048.625    25.896832  0.031804883 -0.0098590451  0.012512814 
  646000    251.80747    9374.4121     3048.625    28.932285  0.022741323  0.019325768 -0.0086355403 
  647000    251.45942     3987.703     3048.625    31.426201 0.0059616491 0.0053377998  0.027075365 
  648000     238.4283    7656.9788     3048.625    29.067128  0.011234729   0.02919424  0.019376947 
  649000    264.90424    1466.6169     3048.625    26.573679 -0.0060984193  0.036656498 -0.030119572 
  650000    253.91216    10561.447     3048.625    25.972966  0.021804222  0.014368506  0.013662658 
  651000    244.73174    9169.7511     3048.625    29.081263 -0.021849228 -0.001801901 0.00097931762 
  652000    264.72114     1504.467     3048.625    33.810293 -0.023259993 0.0071481368 -0.0024679936 
  653000    247.42906     12351.82     3048.625     34.27061  0.014328224  0.019628935  0.023155907 
  654000    248.20624    8705.7406     3048.625     30.50696 0.0090849765 -0.019942098 -0.026583643 
  655000    246.34187   -2583.5444     3048.625    24.997951  0.014914589  0.021570791 -0.0061653778 
  656000    237.95721    10355.017     3048.625    23.471188  0.016527442 -0.00076254772 -0.020126777 
  657000    266.98741    4293.6054     3048.625    28.594319    0.0166973  -0.03017442 -0.015599045 
  658000    259.20155   -2398.7129     3048.625    34.141103 0.0024612433  0.015332203 0.0011598641 
  659000    271.80372    12110.337     3048.625    34.212278 -0.0083723316 9.4299377e-05  0.017567016 
  660000    260.73084    3901.3067     3048.625    30.546313 -0.020152535  0.013307741  0.012539451 
  661000    241.12806    1012.4681     3048.625    25.988194 -0.011937043 0.0024723832 -0.010284135 
  662000    238.55656    7602.9374     3048.625    25.164192  0.014582193 -0.0012147988  0.014831501 
  663000    250.13878    16498.823     3048.625     29.40149 -0.013307172  0.012694298  0.013488821 
  664000    261.57731    5991.8624     3048.625    30.962582 -0.011080377  0.010226786  0.028322459 
  665000    268.99436     3312.608     3048.625    26.540987 -0.021394426  0.021148189 0.0013790137 
  666000    253.33798    6442.7109     3048.625    23.070245 0.00036281366 -0.0055608787 0.0011996062 
  667000    263.33398    5359.8365     3048.625    24.489421 0.0013887405 -0.024697219 -0.008029384 
  668000    265.23305    1943.1049     3048.625    24.884333 0.0065791031 0.0095720778  0.011352968 
  669000    242.34174     9531.979     3048.625    27.463336  0.010935265  0.012556083  0.035009271 
  670000    239.65166    6903.8302     3048.625    29.330128  0.011572584 -0.020246765 -0.016133946 
  671000    257.31342    2710.3208     3048.625    30.339864  0.010922411  0.033602337 0.0087345646 
  672000    273.98531    2882.6297     3048.625    30.044294  0.021580266 -0.0018876385   -0.0293653 
  673000    256.68853    5835.5508     3048.625    27.018669 -0.019956903 0.0010741096 0.0045072862 
  674000     267.1473    6605.3196     3048.625    25.031948  0.025159998 -0.0089183617  0.026638704 
  675000    269.78109    3803.4239     3048.625    26.494401   0.03715909 -0.019071533 0.0019652545 
  676000    264.57673    4841.6819     3048.625    31.580051  0.017745907  0.031418574 -0.019753319 
  677000    247.08569    6106.3743     3048.625     33.62289  -0.05023608 -0.0065385233 -0.011039894 
  678000    262.66406    6069.9123     3048.625    30.796191 -0.025935245  0.011392485  0.025832239 
  679000    258.87607    3725.9104     3048.625    25.137129 -0.0079810964 0.0044500144 -0.0036371108 
  680000    273.62876    3154.7418     3048.625    24.640185 -0.0063846339 0.0020826046  -0.01291212 
  681000    271.54274    5375.3625     3048.625     30.55344  0.035101979 0.0051104007   0.02522238 
  682000    292.52944    715.67419     3048.625    32.900382  0.016993158 -0.044556982 -0.013021421 
  683000    257.88681     6694.102     3048.625    27.553624 -0.012079079 -0.0045012914 -0.0079775427 
  684000    241.98901    7228.8019     3048.625    22.189666  0.018003444 0.0035605663 -0.058334339 
  685000    261.44705    8510.0677     3048.625    23.956154 -0.032826623 -0.037429009 -0.026383066 
  686000    233.33446    7453.3217     3048.625    29.948604 -0.011181492 -0.010481842 -0.011798642 
  687000     266.7135    2946.7998     3048.625    31.087812  0.022796602 -0.00093093424  0.019513875 
  688000    248.97195    16506.082     3048.625    26.313777 -0.0078027486  0.031610414 -0.0095477404 
  689000    240.06455    8479.3484     3048.625    20.600807  0.038310575 -0.012754569 -0.0051384741 
  690000    246.09564    6629.0315     3048.625    15.940172  0.010479717  0.026259266 -0.045571624 
  691000      253.263   -627.61197     3048.625    16.150207 -0.0068538873 -0.016845434  -0.01710639 
  692000     237.0564    10809.859     3048.625    20.750044 -0.018670866 -0.006244433  0.030837596 
  693000    248.83607    13423.588     3048.625    26.298784 -0.017267958 -0.020734853  -0.01628438 
  694000    256.16643    5818.5212     3048.625    30.779848 -0.024199027 0.0006859862 -0.0046271387 
  695000    280.82856   -43.330227     3048.625    33.199038 -0.013977561 -0.013545276 0.0095156798 
  696000    250.85008    9370.6955     3048.625    33.293058 -0.022611285 -0.043262579 -0.018458718 
  697000     244.1804    9142.6956     3048.625     33.26586 -0.0005169924 -0.018723908 -0.0043612461 
  698000    241.31675    8252.8235     3048.625    33.508875  0.036639807 -0.0057521056  -0.01617013 
  699000    247.89985    7285.5109     3048.625    31.274353   0.01255114  0.017515775  0.025525921 
  700000    251.42021    6584.5972     3048.625    29.002103  0.051914618 -0.019142791  0.012123819 
  701000    255.25175    5646.6233     3048.625    28.489051  0.031932988 0.0011523966 0.0027150741 
  702000     264.3985    8693.2642     3048.625    29.808017   0.02906466 -0.025568351 -0.0057921405 
  703000    267.09075    562.36318     3048.625    30.975063 0.0061755307 -0.030374353 -0.038089409 
  704000    258.42081     7931.705     3048.625    29.854532  0.016551123 -0.022102456 -0.0006227187 
  705000    254.54371    7166.0137     3048.625    28.903325  0.013515918  0.021253514  0.014376041 
  706000    273.24194    3736.0534     3048.625    30.764028  -0.04045483  -0.02370958 -0.017280347 
  707000    264.74021    6941.2678     3048.625    34.177428 -0.033669103 -0.003020415 -0.026484872 
  708000    250.48993    3121.5396     3048.625    36.043852 -0.013243315  0.015810565  0.027178521 
  709000    280.49113    10113.167     3048.625    33.952779 -0.0086871404 -0.005419912  0.014891637 
  710000    264.10607    1052.4108     3048.625    28.638422 -0.018542614 -0.041242113 0.0087130639 
  711000    245.35202    -679.6403     3048.625    24.739673 -0.016138472 -0.047200997 -0.0036379591 
  712000     260.4008     8715.904     3048.625    25.038582 -0.0036661424 -0.015127458  0.012026542 
  713000    254.52546    10945.706     3048.625    27.120501  0.027531726 -0.010718303 -0.0091850586 
  714000    256.79627   -2261.9132     3048.625    29.442806  0.018632697  0.026638397 -0.0050940144 
  715000     275.6829    6157.8958     3048.625    30.868236  0.020452608  0.026962393  -0.02757126 
  716000    253.94003    10386.256     3048.625    28.111131  0.020959415 -0.021453085 -0.012151355 
  717000    252.85304     6286.231     3048.625    23.232286 -0.022846485 0.0038213207 -0.033124479 
  718000    242.34968   -1835.3562     3048.625    19.123956  0.019311716 -0.005943157 0.0026095779 
  719000    267.63362    10700.186     3048.625    17.277313 -0.024881061  0.010002729  0.022004092 
  720000    263.72219    5588.7867     3048.625    20.047594  0.016024854 -0.024629266   0.03679615 
  721000    258.93066    10722.938     3048.625    22.883253 0.0036290171 -0.0084484666 -0.0013519393 
  722000    245.25484    7748.9174     3048.625    24.286831 0.0011127057 0.0023202973 -0.018462453 
  723000    264.64151    2702.5964     3048.625    23.246616 -0.0037181384   0.02183355  0.032026181 
  724000    251.24506    8762.0401     3048.625    17.374189  0.033274626 0.0081528755 0.00074408427 
  725000    249.43545    5000.3104     3048.625    13.426552 0.0083647364 -0.0074192426  0.012041328 
  726000    253.69491    5615.5093     3048.625    17.316858 0.0060835152  0.031290552 -0.012875117 
  727000    250.49339    383.55447     3048.625    25.366224  0.013380016 -0.0015111476 -0.010968908 
  728000    253.27895     2814.202     3048.625     30.86307   0.01175665  0.022394196 0.0066076369 
  729000    243.52128    10403.733     3048.625    31.509208 -0.0025547418  0.010873613 -0.023141774 
  730000    246.19527    3693.2605     3048.625    29.618554 0.0059965354   0.01179422  0.016423357 
  731000    257.70733    5739.3352     3048.625    26.410664 -0.0060880179 -0.00038869004  0.031550231 
  732000    241.42481    9868.2972     3048.625    24.255542 -0.018932453  0.032038159  0.010867942 
  733000    259.76526    5345.3295     3048.625    26.030285 0.0048540715  0.007541362 -0.031200233 
  734000     257.3591    10153.559     3048.625     26.66978  0.013344802 -0.013680286  0.018378192 
  735000    244.45344    8005.7339     3048.625    24.035247  0.015500738 -0.0027401171 -0.030831107 
  736000    242.26029     4698.518     3048.625    21.295005 -0.010242533 -0.00028223042   0.01387328 
  737000    230.24766    8924.0171     3048.625    20.238328 0.00024318078 -0.046540164  0.005990167 
  738000    229.36391    10343.453     3048.625    22.066573  0.014216696 -0.038948903 5.2348852e-05 
  739000    249.36853    5389.9439     3048.625    22.978625  0.023538178  0.015003982  0.021853505 
  740000    253.91462   -953.58964     3048.625    23.675462   0.01371164  0.022061729 0.0080172007 
  741000    258.14358    11530.442     3048.625    23.028714 -0.0036078718 -0.0095909702 -0.013878429 
  742000    260.19102    7015.7901     3048.625     23.01389 -0.013965291 -0.020335233  0.021818487 
  743000    256.21566    978.93925     3048.625    26.626493 -0.022524816 -0.0044202569  0.017235334 
  744000    249.95744    8689.3254     3048.625    29.884743  -0.02392423 -0.017938403  -0.03815982 
  745000     238.7162    16145.376     3048.625    31.564463 0.0064583973   0.01806169 0.0091641148 
  746000    254.21024    2887.4413     3048.625     31.45116   0.04061754  0.019111802 -0.0063888414 
  747000    244.38015    5515.7956     3048.625    32.044366  0.015642219  0.022395422 -0.011180234 
  748000    243.81778    11670.404     3048.625    32.882504  0.035163207   0.01853778  0.010945882 
  749000    252.10451    7323.7498     3048.625    33.809073 -0.029070323  0.010149641 -0.008452731 
  750000    226.73225    6485.6792     3048.625    30.501461  0.017039376  0.003137597  0.044307742 
  751000    255.26482    12983.442     3048.625    24.089908  -0.02022312  0.014504212 0.0018393918 
  752000    264.74992   -2882.8099     3048.625    18.560129 0.0023488299 -0.020457475 -0.0012558277 
  753000    264.44035    6386.5324     3048.625    18.314514 0.0046448361 -0.028815572 -0.029202142 
  754000    264.26645     8774.825     3048.625    24.361932 0.0070999854 -0.0019955178 0.0082343977 
  755000    243.35249    3611.2866     3048.625    29.917107 0.0079986247 -0.037843665 0.0045610113 
  756000    249.24965    9871.7357     3048.625    32.423529 -0.0036521443  0.011736661  0.019777504 
  757000    252.41207    6077.3683     3048.625     28.88105  0.011373999 -0.0081182371 -0.025951965 
  758000    252.83475    2528.5286     3048.625    25.558564  0.026868341 -0.0012808565   0.00592228 
  759000    259.30764    6677.7418     3048.625    24.948515 0.0025185394 -0.027884694  0.024948701 
  760000    248.21536    10233.377     3048.625    24.284703 -0.016235971 0.0035282294  -0.01122219 
  761000    252.81436    3190.5713     3048.625    21.827402 -0.013241477 -0.0078603968 -0.034174513 
  762000    260.05329    5864.3774     3048.625    20.469817  0.024023119 -0.0014389925  0.015566277 
  763000    259.01752    8739.9602     3048.625    21.928755 0.0015035805 0.00043980668  0.017012224 
  764000    244.35182    13316.692     3048.625    22.299668 -0.0081796794  0.005563877 0.0057857814 
  765000    262.12021    3101.4338     3048.625     22.05994 -0.027444983  0.028573437 -0.0050634808 
  766000    254.61504     2801.785     3048.625    19.860161  -0.02099176  -0.01687345 0.0035188949 
  767000    244.42635    9212.3628     3048.625    20.852725  0.012182443 -0.027799195  0.028974262 
  768000      228.485    12575.726     3048.625    25.534348  0.017599656 -0.0048520929  0.014251697 
  769000    259.71362    4038.5482     3048.625    27.445636  0.023805872 -0.0037227236  0.015445577 
  770000    245.47494    2418.9255     3048.625    23.925687  0.011466898  0.031267694  0.027837569 
  771000    245.18695    11191.583     3048.625    17.953805 -0.0019766203 -0.019729083  0.025455483 
  772000    235.67815    5928.0137     3048.625    14.281307 -0.027751847 -0.0042961206   0.01115582 
  773000    265.57569    5532.1752     3048.625    15.843209    0.0302747 -0.0077288491  0.013722379 
  774000    250.11854    6442.3436     3048.625    19.433174 0.0011581623  0.015909248 0.0035038653 
  775000    254.30716    1268.4708     3048.625    25.368623  0.047629204 -0.010958318 -0.0096201859 
  776000    249.58484    12612.881     3048.625    29.067719 -0.0036790229  0.013247057 -0.0067438995 
  777000    250.04543    5890.8415     3048.625    31.648254 -0.0092692582 -0.010324558 0.00078345699 
  778000    253.23752   -2050.9463     3048.625    31.795184 -0.0094194168  0.014103491  0.037255901 
  779000    270.44409    11800.595     3048.625    30.029324 0.00071108761  0.014633683  0.005256489 
  780000    262.81565     4110.258     3048.625    25.352686 -0.0066991604  0.007744967  0.018752462 
  781000    260.48791   -222.10352     3048.625    20.827294 0.0076866162 -0.0074232816 -0.020781115 
  782000    266.84707    10420.758     3048.625    20.452695 -0.010682113 0.0094717181 -0.025830838 
  783000    266.88214    6073.4114     3048.625    26.203448 -0.0062259166 -0.0064023253   0.00404986 
  784000    256.41967     10338.76     3048.625    32.148012 -0.0064477646 0.0056785517 -0.013524206 
  785000    245.06207    7215.5539     3048.625     33.57225 -0.0019246187  0.019720095  -0.03986126 
  786000    257.93898    4750.9974     3048.625    28.144755  -0.01158764  0.010551211 -0.0083012416 
  787000    249.95585    6530.4085     3048.625    19.470636  0.011285762  0.021117206 0.0089435645 
  788000    249.85083    4342.9612     3048.625    16.233835  0.015241793  0.012842533 0.0028387998 
  789000    249.22893    10208.579     3048.625    23.113922 0.0059261029    0.0269003 -0.015959022 
  790000      260.834    6457.9144     3048.625    31.860005 0.00020392515  0.017822567 -0.0075844272 
  791000    250.15214    3317.8891     3048.625    35.511942 -0.032916734  0.018604128 0.0074050643 
  792000    233.56715    11489.824     3048.625    31.897454  0.012607454 0.0083141694 -0.019674905 
  793000    253.29601    5512.6101     3048.625    22.455569 -0.021401192 -0.010853762 -0.043637912 
  794000     248.3564    5904.8973     3048.625    16.240556 -0.016229336  0.024865279 -0.041666664 
  795000    243.47306    9572.9401     3048.625    17.025421  0.026705572  0.015604096 -0.025004521 
  796000    222.77443    7438.7753     3048.625    23.576785  0.014281056 -0.018673867  0.012201256 
  797000    244.47088    4516.3929     3048.625    27.056946  0.015732863  0.036506205  0.027066459 
  798000    257.86212    9602.1486     3048.625    24.671995 -0.028721994 -0.0001935322 -0.0079793678 
  799000    239.23953    8848.0092     3048.625    21.279139 -0.022603595  0.038385991 -0.0047631984 
  800000    254.24565    2367.9711     3048.625    22.728571  0.015142826 -0.016086897 -0.030845866 
  801000    256.16235    6773.8313     3048.625    24.506493  0.020761087 -0.00027303786 0.0010375179 
  802000    247.75307    11692.877     3048.625    25.363517  0.019405567 -0.0049586208  0.024706088 
  803000    242.99502    5763.2923     3048.625     25.46355  0.028634643  0.020994881 -0.020691127 
  804000    248.50459    2218.2109     3048.625    23.722765 0.0063669237 -0.033517597  0.036319154 
  805000    252.46834    5910.1938     3048.625    22.080674 0.0090173905 -0.010014688 -0.0054779632 
  806000     250.9962    4819.2874     3048.625    23.513654 -0.005644113 -0.032958949  0.028590146 
  807000    259.74437    4771.7033     3048.625    30.186796 0.0048493219  0.013284352 -0.011165058 
  808000    251.55916    5186.9746     3048.625    33.622384 -0.027178318 -0.0096529382 -0.024323811 
  809000      255.113    5426.9379     3048.625      33.3691 -0.0033316416 0.0076170403 -0.003173961 
  810000    247.25451    8108.7769     3048.625    30.134273 -0.018014618 0.0021290585 0.0054072121 
  811000    253.10103    8496.4677     3048.625    28.570638  0.023081409 -0.045456368 -0.0045844159 
  812000    250.45093    3855.1139     3048.625      28.0108  0.027005139 0.0097123717   0.01744997 
  813000     272.4148    9399.2248     3048.625    30.805493 0.0033839732 -0.026482912  0.024347454 
  814000    237.97361    3155.4299     3048.625    31.431601 0.0077494297  0.026053496 -0.0027630523 
  815000    256.82716    865.97853     3048.625    27.632411 -0.00090631559  0.021913874  0.013545222 
  816000    248.09351    11209.701     3048.625    25.597518  0.012972005  0.015179606 0.0091399752 
  817000    250.48195    7504.8633     3048.625    32.095208 -0.012118385 -0.0084847882  0.014572326 
  818000    262.25595    4320.9389     3048.625     34.53994 0.0073526331 -0.0096462683 -0.0031565836 
  819000     254.5953    2815.2934     3048.625    26.949331  0.011608035 -0.0084022678 -0.011580627 
  820000    262.90405    4946.0459     3048.625    24.541991 -0.0074309275 -0.0098638553 -0.033708618 
  821000    258.87029    4795.8388     3048.625     28.85626 0.0089710576 -0.040916933 -0.036133195 
  822000    243.36348    4762.5827     3048.625    26.423565  0.016101325 -0.029124091  0.014404505 
  823000    270.42493    6863.0852     3048.625    20.714087 -0.0094594465 0.0074272921  0.015894097 
  824000     263.5608    3036.3479     3048.625    22.155327 -0.032114425  0.018779056   0.02583027 
  825000    251.92558    6858.4209     3048.625    27.153503   0.01528554 -0.011202489 0.00078876486 
  826000    248.13652    6241.9859     3048.625    30.261535 0.0085294152  0.021654728  0.016564177 
  827000    245.43385     5475.051     3048.625    28.482858  0.003989334 -0.010894919 -0.0084754089 
  828000    259.46572    5334.2084     3048.625    25.579691 -0.011152142  0.006978206 -0.022853996 
  829000    266.24193    10473.934     3048.625    27.368028 -0.020529541  0.026787764 0.0095370726 
  830000    233.81241    4072.6643     3048.625    33.524783 -0.010492695 -0.010423798 0.0019011205 
  831000    254.12279    3719.6535     3048.625    35.996758  0.024817758 -0.041632703 -0.015772299 
  832000    253.79709    11520.279     3048.625    32.198615 -0.0064287654 -0.012826035 -0.016567229 
  833000    253.45061    8160.3932     3048.625    27.675893    0.0367002  0.015988129 -0.012913384 
  834000    242.29578    6631.1476     3048.625    29.921964  -0.01200146 -0.0022026832  0.022377876 
  835000    273.59052    1033.0638     3048.625    32.451406   0.01674883  0.012049282 -0.0096802832 
  836000    258.63163    4349.7525     3048.625     30.20268 -0.0082641692 -0.015915899 0.0040400264 
  837000    258.92045    8283.5225     3048.625    25.691753 0.0037352945  0.015126596 -0.024358239 
  838000    264.67527    3653.1126     3048.625    26.530641  0.009528056  0.024388883 -0.013381543 
  839000    259.78585    7223.4338     3048.625    29.478447 -0.014847267   0.04236394   0.02178548 
  840000    263.14753    3685.5582     3048.625    26.333979  0.017671881  0.019874518  0.017864114 
  841000    255.93429    8615.6304     3048.625    23.014989 -0.0075764268 -0.0037460444 -0.0097312165 
  842000     256.7129    9228.4454     3048.625      26.5476 0.00047290677 -0.0047811672 -0.00092345247 
  843000    256.14721    2584.6248     3048.625    30.285691 -0.041730011  0.022680977 -0.0031818494 
  844000    247.08583    6239.9792     3048.625    27.412816 0.0021672342  0.025842134 -0.037130766 
  845000    268.21687   -136.84356     3048.625     22.45716  0.017462759  0.008477437 -0.0030345452 
  846000    271.12302    6728.0566     3048.625    22.503083 -0.019965439 -0.0075993565  0.005040498 
  847000    256.76565    5189.0009     3048.625     28.05314 -0.0015552976  0.021031572 -0.020947556 
  848000    258.14301    6628.7957     3048.625    31.452252  0.029951959  0.025099125 -0.0055537665 
  849000    247.76764    3229.5973     3048.625    30.901135 -0.026236482 -0.0093469551 -0.036380873 
  850000    255.34074    2682.6529     3048.625    31.922143  0.029322419 -0.043714407 -0.0032077579 
  851000    261.43383    8987.8625     3048.625     31.80814 -0.0099914727  0.001127944 -0.034400087 
  852000    258.10251    3581.8529     3048.625    26.813993 0.0036864774 -0.011098102  0.011036567 
  853000    268.45935    -2449.269     3048.625     22.41469 -0.013012459 -0.023603314  0.029835272 
  854000    258.59882    10047.412     3048.625     25.44501  0.010249322 0.0057284502 0.0010641985 
  855000    262.87907    6789.7874     3048.625    32.433154 -0.026803693   0.02089342  0.021514015 
  856000    253.47956    2417.0292     3048.625    33.818754  0.027338789  0.016987254 -0.015299229 
  857000    265.94524    1553.2035     3048.625    27.811167 -0.0058627117 0.00045798355 -0.010223109 
  858000    253.71971    6066.2637     3048.625    21.643124 0.00056478341 -0.0098153717  -0.01077827 
  859000     241.0135    4835.1998     3048.625    23.084787 -0.0093249883 -0.032761688 0.0031232572 
  860000    249.25203    5671.3186     3048.625    27.887169 -0.0092048534 -0.048384155  0.018268049 
  861000    259.50411    6419.8523     3048.625    30.070723 -0.049141004 -0.018109558 0.0044463887 
  862000    239.16501   -1356.4414     3048.625    27.437509  0.015197301  0.030098825 0.0020264186 
  863000    266.38222    1418.7885     3048.625     23.32941 0.0070802424   0.01570525 0.0084583135 
  864000    248.35944    6985.7748     3048.625    20.984131 -0.014799916 -0.013366773 0.0090919057 
  865000    258.89876    5099.6614     3048.625    22.537605 -0.027863378 -0.024415231 -0.012945179 
  866000    273.63516    2638.4191     3048.625    26.502101 -0.020316805 -0.0097223707  0.032899145 
  867000    273.20161    7574.1458     3048.625    29.575602 -0.0082375965 -0.047891606 0.0034031523 
  868000    268.52468    6705.1289     3048.625    30.513724  0.004649099 0.0081012207 -0.0013145824 
  869000    262.13034   -993.79921     3048.625    31.759459  0.036240286  0.010188138 -0.0034238808 
  870000    255.30189    3236.1426     3048.625    33.383182 -0.021013632 -0.018827696 -0.010730175 
  871000    254.41363     5654.719     3048.625    33.995258 -0.024927284 -0.032514872   0.02637788 
  872000    255.21664    5847.7945     3048.625    32.190997 0.0014489399 -0.0065194346 -0.014616665 
  873000     252.7788    3604.2117     3048.625    30.326448  0.016363747 -0.010700593 -0.00098144355 
  874000     243.7618    12842.891     3048.625    31.796194 -0.0076743177  0.038089915 -0.0054222144 
  875000    267.55547    3477.2751     3048.625    34.907421  0.022331386 0.0085729316  0.015651126 
  876000     261.0016   -71.916329     3048.625    35.761308 0.0031467852 -0.0097601948 -0.0025865462 
  877000    271.12448    701.67919     3048.625    33.863194 0.0041955132 0.0029535888  0.029498994 
  878000    258.62486    7384.2984     3048.625    32.064779 -0.003077813 -0.0068146326  0.036042026 
  879000     262.3337    8389.3393     3048.625    30.814365    -0.025276  0.025582972 -0.005629421 
  880000    242.51937    1668.6901     3048.625    31.365494 -0.0079787788 -0.025651938 -0.013679235 
  881000    257.81795      4877.75     3048.625    33.464707  0.020305517  0.044130344 -0.017847862 
  882000    262.42878    7881.5264     3048.625    34.686605 -0.005009323 0.0051074575 -0.0086586354 
  883000    263.56383    5955.9644     3048.625    33.937154  0.012973981 -0.032002918 -0.0073187283 
  884000    249.77582    10528.331     3048.625    33.052264 -0.013114181 -0.004556415 0.0080323443 
  885000    261.41424    4021.1721     3048.625    34.334245 -0.042235466 -0.020887469 -0.0087244786 
  886000    242.57962    7389.0619     3048.625    35.803258 -0.016204745 0.0060318966 -0.0066724132 
  887000    260.98682    11082.816     3048.625    35.616341 -0.014938927 0.0038496039 -0.017842488 
  888000    265.76639    5055.4104     3048.625    34.695672 -0.021336339 -0.013040586 -0.026220815 
  889000     261.9686    3570.7495     3048.625    33.822224 0.0035711605 -0.0088534512 -0.0089615243 
  890000    229.10365    7249.1835     3048.625    32.416429  0.010820684  0.020202292 0.0073199254 
  891000    241.14544    8839.4033     3048.625    31.355903 0.0037872482  0.013818214  0.020072826 
  892000    262.95685    7950.5748     3048.625    30.597896 -0.0061958577  0.017457815  0.015402018 
  893000    259.39931    759.80947     3048.625    29.811705 -0.011254754 0.0076318565 -0.0010050793 
  894000    240.13125     12287.36     3048.625    29.505807 -0.030857154 -0.028788717  0.031534744 
  895000    257.64019    10287.214     3048.625    28.407971 -0.0020933218 -0.0022755407  0.023081054 
  896000    266.08867     4744.407     3048.625    27.372214 -0.0072177351 -0.0074071526 0.0019388103 
  897000    235.93026    9535.5199     3048.625    26.509397  -0.01016145  -0.03194473 -0.027694487 
  898000    238.30842    12826.585     3048.625    28.188285 -0.010820373 -0.0042850601  0.011625673 
  899000    242.58017    9329.3418     3048.625    31.558029 0.00055716978 -0.010811865 -0.023760786 
  900000    256.78889    9146.6366     3048.625    33.474186  0.017137099 0.0058539149 -0.0019960897 
  901000    266.08087   -511.46982     3048.625    34.760449 -0.014457257 -0.0052775442 -0.023840266 
  902000    251.92448    1893.0073     3048.625    35.254189 0.0013419638  0.019748649 -0.009108085 
  903000     246.0998    11810.654     3048.625    34.317315 -0.004824994 -0.0094921257 -0.052451129 
  904000    227.52488    10178.651     3048.625    32.520578 -0.016150243 0.0044340062 -0.043605999 
  905000     235.2991    5277.0814     3048.625    30.829488 -0.0071534715 0.0092201857 -0.030765771 
  906000    250.28271     4306.636     3048.625    27.967827  0.004552682 0.0070794567 -0.020091408 
  907000    237.48182    11858.844     3048.625    29.741262   0.02296185  -0.06041891   0.02761477 
  908000    264.80358    6435.2457     3048.625    32.637795 -0.022252391  -0.03275055  0.038113153 
  909000    238.59067    6994.2703     3048.625     32.80818 -0.020910709  0.019590393  0.020076288 
  910000    251.08384    5495.5641     3048.625    31.147367    0.0212434  0.019085674 -0.0012914598 
  911000    258.17507    2367.9174     3048.625    26.377616 -0.0093513747  0.044132705 -0.011349444 
  912000    265.84892     9074.375     3048.625    23.784936 0.0025731024 0.00052734337 -0.033808171 
  913000    240.54269    7450.4065     3048.625    25.527585 0.0046732754  0.029711562  0.011697137 
  914000    234.76548   -2586.3469     3048.625    25.332717 -0.009285241 -0.015930028 -0.0015116331 
  915000    238.07093    16920.476     3048.625    23.480535 -0.018817967 -0.0082919149  0.020049544 
  916000    256.26835    8949.0568     3048.625    22.286183 -0.0050691527  0.010377729 -0.050590308 
  917000    255.18918   -418.57973     3048.625    23.500427 -0.014059017  0.030179471 -0.008141793 
  918000    265.08932    2078.6793     3048.625     27.05369 -0.021460309  0.042702381 -0.024187982 
  919000    260.44713    8414.6435     3048.625    28.595253 -0.026349674 -0.013420188 -0.019204454 
  920000    234.01579    11089.591     3048.625    26.791612 -0.021025628  0.015750957 -0.012711729 
  921000    262.60311    3592.7527     3048.625    24.285224  -0.01370458  0.017802429 -0.044165397 
  922000    238.46704    5568.8773     3048.625    22.627938   0.01409839  0.020287298 -0.0039214281 
  923000    238.36935    7175.5454     3048.625      25.0009 0.0076110042  0.036765128 -0.022301161 
  924000     224.6211    4360.1787     3048.625    28.655439  0.026660091  0.037076047 -0.023651651 
  925000    251.97268    12055.166     3048.625    31.263752 0.0070778915  0.011865526  0.013154174 
  926000    249.22109    6156.9561     3048.625    32.378267 -0.023679491 0.0015981525  -0.05071927 
  927000    243.50863    497.90886     3048.625    30.849713 -0.0089521909 0.00094643533  0.025612163 
  928000    268.87461    9673.6432     3048.625    29.699475 -0.012243542 -0.034847382 0.0015632727 
  929000    235.44665    388.71351     3048.625    29.569989 -0.024933929 -0.0044131254 0.0049647293 
  930000    235.99064    8567.9648     3048.625    28.029902 -0.0090143443 -0.031358549 -0.021446498 
  931000    245.89893    8695.3368     3048.625    26.181555 0.0039967127 0.0026630599 0.0020098456 
  932000    238.67953    3214.6331     3048.625    27.152161 -0.0085494772  0.025805242  0.028864243 
  933000    242.58467    4705.5127     3048.625    28.638562  0.020660301  0.005509636  0.033281027 
  934000    240.52051     8644.983     3048.625    30.441023 -0.023072926  -0.01447853  0.019852535 
  935000    231.76859    5172.0495     3048.625    32.971143  0.051154727 -0.0089201093 -0.0097180192 
  936000    229.28711    7409.6821     3048.625    34.068859  0.021466695  0.014781644 -0.0019919517 
  937000    255.56321    3117.7075     3048.625    32.288224 0.0056351195  0.035297532  0.018157284 
  938000    259.05695    7137.2206     3048.625    27.415759  0.066580404 -0.0057057621 -0.017249243 
  939000    257.89878    8465.7787     3048.625       23.791 -0.0068200436  0.012313878  0.015788839 
  940000    259.81085    7540.3587     3048.625    23.138911 0.0064174576 -0.0086840226  0.015892566 
  941000    242.41223    2681.7013     3048.625    24.836816 -0.037992913  0.001835198  0.033589594 
  942000    276.58122    6964.2126     3048.625    24.977027  0.023621036 0.0061751847  0.047002416 
  943000    255.48655    3045.4991     3048.625    24.740342 -0.00031454151 -0.038798499 -0.023996788 
  944000     262.1286    658.12274     3048.625    24.286854 -0.025051925 -0.011323839 -0.035714704 
  945000    254.28842    9420.8444     3048.625    25.081004 -0.004854698 0.0067724953 -0.0064905256 
  946000    250.03925    13292.706     3048.625    28.189938 -0.038186794 0.0020208005   0.01251471 
  947000    271.37753   -1247.1344     3048.625    31.896768 0.0062214347  0.014284122  0.031057972 
  948000    264.21404    324.54361     3048.625      33.4527  0.030500072   0.01808361  0.020045983 
  949000    258.21253    12351.307     3048.625    31.111402 -0.0087268805  0.019875085  0.025448092 
  950000    260.79994    9708.5491     3048.625    27.873093 0.0028068991 -0.0096039246  0.016915513 
  951000    258.54728    1940.4102     3048.625    25.594504  0.042813757 -0.002830144 -0.027036049 
  952000    253.34352    3966.9106     3048.625    23.183971 -0.013881319 -0.002932648 -0.0053673141 
  953000    253.69959    7386.3236     3048.625    24.097552 -0.00020239184  0.021971473  0.018825874 
  954000    247.13856    2779.5648     3048.625     28.09751 0.0018996949 -0.0064164435 0.0092147846 
  955000    263.67054    3185.1311     3048.625    30.825117 -0.035363181 -0.034501523  0.042619197 
  956000    261.78344    5566.3883     3048.625    29.176451 -0.015915514 -0.011983098  -0.01446481 
  957000    256.41487    4634.2605     3048.625    27.488282   0.01447936 -0.0082437529 -0.017519308 
  958000    249.55538    2009.6624     3048.625    28.959003 0.0038019243 0.0059414229 -4.6064818e-05 
  959000    245.45997    11808.908     3048.625    28.620415 -0.0025475225  -0.02432415 -0.0095707024 
  960000    271.50988    6988.7113     3048.625    25.783903  0.017789894 -0.0017635983  0.015042334 
  961000    251.29525   -2805.5553     3048.625     24.46266  0.027262003 0.0084934789 -0.010570816 
  962000    254.82625    4399.1884     3048.625    27.328596 0.0088780321 -0.030612043 -0.029644692 
  963000    259.42338    6730.7881     3048.625    28.873505 -0.028207412   0.01226796  0.001083778 
  964000    266.90191    1172.5917     3048.625    26.354632 0.0079057879 0.0025282198  0.013363574 
  965000    254.14676     8580.579     3048.625    21.333387  0.027803208 -0.0018885366 -0.0052783229 
  966000    258.10326    5995.5969     3048.625    19.561153  0.021887236 -0.0013731355 -0.0055084988 
  967000    249.32607    8439.4296     3048.625    23.422977  0.021659613 -0.0085971604 0.0071772818 
  968000    247.10879    1490.2078     3048.625     26.43046 -0.027182895  -0.03118716  0.023722941 
  969000    239.30563    6596.5088     3048.625    26.605211 -0.016380495 -0.0065515941 -0.0098047229 
  970000    242.79654     11510.28     3048.625    23.188007  0.038209285 -0.033742045 -0.0084472701 
  971000    252.73476   -1317.2046     3048.625    18.815282 -0.0017936844 -0.020521064 0.0042232961 
  972000    245.15184    5062.2698     3048.625    18.281146   0.01312867  0.053709299 -0.0009288559 
  973000     244.1761    4120.4569     3048.625    23.588878  0.027320948  0.032436892 -0.014413238 
  974000    233.70138    10907.204     3048.625    29.625593  0.008537446 -0.017098461 0.0071595861 
  975000    240.09897    8278.3595     3048.625    32.201595  0.028701027  0.014960223 0.0041952959 
  976000    237.86067   -606.93356     3048.625    28.418719 -0.016302371  0.016952805 0.0028507557 
  977000    260.13372    3323.1276     3048.625      23.2331  -0.01025535 0.00032468184 -0.0054869711 
  978000    258.55427      10160.1     3048.625    22.144439 -0.0082651365 -0.011811124 -0.013733727 
  979000    266.52043    2619.9936     3048.625    23.042407  0.020064687 -0.0034250478 -0.014543276 
  980000    259.75788   -2656.9638     3048.625    23.083469  0.038703736  0.014640102 0.0089463713 
  981000    249.09865    7771.8482     3048.625    25.334165  0.012367402 0.00086786695  0.012480601 
  982000     261.4356    7267.9714     3048.625    29.277848 -0.010994198 -0.021335972 -0.016664526 
  983000    250.02272    3969.9068     3048.625    31.023785 -0.002523073 -0.013119156  0.029510069 
  984000    260.24426    2918.0345     3048.625    29.180765 0.0091419059 0.0035684291  0.014390414 
  985000    255.60763    5059.1622     3048.625    24.635701 -0.00059860415 0.0075657517 -0.00036284916 
  986000    262.93049    1814.9726     3048.625    20.799825 0.0058892621  0.029506867   0.03122395 
  987000    244.49644    2449.5113     3048.625    21.114205  0.017649821   0.02732948 -0.007010323 
  988000    247.89705    10097.798     3048.625     22.63588  -0.02201337 -0.0046483534 -0.029262629 
  989000    223.20917     6422.091     3048.625    21.500467  0.037177884 0.0089510685 0.0081232698 
  990000    269.55904     1313.836     3048.625    21.790799 -0.023063583 -0.0070748316  0.028235293 
  991000    265.72357    9765.7442     3048.625    27.235903 -0.039611501 -0.00090281111 0.0021720238 
  992000    250.34001    1676.4772     3048.625    33.499643  0.015732062 0.0016004095 0.0081370286 
  993000     261.8509    3885.1249     3048.625     34.39486 -0.010927586 -0.0040201572 -0.013316262 
  994000    256.35423    7693.9977     3048.625    27.232318  0.018538739 -0.022446019  0.029770912 
  995000    267.54615    4598.6859     3048.625    18.507836 0.0032331388 -0.014240935 0.0048636713 
  996000     245.4299    3238.1988     3048.625    16.467949  0.014858328 -0.0092949953 -0.0030507601 
  997000    238.92375    8111.0401     3048.625    21.512563 -0.0022195575 -0.0041455108  0.020519579 
  998000     250.2523    1681.1452     3048.625    30.431801 -0.016848573 -0.017013912 0.00076900008 
  999000    265.22975    7237.5284     3048.625    36.288629  0.018772205  0.014996644 -0.0097827857 
 1000000    250.85222    7463.2099     3048.625    32.380069 -0.011721748 0.0036647534 0.0025526828 
Loop time of 11017.8 on 1 procs for 1000000 steps with 240 atoms

Pair  time (%) = 10869.7 (98.6561)
Bond  time (%) = 0.28458 (0.00258291)
Neigh time (%) = 51.3016 (0.465625)
Comm  time (%) = 30.1068 (0.273257)
Outpt time (%) = 0.212874 (0.0019321)
Other time (%) = 66.1596 (0.60048)

Nlocal:    240 ave 240 max 240 min
Histogram: 1 0 0 0 0 0 0 0 0 0
Nghost:    5772 ave 5772 max 5772 min
Histogram: 1 0 0 0 0 0 0 0 0 0
Neighs:    87823 ave 87823 max 87823 min
Histogram: 1 0 0 0 0 0 0 0 0 0
FullNghs:  175646 ave 175646 max 175646 min
Histogram: 1 0 0 0 0 0 0 0 0 0

Total # of neighbors = 175646
Ave neighs/atom = 731.858
Ave special neighs/atom = 0
Neighbor list builds = 7286
Dangerous builds = 0
#	run			10000
	unfix			1
	uncompute		myKE
	uncompute		myPE
	uncompute		myStress
	uncompute		flux
	uncompute		myDis
	unfix			JJ

	next seed
	next iseed
jump lmp.in.gk loop_seed
variable iseed loop 10
variable seed index 11111 22222 33333 44444 55555 66666 77777 88888 99999 11110
clear
###########################################################################
#x0
###########################################################################
units 			metal
atom_style		full
read_data		fort.26.nonbonded
  0 = max bonds/atom
  0 = max angles/atom
  0 = max dihedrals/atom
  triclinic box = (0 0 0) to (14.5 14.5 14.5) with tilt (0 0 0)
  1 by 1 by 1 MPI processor grid
  240 atoms
  0 bonds
  0 angles
  0 dihedrals
  0 = max # of 1-2 neighbors
  0 = max # of 1-3 neighbors
  0 = max # of 1-4 neighbors
  1 = max # of special neighbors
group         		C type = 1
60 atoms in group C
###########################################################################
#OLPS
###########################################################################

################################################################################
#### Pair potentials
################################################################################
pair_style hybrid/overlay tersoff lj/cut 12.0
pair_coeff * * tersoff C.4.tersoff 1 2 3 4
pair_coeff 1 2 lj/cut 0.0007000000 3.5500000000
pair_coeff 1 3 lj/cut 0.0007000000 3.5500000000
pair_coeff 1 4 lj/cut 0.0007000000 3.5500000000
pair_coeff 2 3 lj/cut 0.0007000000 3.5500000000
pair_coeff 2 4 lj/cut 0.0007000000 3.5500000000
pair_coeff 3 4 lj/cut 0.0007000000 3.5500000000
special_bonds lj 0.0 0.0 0.0 coul 0.0 0.0 0.0

#pair_style tersoff
#pair_coeff * * C.4.tersoff 1 2 3 4

#pair_style lj/cut 12.0
#pair_coeff 1 1 0.0700000000 3.5500000000
#special_bonds lj 0.0 0.0 0.0 coul 0.0 0.0 0.0
###########################################################################

#--------------------------------------------------------------------------
#variables
#--------------------------------------------------------------------------
variable   	dt 		equal 0.001
#--------------------------------------------------------------------------
#kappa parameters
#--------------------------------------------------------------------------
variable    	p 		equal 100000 	# correlation length
variable    	s 		equal 10  	# sample interval
variable    	d 		equal $p*$s 	# dump interval
variable    	d 		equal 100000*$s 	
variable    	d 		equal 100000*10 	

#--------------------------------------------------------------------------
variable 	T_run 		equal 300
#--------------------------------------------------------------------------

log 	log_heat_${iseed}.lammps
log 	log_heat_6.lammps
