	reset_timestep  	0
	fix 			1 all nve
	compute   		myKE all ke/atom
	compute   		myPE all pe/atom
	compute   		myStress all stress/atom virial
	compute   		flux all heat/flux myKE myPE myStress
	variable  		Jx equal c_flux[1]/vol
	variable  		Jy equal c_flux[2]/vol
	variable  		Jz equal c_flux[3]/vol
	fix       		JJ all ave/correlate $s $p $d c_flux[1] c_flux[2] c_flux[3] type auto file J0Jt_${iseed}.dat ave running
	fix       		JJ all ave/correlate 10 $p $d c_flux[1] c_flux[2] c_flux[3] type auto file J0Jt_${iseed}.dat ave running
	fix       		JJ all ave/correlate 10 100000 $d c_flux[1] c_flux[2] c_flux[3] type auto file J0Jt_${iseed}.dat ave running
	fix       		JJ all ave/correlate 10 100000 1000000 c_flux[1] c_flux[2] c_flux[3] type auto file J0Jt_${iseed}.dat ave running
	fix       		JJ all ave/correlate 10 100000 1000000 c_flux[1] c_flux[2] c_flux[3] type auto file J0Jt_4.dat ave running
	compute 		myDis all msd
	thermo_style 		custom step temp press vol c_myDis[4] v_Jx v_Jy v_Jz
	thermo			1000
	timestep		${dt}
	timestep		0.0010000000000000000208
	run			1000000
Memory usage per processor = 7.90665 Mbytes
Step Temp Press Volume myDis[4] Jx Jy Jz 
       0    303.55351    8575.8585     3048.625 3.0290145e-31  0.005130427    0.0561439 -0.0071353838 
    1000    305.40885    12894.646     3048.625    13.574683 -0.0025578228 -0.033489976 0.0038539353 
    2000    291.80847    8329.1884     3048.625    28.545355 -0.010299878 -0.0010382947  0.020362501 
    3000    262.93212    18046.489     3048.625    25.270194  0.013311301 -0.00024751104  0.027465275 
    4000    304.80507    7024.7427     3048.625    16.626623 -0.035819123  0.012024231 0.0095564698 
    5000     305.0794    13041.814     3048.625    15.001589 -0.018025434 -0.013927819 0.0070900035 
    6000    277.44443    18362.915     3048.625    18.374457 -0.021838927 -0.032724244   0.03525671 
    7000    253.70653    11473.711     3048.625      20.8218 0.0044050742 -0.023082333 -0.0076604287 
    8000     303.7333    10026.495     3048.625    20.118107  0.024867401 -0.026901594 -0.011556959 
    9000    292.10067    11154.132     3048.625    14.126207 -0.0017196619 -0.0056570479  0.018866129 
   10000    280.90273    14263.014     3048.625    9.7170875  0.026221928 -0.005452918  0.018891591 
   11000    302.31036    10904.646     3048.625     14.64841 -0.012114166  0.012155177  0.019192369 
   12000    296.35558    10250.304     3048.625    27.138573 -0.014005457  0.031652016   0.02954606 
   13000    319.05331    12001.205     3048.625    28.646675 -0.016118728 -0.011311504 -0.0049614803 
   14000    307.99596    2624.5677     3048.625    23.426357 -0.0017076855 -0.017330334  0.017033277 
   15000    308.83938    10663.615     3048.625    22.604457  0.028578429 -0.053724512  0.008705851 
   16000    314.22907    7204.0156     3048.625    24.585181 0.0070602993 -0.032274266 -0.006877817 
   17000    300.70838    9129.2749     3048.625    22.327081  0.019384226 0.0043621316 -0.0048738621 
   18000    340.56048     9851.229     3048.625    26.140591  0.015330385 -0.019667841  0.051949218 
   19000    326.78857    4521.7951     3048.625    18.403358 -0.028476747 -0.051829781 -0.031178341 
   20000    311.40965    8885.0386     3048.625    18.270829 -0.0021270444 -0.0065655555  0.011459771 
   21000     289.6159    9302.1504     3048.625     29.51987  0.068757696  -0.01594963 -0.0073177759 
   22000    293.05882    13846.598     3048.625    25.380683 -0.0084643637 0.0054010825 0.0096985612 
   23000    313.23115    5930.5021     3048.625    30.515984 -0.010725282 -0.022846495  0.030337127 
   24000    296.65573    7802.7978     3048.625    29.705389 -0.039162539 0.0077187546 0.0064652629 
   25000    303.24816    13630.278     3048.625    23.457224 -0.0078752618  0.027130806 -0.0073231087 
   26000    299.53464    10509.157     3048.625    31.628539 -0.0048057796  0.035564633  0.018408212 
   27000    263.65816    11353.121     3048.625    29.523441 -0.036227808 -0.014119564 -0.0070322579 
   28000    293.02496    15628.832     3048.625    21.842869 -0.013859937  0.014515516 -0.010915325 
   29000    294.11412    6799.4436     3048.625    23.789294  0.024163247  0.011491499 0.0046840688 
   30000    268.09709    16240.383     3048.625    29.725198    0.0220725  0.013079348 -0.015660942 
   31000    294.26865    6430.9894     3048.625    28.628294 -0.029078155 -0.003083116 0.0013652505 
   32000    293.97976    9488.8469     3048.625    23.628468 -0.028423711 0.0081013145 0.0063878945 
   33000    287.74699    10649.705     3048.625     23.02654 -0.013268455 -0.017100312 -0.024846971 
   34000    284.80429    14358.016     3048.625    28.589657 -0.071846253 -0.014451028 0.0061744581 
   35000    307.55449    1331.9664     3048.625     34.12013 0.0041146105 -0.00085696593 0.0021229608 
   36000    273.90388     8508.323     3048.625    31.037078 -0.0016395001  0.019977321 -0.016269502 
   37000    286.07113    11234.303     3048.625    21.657594 -0.014396773   0.03466998 -0.012241055 
   38000    292.26556    12106.707     3048.625    19.524676 0.0085133683 -0.0038254803  0.003752944 
   39000    310.01409    13934.229     3048.625     26.49589  0.012788985 -0.023343868  0.039520044 
   40000    294.12329    9708.8894     3048.625    31.224295 -0.0015830998 0.0087626165 0.0063844878 
   41000    298.10612    13705.988     3048.625    27.316056 0.0085291549 -0.025956334 -0.029602489 
   42000     297.5929    4529.4051     3048.625    26.683848 -0.0061675906 -0.026267014 -0.045897643 
   43000    305.91059    8895.2227     3048.625    29.369204 -0.031054363 -0.013932954 -0.011771679 
   44000     324.1912    8724.0013     3048.625    26.156968  -0.01210405  0.049698034  0.035250905 
   45000    292.11192    8202.5827     3048.625    27.574475  0.015660016 -0.010117054 -0.0046125643 
   46000    306.69429     13265.19     3048.625    31.985513  0.011347585  0.030870711 -0.019077093 
   47000    288.86209    15623.063     3048.625    32.026003  0.047188102  0.029556722  0.023538533 
   48000    292.05037     4786.554     3048.625    28.864687 -0.011620177  0.027252434 -0.0038420488 
   49000    281.57947     18276.29     3048.625    25.789919  0.052732783  0.014647362 0.00021218333 
   50000     300.3571    17763.454     3048.625    26.868772  0.050731449 -0.0023876098 -0.019908703 
   51000    320.83309    4288.1102     3048.625     25.92473  0.064892651  0.026639608 -0.041991908 
   52000    311.67991    9601.3856     3048.625    24.354869  0.019529399 -0.011434129  -0.07286391 
   53000    303.07502    7632.7158     3048.625    28.933749  0.013741955 -0.010502701 -0.015551238 
   54000    301.86675    7652.4761     3048.625    25.899668 -0.023204714 0.0032956263  0.026311863 
   55000     299.5293    12277.654     3048.625    16.979143 -0.0096117586 -0.022973435 -0.00083195904 
   56000    306.78197    6137.1782     3048.625     18.44903  0.036348276 -0.022926341 -0.0081872612 
   57000    297.12578    11569.699     3048.625    25.792811 -0.019727693  0.007573974 -0.014200174 
   58000    307.69462    9045.9707     3048.625    28.628999 -0.010360416 0.00034869097  0.010337465 
   59000    287.57193     10646.52     3048.625    23.744214 -0.0052836857  0.027567326 -0.028340187 
   60000     296.1715    9503.8162     3048.625    23.140787  0.031487054 -0.028173403 0.0082076984 
   61000     299.3993     13425.47     3048.625    28.723164  0.030477287  0.034326853 -0.0086139452 
   62000    300.06832    15051.559     3048.625    34.070899 -0.023234693 -0.0081560506 -0.0073339167 
   63000    297.31073    12384.814     3048.625    33.615995 -0.0016605119 -0.0063970194  0.047460392 
   64000    287.97934    6014.2066     3048.625    28.317931  0.054714805 -0.00032924387 0.0062220022 
   65000    290.93346    10219.649     3048.625    29.812123 -2.3522047e-05 0.0099451158   0.02338933 
   66000    296.87522    13388.863     3048.625    33.198314 0.0041991574   0.01218674   -0.0218373 
   67000    308.12938     5145.612     3048.625    28.740214 -0.014256376  0.030626609 -0.0099387374 
   68000     251.7377    16696.728     3048.625    22.681756  -0.04889973 0.0039454785 0.0041390505 
   69000    286.66631    5374.2482     3048.625    24.716395 -0.028416625  0.015146749 -0.0038490912 
   70000    300.99755     8608.166     3048.625    30.369173  0.018123695 -0.016087652  0.033977526 
   71000    303.64785    11477.133     3048.625    31.110808 -0.022290041  0.038285071 -0.027097996 
   72000     288.0851    1426.8891     3048.625    32.474785  0.017231081 -0.0075338131 -0.042130747 
   73000    306.62791    13559.416     3048.625    28.246554  0.026226531 0.0060499857  0.003718642 
   74000    304.33346    648.27546     3048.625    24.946248   0.04420433  0.017863051 0.0068473929 
   75000    281.99627    13859.131     3048.625    27.315492 -0.037950197  0.048456684 -0.027749455 
   76000     283.3377    12288.914     3048.625    27.582573 -0.012680604 -0.00064958516 -0.024718509 
   77000     300.3809    10255.186     3048.625    24.576471  0.022340137  0.020256088 -0.018611687 
   78000    304.51763    8116.7301     3048.625    25.139158   0.03181683  0.010320218   0.01631067 
   79000    308.85872    5482.9713     3048.625    31.359864 0.0077360072 -0.027114333  0.035451466 
   80000    307.53029    6418.9276     3048.625    34.484462 -0.0053292965 -0.022369312 -0.015457422 
   81000     276.5617    16104.733     3048.625    31.734919 -0.057720314  0.044888359  0.036703477 
   82000    279.00009    13754.014     3048.625    31.462661  0.013101138 -0.011130853 0.0063161279 
   83000    267.29523    18168.291     3048.625    29.249942 -0.013315999 -0.012541593 0.0016876418 
   84000    275.62598    13207.901     3048.625    25.830749 -0.0091487884 0.0056221255 -0.013521934 
   85000    299.57853    6965.8133     3048.625    26.551063 -0.019752211 -0.020165846 -0.0044887171 
   86000    314.84286    13022.456     3048.625      27.9145 0.0078331638 -0.067866341 -0.025809256 
   87000    302.90198    5843.6141     3048.625    29.453511 -0.017821403 0.0037261942 -0.018570478 
   88000    299.18435    7293.1593     3048.625    30.243913 -0.0036009087 -0.0026419329 0.0015053617 
   89000    310.79048    17426.854     3048.625      29.5038  0.010404903  0.033945914  0.039317822 
   90000    295.14654    3885.9321     3048.625    31.010935  0.013207367 0.0075972143  0.035320009 
   91000    265.49732    15759.168     3048.625    33.237888  0.025227715 -0.013369981 0.00036287618 
   92000    266.66567    19853.267     3048.625    33.623047 -0.0086058654 -0.031694879 -0.033755875 
   93000    275.68288    10886.379     3048.625    33.668037  0.010093069 -0.0017117157 -0.028588151 
   94000    283.11286    12466.818     3048.625    34.276849 0.0057563804  0.027043876 -0.0026351279 
   95000     290.0913    13075.378     3048.625    35.584999 0.0097904269  0.049638449 -0.012326874 
   96000    287.87969    9166.7825     3048.625    33.701259 -0.032870391  -0.01470871 0.0059302907 
   97000    255.67211    15888.415     3048.625    30.993731 -0.039275514 0.00065835485 0.0043679154 
   98000    292.00188    5160.4571     3048.625     28.41744  0.007202296  0.044766492  0.019331212 
   99000    308.43013    14229.692     3048.625    27.575801 -0.00010325311 0.0094078457  0.018464732 
  100000    295.12864    7954.0803     3048.625    29.311486  0.011198272  0.018872171 -0.027640449 
  101000    282.70724    15745.534     3048.625    33.181332 -0.026666323  0.016980197 -0.0098490477 
  102000    295.38143    5673.8281     3048.625     34.74538  0.028540942  0.025203737 -0.026510702 
  103000     278.3334    10376.677     3048.625    34.042621 0.0039758134 -0.015140973 -0.022821939 
  104000    319.90453    3352.7504     3048.625    33.465461 0.0068957251  0.045495914 -0.016042355 
  105000    289.07825    13741.854     3048.625     31.51243   0.02379802 0.0011800654  0.031220204 
  106000     270.4076    9177.9548     3048.625    30.875243 -0.018370272 -0.019527522 0.0032786492 
  107000    291.94294    15620.441     3048.625    31.051906 -0.0070210787 -0.042112485  0.021992956 
  108000    294.57032    14005.592     3048.625    32.930277 1.8167036e-05 -0.051975682  0.016253366 
  109000    283.54154    9541.7471     3048.625     33.86111  0.023524845  0.030022198  0.027018866 
  110000    317.16912    3905.9786     3048.625    34.398323 -0.0098936222 -0.012763115  0.027124085 
  111000    306.06729    6524.1385     3048.625    33.454249  0.023608822  0.021472535  0.015052247 
  112000    293.46366    7116.1784     3048.625    32.910348 0.00019540995 -0.027117986 -0.047319656 
  113000    289.80694    11384.307     3048.625    32.880489 -0.0042320688 -0.013611472 -0.023275119 
  114000    280.51867    3916.9835     3048.625    33.207769 -0.013589693 9.5873318e-05 -0.014128196 
  115000    275.44797    9206.5188     3048.625    35.504252 -0.0085681044 0.0071657854 -0.017774633 
  116000    279.09773    5576.8663     3048.625    32.431776   0.01802898 -0.018898759 -0.0056157273 
  117000    295.16306    8676.3204     3048.625    27.950472   0.02004325 -0.0020001483 -0.010661203 
  118000    288.43265    11901.836     3048.625    28.990945 -0.0086017698 -0.016448516 -0.044927795 
  119000    290.11338    10561.252     3048.625    30.680473 -0.0020143342 0.0064564605 -0.023964787 
  120000    290.84167    5713.2376     3048.625    28.699376  0.025497014  0.017596491 -0.0089785569 
  121000    289.86148    11224.146     3048.625    26.013154  0.019925309 -0.044046615  0.028207172 
  122000    292.39766    8786.0879     3048.625    27.701454 -0.0034724224  0.040139035  0.012415741 
  123000    282.73493    8979.6464     3048.625    29.250138 -0.014206528 -0.015157366  0.022148973 
  124000    309.69586    15063.106     3048.625    26.189766  0.010056258  0.006960864 -0.0081524052 
  125000    326.21492    5311.7868     3048.625    25.905634 -0.0055375127  0.026919246 -0.022426544 
  126000    268.00707    10139.806     3048.625    29.853614 -0.0058937966 0.0094758739 -0.029356949 
  127000    283.05686    11596.628     3048.625    31.017473 0.0074194089 -0.031682038 0.0063050554 
  128000    295.81308     3693.276     3048.625    30.647809 -0.030240683  0.010060309  0.028872413 
  129000    292.42922    8553.6696     3048.625    28.495728 0.0084509008  0.011205364 0.0016960785 
  130000    271.29398    9003.5352     3048.625    29.775944 -0.013087054  0.015320274  0.012250715 
  131000    275.49572    15043.591     3048.625    30.101653 -0.032662315  0.042686464 -0.0047810308 
  132000    260.46574    11364.194     3048.625    31.566906  0.020749734 0.0025792432 -0.015480705 
  133000    290.70591    11665.025     3048.625    32.563552 -0.005571563  0.021214173  0.034186804 
  134000    275.13042    10300.235     3048.625    33.274791 -0.025965861  0.031473165  0.043325433 
  135000    295.99022    2074.6514     3048.625    33.429887  0.012189106 -0.0051320596  0.011822707 
  136000    265.48826    8702.1107     3048.625    32.055512 0.0039299379  0.014408604 -0.0075338471 
  137000    286.15165    8779.9891     3048.625    29.293861   0.05181489 -0.0013947387 -0.0018783764 
  138000    257.57866    17442.651     3048.625    25.179836 -0.0049270709 -0.015114066 -0.032941766 
  139000    293.37052    4731.6947     3048.625    21.617345  0.019135984 -0.016906565  0.015905656 
  140000    256.78168    13548.848     3048.625    20.883631 -0.0031258993 -0.011280815   0.03140347 
  141000     295.9269    6403.8526     3048.625    23.386022 -0.046525933 -0.025521556  0.023967233 
  142000    260.69144    9707.7212     3048.625    27.256048 -0.0082376098 -0.034981282 -0.043308309 
  143000      274.104    12209.571     3048.625    33.721403 0.0061943302 -0.0090337143  0.010834867 
  144000    283.32954    5375.5984     3048.625    35.522332 -0.010139436 -0.011317197  0.047638678 
  145000    277.75577    7817.8448     3048.625    29.533472  0.044670135 -0.028631067 -0.019635749 
  146000     302.0528    4135.3697     3048.625     23.74171  0.019284186  -0.04140502 -0.0013525342 
  147000    302.35122    6824.6171     3048.625    23.800378  0.012017149  0.011016358  0.016880204 
  148000    295.23627    4122.3696     3048.625    26.907044 -0.021718226 -0.028426279 -0.018868429 
  149000    293.88303    11584.982     3048.625    25.738155  0.014878752  -0.03818131 0.0036518099 
  150000    298.76709    6936.4054     3048.625    27.186101 -0.0013612608 0.00033093263  0.027063288 
  151000    297.44613    5827.8026     3048.625     29.05724  0.025284714  0.064209336 0.0023292536 
  152000    319.46765    4929.1092     3048.625    28.785225 0.0031576748  0.018850533 -0.045670161 
  153000    293.38014    7694.9114     3048.625    26.278002  0.022109448 -0.022007401 -0.0094722485 
  154000    284.04487    7656.4494     3048.625    24.745793  0.032378027 -0.048520454 -0.0014089394 
  155000    269.72902    10356.885     3048.625    23.825271 -0.037838185 -0.015651141 -0.00063000703 
  156000    288.69889    13938.294     3048.625     22.07941 -0.0020505405 -0.058787243 -0.034474054 
  157000     302.8534    8853.1966     3048.625    25.497057  0.016293278  0.027629819 -0.0089989086 
  158000    292.22538     1318.452     3048.625    33.148535 0.0089185747  0.017058114 -0.012422459 
  159000    276.81343    12862.969     3048.625    35.044684 -0.014387012 -0.023877858 -0.056650783 
  160000    279.35207    6532.6426     3048.625    29.451122 -0.0022186885 -0.0048545531 -0.011876477 
  161000    300.37492    8812.1399     3048.625    24.544017 -0.0060564279 -0.014303597 0.0052799246 
  162000    313.04415    320.27039     3048.625    23.855249  0.034880427  0.025218916 -0.0015042072 
  163000    299.65166     6569.175     3048.625    26.059608  0.014748288  0.037410729  0.020246424 
  164000    300.64389    6045.5904     3048.625    27.905774 0.0085142252 -0.012102823 -0.027933247 
  165000    300.64663    6931.1848     3048.625    27.486137 -0.0040854615 -0.024731836 -0.019026093 
  166000     304.7885    2926.6345     3048.625    25.429148  0.019991187 -0.0027902368 -0.024136331 
  167000    300.08032    10810.656     3048.625    24.911121  0.023060914  0.016635527 -0.020426821 
  168000    298.86772     308.8637     3048.625    30.260537 -0.039167953  0.010465547  -0.02842523 
  169000    291.94948    10045.445     3048.625    33.230142 -0.0060774598  0.035001121 -0.026523875 
  170000    290.02222    9171.4403     3048.625    29.153977 -0.037180781  0.019920111 -0.0027416423 
  171000    289.44882    2992.9957     3048.625    26.591352 -0.043899643 -0.014719281  0.020138372 
  172000    267.97062    12882.873     3048.625    32.451201 -0.0020862697  -0.01202534  0.032968566 
  173000    274.80383    6580.7255     3048.625    31.082133  0.018944264  0.013334169 -0.023397851 
  174000    301.69773    6381.9969     3048.625     23.71985 -0.026479177 -0.0080336051  0.018457316 
  175000    301.83444    4660.2845     3048.625    30.013932 -0.028131539 -0.027611055 0.0054865096 
  176000     297.4493    12534.035     3048.625    33.651619 -0.0078672726 0.0071189962  0.025579121 
  177000    279.39583    1211.8377     3048.625    26.159649 -0.017901197  -0.01784155  0.023348511 
  178000    292.90869    7551.5352     3048.625    28.171588 -0.011841776 -0.0065675241 -0.0068486509 
  179000    293.36291    14089.991     3048.625    32.862712 0.0096456611 0.0085689719 -0.0082169312 
  180000    298.51362    4368.1813     3048.625    24.328139 -0.015267316 -0.00082012965 -0.018189593 
  181000     309.4033    4233.6752     3048.625    23.764977  0.018209177  0.019276662  -0.01838073 
  182000    282.67044    12186.976     3048.625    29.339925 -0.0028188615   0.03134016 -0.031274211 
  183000    272.64332     3347.499     3048.625     23.18421 0.0069971866 0.0073545571 -0.022525311 
  184000     267.9226    16715.112     3048.625    21.490622  0.020269777  0.014026181 -0.016791721 
  185000    288.35874   -45.213246     3048.625    28.690052 -0.017000556  0.006983883 -0.053574735 
  186000    313.26345    5895.4776     3048.625    35.812713  0.031831004 -0.012290654  0.024550642 
  187000    305.55174    2970.1487     3048.625    33.707909  0.030025593  0.003903333  0.013751057 
  188000    305.34821     3995.174     3048.625    30.375582 -0.038581071  0.056172241  0.020408748 
  189000    274.03885     3710.841     3048.625    29.777943 0.0079599574  0.017836463 -0.0054787522 
  190000    268.64806    10848.336     3048.625    30.008809 -0.002757553  0.051936085 0.00075186992 
  191000    275.29294    15473.665     3048.625    30.984221 -0.016968828  0.013428945 -0.012660715 
  192000    287.73014    9976.1713     3048.625    31.862817  0.027277162 -0.031404901  0.024522786 
  193000    267.34949    1800.2651     3048.625    30.422095 0.0029548983 -0.013767724 -0.0052005263 
  194000    263.34452    12578.462     3048.625     29.58177 -0.0040686021 -0.012934771  0.018533114 
  195000    262.76365     16407.75     3048.625    31.354326 -0.0090760912  0.022305828 -0.020052623 
  196000    286.74099    5970.0885     3048.625    31.580037 -0.021427734  0.032208973 -0.021041516 
  197000    293.73395    8286.7957     3048.625    31.207623 0.00035284521 -0.020510697 0.0068935491 
  198000    267.26415    7312.5278     3048.625     33.18807  0.014498293  0.014108771  0.014143155 
  199000    269.91727    9302.5019     3048.625    36.011384  0.010079103 -0.026257308  0.015780196 
  200000    293.20476    5389.2365     3048.625    34.452884 -0.036769305   0.03934647 -0.0067587984 
  201000    282.88193    14916.427     3048.625    28.577655  0.024245628  0.012282333  0.027643143 
  202000    280.48522    9301.1327     3048.625    22.693125 -0.0020195016  0.039059802  0.013618653 
  203000    275.57236     9609.836     3048.625    18.212526  0.022823218  0.025781363 0.0002008381 
  204000    288.41555    5142.2828     3048.625    17.126116  0.016465204  0.003384056  0.024474982 
  205000    304.38367     8351.222     3048.625    25.026292  0.027816845  0.026602386  0.023480123 
  206000    288.85238     218.8601     3048.625    30.086347 -0.0036470938 0.0014803333 -0.012701482 
  207000    281.65466      13711.6     3048.625    27.869815 -0.0087459426 -0.0063753007 0.0035727037 
  208000    267.95313      11515.3     3048.625    26.937925  0.016320925  0.057708172 -0.0093623637 
  209000     290.7953    6369.1664     3048.625     29.68264 -0.013126679 0.0066418109 -0.018832983 
  210000    303.73677    8225.4176     3048.625    32.856877 0.0091767316 -0.044506747 -0.029103961 
  211000    292.33747    9293.7066     3048.625    30.666692  0.021029355  0.023201107 0.0044326029 
  212000    267.53502    7310.5423     3048.625    27.988233 0.0057032753 0.0088681261 -0.013049805 
  213000     280.1895    10628.681     3048.625    23.184512  0.017296186  0.035542158  0.036515828 
  214000    296.17206    6818.8752     3048.625    24.057941 -0.041780233 0.0041747849  0.010554198 
  215000    282.31286    9027.5304     3048.625     30.71915 -0.00014738243  -0.02306781  0.041679031 
  216000    301.92505    4106.5549     3048.625    30.488264 0.0021061456 -0.027704632 -0.027928344 
  217000    293.79789    11266.369     3048.625    23.876429 -0.0052388837  0.013216558 -0.027585873 
  218000    287.78555    6304.8157     3048.625    21.812418 -0.013507996  0.021614287 -0.019068429 
  219000    286.07777   -3773.8405     3048.625    21.133187 -0.010380461 0.0084803903 0.0080938344 
  220000    297.18701    7077.4019     3048.625    21.048848 -0.026066974 -0.020709238 0.00025145932 
  221000    290.20027    11138.666     3048.625    29.686429  0.011079508 -0.019912923 0.0093585719 
  222000    287.69838     6303.426     3048.625     32.51611 -0.015319435  0.037482247 -0.0026631722 
  223000    289.80888     9834.515     3048.625    31.309068  0.034848877  0.015475401 -0.021663332 
  224000     303.7056    888.43119     3048.625    32.003636 -0.035860756  0.016280187  0.043701337 
  225000    294.25942     5763.343     3048.625    27.202974 -0.015061514  0.021115806 0.0026202219 
  226000    309.60629    7747.4167     3048.625    23.403207 0.0054881688  0.035337345 -0.0028759503 
  227000    307.57023      6255.86     3048.625    27.365459 -0.035544304 -0.028615835 -0.011014445 
  228000    264.11837     11325.14     3048.625    31.109889 -0.0045118414 -0.0054373691 -0.015100161 
  229000    282.17888    4835.2737     3048.625    31.668076 0.0062428669 -0.044171653 0.0052842792 
  230000    294.57915     5931.107     3048.625    31.804668 -0.043511106 -0.0034371708 -0.014951493 
  231000    274.43922    6247.0947     3048.625    31.518124  0.011456965 -0.0051186835  -0.03242293 
  232000    261.66167    10252.593     3048.625    30.067768 0.0044195299 -0.010682361  -0.03869609 
  233000    283.22015    14721.056     3048.625    29.941264 -0.021203301 -0.0098739856 -0.0035350145 
  234000    287.25361    11969.342     3048.625    32.868046  0.025802204 -0.0023197235 -0.0085647028 
  235000     260.0545     6814.973     3048.625    34.785818  0.033668345 -0.020318989  0.051914749 
  236000    253.02969    5757.4117     3048.625    34.833664 -0.031751679  0.030479547 -0.022837587 
  237000    296.25485    7376.5087     3048.625    34.761555  0.026518297  0.029734963 0.0087097041 
  238000    272.68701    10197.186     3048.625    33.236888 -0.013140404  0.058905509 -0.021425672 
  239000    267.17472    8492.9772     3048.625    31.432205 -0.0007985185 0.0041912207 -0.0062968453 
  240000    286.45826    13171.598     3048.625    27.040593  0.027132431 -0.015693288 -0.016389622 
  241000    307.11881    1394.0176     3048.625    24.300976 0.0053345962   -0.0140602 0.0096199806 
  242000    280.99185    12537.882     3048.625     23.37194 -0.025394917  0.022376551 -0.042212781 
  243000    274.68125    5767.3439     3048.625    25.319612 0.0053108063  0.037722739 -0.030050968 
  244000    273.06199    10948.612     3048.625    28.155616  0.030773598  0.026858192  0.020529025 
  245000    297.72576    2771.4295     3048.625    33.342529 -0.014155887   0.00771917  0.024969127 
  246000    294.35047    4788.0843     3048.625    34.864086 -0.0072216644  0.026888128  0.023244372 
  247000    265.04142    6529.5271     3048.625    30.987783 -0.001449466 -0.018657127 -0.0030328778 
  248000    273.11552     19131.07     3048.625    26.206647 -0.020683359 -0.021450343  0.031407452 
  249000    273.56715    10291.342     3048.625    23.704426 -9.7950822e-05 -0.021608027 -0.011106002 
  250000    257.68718    8042.3135     3048.625     24.91608 -0.017402653 -0.011726447 -0.00033698048 
  251000    264.63394    11729.839     3048.625    26.114321 0.0050920624  0.020148637  0.023879216 
  252000    244.69685    12583.596     3048.625    26.839241 -0.025057879 0.0050919512  0.012494694 
  253000      249.423    15245.434     3048.625     25.11505 -0.001038362 -0.0057008959  0.014251953 
  254000    262.67738    8699.5908     3048.625    24.506658 -9.6471366e-06  0.022046859  0.019175232 
  255000    285.72886    7816.2857     3048.625    28.154068 0.0098174371  0.018177263 0.00054046849 
  256000    280.85105    10322.461     3048.625    32.052286 -0.0049760304 0.0098632486 0.0040692207 
  257000    258.10543    5708.2433     3048.625    30.204625  0.024868164 -0.044894968 0.0081880411 
  258000    261.33623    12858.859     3048.625    23.816214  0.029775906 -0.024490877  0.035071937 
  259000    283.74125    9168.3413     3048.625    19.590305 -0.014732472 -0.013952687  0.021130962 
  260000    286.43868    5817.3055     3048.625    22.384289 -0.011971367 -0.052137708  0.030406503 
  261000    303.44623    7983.3167     3048.625      28.2681  0.012213274  0.026237924 -0.007501923 
  262000    277.60566    10733.368     3048.625     30.19876  0.024406131  0.001806661  0.018855306 
  263000     276.2493    8198.3563     3048.625    32.173947  0.015408174  0.016581123   -0.0112777 
  264000    291.23508    12959.069     3048.625    32.736122 -0.039120998 -0.022264728 -0.0036696796 
  265000    284.49952    12829.856     3048.625    32.052459 -0.037754168    0.0097914 0.0082429734 
  266000    268.22096    8042.7619     3048.625     28.72949  0.018279476 -0.017228265  0.011762312 
  267000    283.27019    6637.5572     3048.625    26.611391  0.046300865  0.011947935 -0.020702804 
  268000     265.9066    13217.687     3048.625    26.860888 0.0091649446 -0.012023767  0.006446711 
  269000     271.9455    14760.216     3048.625    29.157929 0.0029972514 -0.018866664 -0.020581276 
  270000    288.48415    1152.5067     3048.625    33.091767  0.011565455 -0.016790924 2.4811896e-05 
  271000    279.69807    11875.789     3048.625    32.776737 -0.018988601 -0.00095961679 -0.035125203 
  272000    287.33804    12257.661     3048.625     32.54373  0.018230028  0.018887982 -0.025002826 
  273000     267.3753    271.82264     3048.625    32.080037 -0.0090214073 -0.019017383 -0.0092909875 
  274000    304.75533    8833.7812     3048.625    32.774836  0.021549115 -0.0026204128  0.011670527 
  275000    297.74588    6446.5488     3048.625    33.138437 -0.014884065 -0.022704078   0.01968024 
  276000    262.61372    11716.464     3048.625    32.988908 0.0026548352 0.0062382333 -0.012539996 
  277000    257.12549    11781.785     3048.625    31.731767 -0.028830353  -0.01370562 0.0077692675 
  278000    263.48855    6130.3291     3048.625    31.829463  0.015839354 0.0061202544 0.0074574167 
  279000    270.49563    16266.254     3048.625    32.357679 -0.0034272833 -0.045711719 0.0073838587 
  280000      270.453    10760.757     3048.625    32.700152 -0.006710623 -0.023277147  0.011736866 
  281000    278.48081    845.20464     3048.625    32.492566 -0.018887152 -0.013429788 0.0061704033 
  282000    260.96561    21002.747     3048.625    32.828618 -0.027495267 -0.031084804 -0.022189033 
  283000    273.43509    7472.8012     3048.625    32.706753  -0.02328215  0.012062831  0.035091714 
  284000    284.75862    1204.8398     3048.625    31.082055 -0.0015614011  0.019644189 -0.0047313928 
  285000    287.72407    20684.451     3048.625    29.040242 -0.0084088002 -0.019794926 0.0082568317 
  286000    280.72479     4270.004     3048.625    27.718129 -0.019318792 -0.0078781152   0.02150006 
  287000    259.51547    8683.8679     3048.625    27.165502 -0.027681061 -0.0078212174  0.010919122 
  288000    294.06087    10955.929     3048.625    25.928989 -0.022786859  0.043309764 -0.0016190634 
  289000    285.32898    8293.7407     3048.625    24.073477 -0.021080296 -0.001511123 -0.016324729 
  290000     256.8262     1928.487     3048.625    26.999276 -0.015117397 -0.0064168123 0.0030321815 
  291000    260.59695    16452.562     3048.625    32.259886 -0.014177892 -0.037950977  0.016770865 
  292000    240.19606    13894.189     3048.625    35.970355 -0.034282955 -0.0045411307 -0.016926391 
  293000    247.01775    5091.7938     3048.625     33.37691 -0.019451134  0.043451992 -0.014838109 
  294000    286.39509    16125.351     3048.625    27.747706 -0.011612994 -0.029686801  0.011416523 
  295000    272.57076    5426.7912     3048.625     23.56371 -0.025114322 -0.038009406 -0.0047053823 
  296000    283.60891    5511.1995     3048.625    25.355765 -0.030996036 -0.005870687 -0.0030068767 
  297000    265.82216    9777.8815     3048.625    28.048121 -0.013237894 -0.014453573 0.00047367472 
  298000    268.85825    8006.8401     3048.625    28.407881  0.013279496   0.02832309  0.001590401 
  299000    286.86039    6325.8554     3048.625    27.467848 -0.031925421  0.016612783 -0.010779024 
  300000     289.7541    6157.3773     3048.625    31.027947 -0.0067327856  0.015928429 -0.010744306 
  301000    275.08503   -3899.0004     3048.625    34.327737 -0.0016157697  0.046187814  0.038104602 
  302000    284.52543    3469.4943     3048.625     30.84861 -0.012011001 -0.013694762 -0.011256617 
  303000    262.18271    11414.436     3048.625    24.805257 -0.0046515349 -0.0013846512  -0.03618722 
  304000    289.06685    2863.5843     3048.625     25.62556  0.003693545 -0.0050825006 -0.0065153531 
  305000    287.01744    10370.028     3048.625    27.316845 -0.0050479099 -0.056462763 -0.014749392 
  306000    277.99888     3008.852     3048.625    23.998137  -0.01152279 -0.029572845 -0.0094402084 
  307000    278.40199    6284.4264     3048.625    20.966677 -0.013996249 0.0054350655 -0.0054913689 
  308000    276.85544    8477.6766     3048.625    23.934606 -0.033769653 0.0098622727 -0.0078133996 
  309000    278.11225    5362.6407     3048.625    28.990503 -0.0023525128 -0.0014850161 0.0062125376 
  310000    284.99973    9723.1377     3048.625    30.326628 -0.010353594  0.018891574 -0.022242897 
  311000    265.52858    11158.843     3048.625     31.25559   0.01934089  0.025940678 0.0058880379 
  312000    276.67862    5548.1568     3048.625    32.660785  0.001487041  0.015912578 -0.0025272168 
  313000    283.80145    6369.6622     3048.625    34.187453 -0.034595903 -0.030825267 -0.00035540314 
  314000    274.58854    10536.984     3048.625     35.06451 -0.032018569  0.026760813  0.019112883 
  315000    273.88089    7795.1805     3048.625    35.332183  0.011509292 -0.0079455056 -0.020463934 
  316000    298.36431    8629.3315     3048.625    34.489863  0.024638711  0.024372973  0.018497607 
  317000    286.58664    8098.8601     3048.625    35.063396  0.013970174  0.029541276   0.01160858 
  318000    280.92629    5517.6054     3048.625    33.990138  0.024800305  0.031100682  0.044807804 
  319000    291.88277    6449.7766     3048.625    31.642931 -0.014091463  0.040025614 -0.0070416298 
  320000    293.67325   -1155.9515     3048.625    28.894763  0.014384278 -0.048404626   0.03083314 
  321000    287.05279    9444.0016     3048.625     29.89296 -0.0062766434 -0.015881731 -0.036366882 
  322000    275.79333    1779.5022     3048.625     32.98239 0.0088720321  -0.02942126 -0.014166453 
  323000    282.77012    11858.765     3048.625     33.59414 -0.010335299 -0.00086123097 0.0041538613 
  324000    264.73335    5863.4263     3048.625    30.132546 -0.026772901 0.0029107925 -0.034442686 
  325000    291.27472    4000.8579     3048.625    27.400965  0.006448678 -0.017719051  0.049556721 
  326000    287.33034    6514.8283     3048.625    27.596223 -0.0074536396 -0.022949778 0.0077897822 
  327000    280.60989    13839.821     3048.625    28.332203 -0.0030113453 -0.031981051  0.018715329 
  328000    289.94377    5450.3721     3048.625    30.875654 -0.0077431188  0.036800489  0.038786113 
  329000    280.99353    9166.9112     3048.625    32.597071 -0.0022397141 -0.0032083921 -0.0065041188 
  330000    287.42747    4213.5184     3048.625    30.823692 -0.00014004182 -0.032188404  0.018137878 
  331000    294.52063   -778.50226     3048.625    27.116472  0.019414029 -0.057452111 5.8073003e-05 
  332000    311.87399    2935.0162     3048.625    25.328503 -0.031072429 -0.025904702  0.015281038 
  333000    286.41475    9303.4033     3048.625    29.526933  0.050432253 -0.023146728 -0.037703105 
  334000    278.71369    3625.9514     3048.625    33.365667 -0.0086783086 0.0063881347 -0.022387831 
  335000    299.33426    2766.2844     3048.625    28.336636 0.0033934818  0.019935713  -0.01018214 
  336000    286.51654    3919.3671     3048.625    23.238999  -0.02421576 -0.018907328 -0.010997723 
  337000    289.96525    10350.338     3048.625    26.125171  0.021522496 0.0059134691 -0.026023598 
  338000    277.98917    9323.8281     3048.625    32.298414   0.01047014  0.035051863  0.023095247 
  339000    288.66068   -390.44025     3048.625    32.077869 -0.017201346  0.027817662  0.032244911 
  340000    282.05239    1719.9744     3048.625    25.509739 -0.038299006  0.037600837  0.019784447 
  341000    285.93148    9557.5119     3048.625    20.868082 -0.019194987 -0.00084313838 0.0091231826 
  342000    296.16415    4115.4566     3048.625    24.091534 -0.022848055 -0.017479134  0.016570478 
  343000    268.28279    6211.6962     3048.625    29.026724  0.014499732 0.0015483194 -0.0074658302 
  344000    272.17717    16276.795     3048.625    32.217559  0.022256349  0.027738023 0.0023361268 
  345000    267.81742    11681.629     3048.625    30.490724  0.011829393  0.020476822 -0.022618267 
  346000    281.69074    2749.9491     3048.625    25.904689  0.027015687  0.013767421 0.0068139594 
  347000    288.94377    2749.9781     3048.625    25.745565  0.025872975 -0.013741496   0.01900723 
  348000    285.57839    7610.2206     3048.625    29.154167 -0.027314557 -0.019874946  0.021653638 
  349000    272.96109    10170.275     3048.625    33.033092  0.017856544 -0.023364551 -0.0086761295 
  350000    293.09981     6729.505     3048.625    33.245726  0.025771406  0.013882397  0.039132961 
  351000    282.01527     5513.104     3048.625     30.80225  0.018175149 -0.0066593306 -0.016130838 
  352000     269.8352    15717.717     3048.625    26.164689 -0.0044028071 0.00031542581  0.031771271 
  353000    255.59439    6514.5359     3048.625    21.672705 0.0019322649 0.0091608866   0.01203828 
  354000    270.29027    9551.9124     3048.625    22.688366 0.0071954197 0.0013754573 -0.022768296 
  355000    305.48906     1477.845     3048.625    27.232235 -0.014112614 -0.0057239788  -0.05436583 
  356000     293.4353    1695.9274     3048.625    30.770786  0.011358766 0.0030980733 -0.0031725895 
  357000    280.39339    6542.5446     3048.625    33.424584  0.023957059 0.0088392152 0.0022540175 
  358000    278.79221     7553.142     3048.625    34.399464 -0.024609798   0.01169486 -0.019732729 
  359000    276.90399     9774.947     3048.625    33.449953 -0.0010473233 -0.018216464   0.03478945 
  360000    269.95046    16320.871     3048.625    31.267355 -0.0023950457  -0.02115765  -0.02590905 
  361000    284.48977    7478.2698     3048.625    27.951591 0.0016061315  0.012115641 -0.041352423 
  362000    266.94044    7255.3242     3048.625    25.815965  0.055660178  -0.01069227 -0.015544495 
  363000    295.85453    9912.2763     3048.625    23.730614  0.039117039 -0.0047266922 -0.0024721669 
  364000    295.13164    5738.2936     3048.625     24.74563 -0.0001125185 -0.030425227  0.022351915 
  365000    295.10687    4329.8309     3048.625    30.724103 0.0073816271 0.0079212823  -0.01966763 
  366000    276.92363    5608.5765     3048.625    34.528323 3.5872907e-05 -0.025266414 -0.0069599328 
  367000    267.01753    9865.3351     3048.625     33.89209 0.0037324486 -0.008973486 -0.048136337 
  368000     255.6578     6548.141     3048.625    33.119315 -0.041539925 -0.0068262667 -0.0097217779 
  369000    266.09475    13675.373     3048.625    33.316953  0.017104853  0.027065831 -0.019938467 
  370000    256.61249    13078.496     3048.625    32.610128 -0.0045622407   0.01693399 -0.016797874 
  371000    284.82437    1379.1901     3048.625    27.817998  0.013193802  0.028358651 0.0040437623 
  372000    293.33047    9500.8194     3048.625    24.567009  0.013586803 0.0093559588 -0.019190402 
  373000    270.48295    5125.6358     3048.625    24.484129 -0.029685603 0.0087248158  0.039902788 
  374000    264.24297    8617.7068     3048.625    26.977515  0.015279435 0.0035864147 -0.0079079493 
  375000    260.17957    14839.358     3048.625    28.217596 -0.039095322   0.00063751  0.013604363 
  376000    268.57718    7956.9608     3048.625    27.224779  0.034462536 -0.036916847 -0.012621638 
  377000    277.18932    5852.0234     3048.625    25.069393 -0.016663583 -0.020834385 -0.0076506936 
  378000    255.13862    11824.577     3048.625    23.749078  0.026218855 -0.024232142  0.036189698 
  379000    267.45165    11881.687     3048.625    25.613433  0.032742995  0.014258939 0.00034188297 
  380000    290.05151    7988.0691     3048.625    29.098163 -0.042379462 0.0088081406 0.0036313144 
  381000    280.89991    2217.0686     3048.625    28.209473  0.010130722 0.0043852736 -0.044421694 
  382000    261.80461    13775.949     3048.625    22.392361 -0.00027138294 0.0019326604 -0.0031732892 
  383000    279.54162    3752.5611     3048.625    20.641186 -0.0048118917   0.03621093   0.01907774 
  384000    273.52932    3709.9342     3048.625    24.516387 -0.019267863 0.0097110452  -0.01180105 
  385000    281.21072    7045.5717     3048.625     29.65275 0.00019428997  0.049686907 -0.012986211 
  386000    288.24999    2012.1924     3048.625    30.744476 -0.023417579 0.0050078041 -0.014356485 
  387000     265.5413    8809.4031     3048.625    26.999503 0.0020023006   0.01298366 -0.041582311 
  388000    268.75615    4404.3136     3048.625    22.584753 -0.021082668  0.042345194 -0.0045490131 
  389000    270.76499    6619.1088     3048.625    20.514113 -0.0012980854  0.028143383 0.0090583792 
  390000    273.39199    9451.4131     3048.625    22.660567 -7.639736e-06  0.018005708  0.015866232 
  391000    271.03546    7399.7166     3048.625    27.991402 0.0047661867  0.009867314 -0.0079322633 
  392000     283.1737    2954.8412     3048.625    32.132316 -0.013398537 0.0040714404  0.018660693 
  393000    274.44413    9923.8947     3048.625    29.646654 -0.010200989 -0.0034571706 0.0066920798 
  394000    290.50304    9566.4887     3048.625    23.386404 -0.0059872905  0.036131063  0.021284278 
  395000    280.60677    -2055.295     3048.625     20.75738    0.0151596 0.00051783694  0.010853862 
  396000    280.25967    10191.712     3048.625    24.012269 0.0087202178 -0.013991458 -0.0010876149 
  397000    293.95237    6870.3092     3048.625    31.194172 0.0035969287 -0.014487289 -0.002735282 
  398000    284.50084    7471.3773     3048.625    34.300809 0.0075583404  0.022175956 -0.022754223 
  399000    271.29082    9562.1219     3048.625    30.357587 -0.0098745833 -0.004497341 -0.0064608663 
  400000    281.20338    2938.6904     3048.625    23.001178 0.0057830225 0.0093084281  0.018510801 
  401000    275.59416    779.13026     3048.625    18.074523  0.028523628 -0.025934989  0.026770966 
  402000    279.42134    16640.113     3048.625    20.871447  0.017863592 0.0070506279 -0.039824689 
  403000    262.55169    6266.0075     3048.625    27.884885 0.0071773823  0.019412161 0.0031694438 
  404000    249.77514    13963.759     3048.625    30.447125 -0.047189351 -0.0063785613  0.016123949 
  405000    270.66576    11865.883     3048.625    27.205704 -0.041339417 -0.0077581997 0.0085916801 
  406000    279.30138    4538.8684     3048.625    23.493324 -0.004765933  0.017999514  0.031221776 
  407000    278.92313    10579.531     3048.625    25.416833  0.037575233  0.042856545 -0.0027613181 
  408000    272.66625    6509.1673     3048.625    26.981546  0.034691584 0.0022020916 -0.017215875 
  409000     281.9679    11023.898     3048.625    29.676903  0.016707101 -0.023876895  0.019458887 
  410000    289.51379    5117.3696     3048.625    32.722559 -0.013852782 -0.0067575787 -0.0073934862 
  411000    263.03928    5985.8031     3048.625    32.883894  0.020713921  0.015353276 -0.015653975 
  412000    282.75848    4941.9813     3048.625    30.525236  0.019010995 -0.012401124 -0.0046628353 
  413000    271.23554    11859.147     3048.625    26.790141  0.021432564 -0.050966771 -0.0050689272 
  414000    290.62002    5086.6766     3048.625    25.310464  0.032260246 -0.010896944 -0.010989387 
  415000    286.11404    8773.6557     3048.625    26.373685  0.011460575 -0.014088842 -0.015531773 
  416000    291.61537    9771.1476     3048.625    29.734707   0.01697302  0.016476482  0.012491402 
  417000    279.56412    12844.208     3048.625    33.327927  0.011542865 0.00020123286   0.01495199 
  418000    276.05601    5831.9773     3048.625     33.70911 -0.008592073  0.007465935  0.015968184 
  419000     263.4425    10011.081     3048.625    28.706298 0.0010025093  -0.04041165  0.031652215 
  420000    289.22861    7714.3946     3048.625    20.527604 -0.0037016633 -0.010860848 0.00086975649 
  421000    286.48898    9678.9493     3048.625    15.241767 -0.0025283963  0.015131387 -0.010021512 
  422000    251.45549    6173.3802     3048.625    16.095598 0.0019682075 -0.024379042 0.0012364572 
  423000    276.15807    9598.7131     3048.625    22.594084 -0.037016718 -0.022127195  0.012509469 
  424000    263.11323    11925.158     3048.625    30.317252  0.020700729  0.038005918  0.012835098 
  425000    272.83836    8391.0028     3048.625    33.359041 0.0034270054  0.008491801  0.017193769 
  426000     264.9781    6982.9193     3048.625     31.05274 -0.014160319  0.033478646  0.040286431 
  427000    278.08675     6085.149     3048.625     26.20972  0.033510293  0.015555155  0.012277612 
  428000      274.226    7170.9891     3048.625    21.375341 -0.00075332119 0.0049675357  0.038255442 
  429000    282.94646    10177.106     3048.625    19.732779 -0.0083513181 -0.0060913088 -0.0032166835 
  430000    268.74469    5715.3698     3048.625    22.396992  0.015648901 0.0028937763 0.0045419087 
  431000    278.82778    5628.1196     3048.625    25.089893  0.010642066 0.00079705282 0.0054431816 
  432000    264.23204    10976.068     3048.625    27.761834  0.051239948  0.035900955 -0.0047098704 
  433000    287.21619    5736.3986     3048.625     30.39367  0.022609434 -0.013669278 0.0041841047 
  434000    293.21065    9788.7202     3048.625    29.446986 -0.010640887 -0.024902947   0.01639647 
  435000    284.78108    5970.7902     3048.625    27.974612 0.0024168293 -0.020545441 -0.0080533932 
  436000    256.00928    16287.185     3048.625     27.88547 0.0036308198  0.032661441 -0.0045841823 
  437000    268.94008     8305.633     3048.625    28.881605 0.0075281679 0.0018714641 -0.013128312 
  438000    267.92531    9237.5009     3048.625    26.959441 0.00074982049 0.0026908145 0.0094135464 
  439000    284.19967    10754.011     3048.625    24.461436 -0.026844435  0.018201534 -0.021070823 
  440000     290.9852    890.91949     3048.625    24.949265 -0.019274552  -0.04143901 -0.0072751603 
  441000    278.65629    6835.8889     3048.625    24.736861 0.0088192044 0.0079033648  0.013365424 
  442000    293.68235    4544.1675     3048.625    22.956292   0.04536743 -0.049972642 0.00014917736 
  443000    257.21451    10927.351     3048.625    22.345056 -0.022405568 -0.021524165 -0.004143787 
  444000    261.14984    9985.2052     3048.625    25.514797 -0.0063074116  0.024138697 -0.0063728757 
  445000    263.40016    12848.603     3048.625     26.35831 0.0036977696  0.035525567  0.011244192 
  446000    286.68052    10191.542     3048.625    26.407128 0.0048770064 -0.011451331  0.002390469 
  447000    261.91419    2365.3266     3048.625    26.242893 0.0046125705 0.0022929982  0.011130498 
  448000    283.67139    3894.0546     3048.625    26.152376 -0.011580397 -0.010173849   0.04420085 
  449000    280.06382     9816.762     3048.625    25.716063 -0.028060117 -0.028765646 -0.016469049 
  450000    264.86128    5198.2267     3048.625    24.629684 0.0027563566 -0.010953195  0.037435785 
  451000    287.46025    8572.2174     3048.625    22.648499  0.011917129  0.016756074  0.015999672 
  452000    279.45775    8605.9458     3048.625    26.515826  0.004967305 -0.018647611 -0.0054066199 
  453000    266.05435    1427.0944     3048.625    32.662454 -0.037302302 -0.0047414722  0.010806009 
  454000    271.74425    4037.8999     3048.625    35.042728 -0.027937408 0.0033638299 -0.0047736074 
  455000    265.73642    13987.766     3048.625    32.819742 -0.0030869691  -0.01441347 0.0054320627 
  456000    261.03167    11481.625     3048.625    27.933899 -0.035977987   -0.0307723 0.0034264716 
  457000    284.97501    9944.3901     3048.625    23.017887 -0.036191524 -0.015891409 -0.014802634 
  458000    267.67827    7415.9959     3048.625    20.741296 -0.027238494 -0.0047337166 -0.021147878 
  459000    299.26599    1082.3907     3048.625    20.877231  0.019031738   0.01800208 0.0076072742 
  460000    267.60452    6637.7598     3048.625    23.578087 -0.0033155047 -0.0031650021 0.0054729983 
  461000    264.01177    6794.9242     3048.625    25.367312  0.010032949  0.026224717 0.0093449076 
  462000    277.65496    2370.1942     3048.625    26.529171  0.024135847  0.014340661 0.0051303306 
  463000    281.21317    8971.3775     3048.625    25.580539 -0.040722348 -0.049146786 -0.012419499 
  464000    287.98488     4176.982     3048.625     26.14613  0.006441918 -0.018774601 -0.0055300264 
  465000    290.18502    1462.0551     3048.625    29.201045 0.00074231725 -0.051532472 -0.014400501 
  466000    286.08297    7688.4017     3048.625    33.071793 0.0024993048  -0.06326585 0.0077260997 
  467000    265.57582    13157.538     3048.625    34.997696 -0.012260972  0.032923175 -0.027679388 
  468000     284.0783    8850.9421     3048.625    35.317317 -0.012491655 0.0010538447 -0.029151367 
  469000    275.64896    445.42027     3048.625    33.974707  0.023463987    0.0019146  0.022820725 
  470000    290.34948    16087.623     3048.625    30.105093 -0.016072988 -0.020151802  0.014426817 
  471000    268.23435    6607.7932     3048.625    25.073211 -0.014409015 -0.0086387413   0.04543997 
  472000    252.70655    8443.2856     3048.625    24.038016  -0.02554365 -0.035792944  0.011960011 
  473000    255.34926    7033.9935     3048.625    26.497879  -0.02294496 -0.006176864 0.0067303957 
  474000    282.69991     2377.598     3048.625     26.39947 -0.0055405101 0.0024245663 0.0018282344 
  475000    280.53727    10928.666     3048.625    25.449581  -0.01398799 -0.019002541 -0.017708682 
  476000    264.57568    4608.9631     3048.625    23.256066  0.023524488 3.840778e-05  0.012622929 
  477000    242.51287    9403.0077     3048.625    20.271624  0.020963921 -0.020710439  0.035706946 
  478000    247.82217    12018.121     3048.625    18.275372 -0.0058701331 -0.055288518 0.0018069418 
  479000    260.06711    5590.8073     3048.625     20.55136 -0.014007795 0.0059899405 -0.001187175 
  480000    255.33951    14484.699     3048.625    24.238619 -0.022886009  0.016407294   0.01008418 
  481000    255.25187     12727.03     3048.625    27.739552  0.026880936    0.0100057  0.019632055 
  482000     280.2997    2532.6501     3048.625    31.926383  0.016354493 0.0095694416 0.0091368255 
  483000    290.60304    5344.1737     3048.625    34.828585  0.012995073 -0.013697557 -0.0090328062 
  484000    255.64623    7184.1833     3048.625     36.24393  0.026766846 0.0013240484 -0.017248431 
  485000    268.43198    11504.183     3048.625    36.567632 -0.027650667 -0.0062346418 -0.0011655668 
  486000    275.37908    11454.348     3048.625    35.959058  0.006233202 -0.019527659 -0.011788355 
  487000    249.19197    3277.4197     3048.625    35.062928 -0.031373238 -0.010084757 0.0023326254 
  488000    273.74671    9032.8007     3048.625    32.803853 0.0048174736 -0.0085260474 0.0060510495 
  489000    283.75511    9384.6589     3048.625    31.080769  0.018565441  0.019144682 0.0070920068 
  490000    272.64937    8608.6301     3048.625    32.162086  0.043369849 0.0063136323  0.001039126 
  491000    266.61426    10104.826     3048.625    32.933513  0.022225979   -0.0551739 -0.018078685 
  492000    259.28827    10578.838     3048.625    33.224439 -0.015732837 -0.0061200167 -0.019057692 
  493000    279.62901    5716.1233     3048.625    34.194968 -0.018891546 -0.045637463 -0.023201107 
  494000    267.22525    9453.3755     3048.625    34.864954 -0.0025950776 -0.0035423689  0.016152665 
  495000    292.37552    11936.328     3048.625    34.303415  0.066704767 -0.027642175 0.0033585376 
  496000    290.08662   -82.820478     3048.625    31.539763 -0.014192223 -0.016875076  0.024194948 
  497000    287.73933    2185.6708     3048.625    29.619188  0.017022947 -0.0081602572 -0.0082428519 
  498000    262.48852    6360.5426     3048.625    32.181649 -0.012405921 -0.062095614   0.01285212 
  499000    279.16353    4722.8523     3048.625    35.270995 -0.022093743  0.017789048 -0.0048698808 
  500000     278.8184    7392.6404     3048.625    34.093572  0.015569616  0.002087275  0.012490757 
  501000    264.87247     14395.91     3048.625    29.340323   -0.0343788 -0.0068734056 -0.021999603 
  502000    293.97391   -2500.4491     3048.625    26.555884  0.016364782 -0.031116888  0.046320984 
  503000    266.48836     544.5685     3048.625    28.095547 -0.014623938   0.03327686 -0.0060001252 
  504000    275.57048    16355.492     3048.625    29.373991 0.0086106923 0.0042139244 -0.0048425085 
  505000    256.61264    10587.773     3048.625    28.953064 0.0091381387  0.031015324 0.0041945384 
  506000    279.02964   -1615.2979     3048.625    27.850709 -0.042852408  0.022166475 -0.025108506 
  507000    277.40946    13796.238     3048.625    27.678434 -0.036580159  -0.01049508  0.023342685 
  508000    276.71434    6018.4083     3048.625    28.084249 0.0043642158  0.013843158  0.032059121 
  509000    294.41806     11518.64     3048.625    29.866589  0.023046284 -0.0076657827  0.019013682 
  510000    290.90127    7504.6308     3048.625    29.881452  0.010539432  0.021912604   0.05638604 
  511000    290.19367    -35.65577     3048.625       27.599  0.032098124 0.0072091349 -0.012474964 
  512000    291.91624    5205.3798     3048.625    25.853459 -0.0080771496  0.014556919 -0.0027602572 
  513000    277.46273    1184.4229     3048.625    28.352028 -0.014753516 -0.011196365  0.029866454 
  514000    275.03183    7850.6667     3048.625    30.212578 -0.030103308 -0.019939869 0.0073496721 
  515000    271.63171    12503.288     3048.625     31.76947 -0.025073464 0.0060750529  0.013325024 
  516000    296.10447    7526.7419     3048.625     29.97768 -0.014214774  0.022542043 -0.0014938677 
  517000    298.99697    955.78692     3048.625    27.048749 -0.027960802 -0.027785061  0.003897499 
  518000    276.20827    5999.7269     3048.625    25.594948  0.013590175 -0.025008617 -0.049208103 
  519000    264.69364    13625.636     3048.625    23.619867 0.0046603794 -0.028151319 -0.0060091504 
  520000    267.88875    6534.7183     3048.625    22.860666 0.0074234274 -0.019560753 -0.0010993642 
  521000    267.51867     11069.48     3048.625    25.421988 0.0026799918  0.014122421 0.0046502373 
  522000    290.50456    11170.647     3048.625    28.953501 0.00030102621   0.01724113 -0.0034538721 
  523000    270.24193    11925.536     3048.625    29.002427  0.028503215  0.011732258  0.022422022 
  524000    254.16832    6953.4281     3048.625    27.145018 -0.004980943 -0.025129132  0.013762779 
  525000    262.76846    10769.709     3048.625    25.775197 0.0007273004 -0.018414947 -0.039280047 
  526000    266.39042    12852.063     3048.625    24.421801  -0.02703911 -0.0096114346 0.0069085159 
  527000    248.40716    8626.9371     3048.625    26.060875 -0.037083622 -0.012327817 -0.024172569 
  528000    275.44125   -2420.7713     3048.625    28.883992  0.033009726 -0.00096453901  0.033374136 
  529000    272.47265    8112.5423     3048.625    29.308676 -0.034958864 0.0093735052 0.0036295183 
  530000    282.40652    16184.679     3048.625    24.846397  0.004592002 -0.026327081 -0.015209511 
  531000    271.13109    -235.9942     3048.625     24.20495  0.018044667 -0.012400202 0.0070957948 
  532000     273.9632    6233.1688     3048.625    25.872785  0.020787808 0.0027826675 0.0065535386 
  533000    271.25249    8556.1949     3048.625    25.335354  0.012873563 -0.020482954 -0.013706092 
  534000    269.08081    10917.816     3048.625    23.391932 -0.0015888783 -0.0022185321  0.014505169 
  535000    273.64509    4445.7619     3048.625    21.163495 -0.022121542 -0.019959265  0.018983041 
  536000    250.37185    4551.8815     3048.625    21.285952 0.0048303272 -0.040165933  -0.01852022 
  537000    277.05575    9089.5681     3048.625    26.418652  0.037143961 -0.0066953501  0.019102975 
  538000      272.229    10675.133     3048.625    28.226802 0.0021443277 -0.038661591 -0.0093853047 
  539000    280.04834    4597.8954     3048.625    27.300956 -0.043490563  0.014116556  0.028438464 
  540000    269.58691    3901.0965     3048.625    25.812656 -0.012738645 0.0094287662 -0.0073194421 
  541000    258.89086     12273.71     3048.625     27.62484 0.0047081061 0.0088549003  -0.02116285 
  542000    262.09279    13437.341     3048.625    31.952785  0.010737758 0.0082371252  0.027450201 
  543000    249.96195    6299.2666     3048.625    32.427534 0.0074775532 0.0014091487  0.011350999 
  544000     252.1514    10350.644     3048.625    28.600832   -0.0217831 -0.00042760634 0.0042727657 
  545000    284.15234    2660.2088     3048.625    23.464779  0.031438629  -0.02320311 -0.0041912279 
  546000    268.19504    2529.5032     3048.625    22.282298  0.020551681  -0.05813955 0.0028783607 
  547000    257.91175    11916.131     3048.625    23.703729 0.0020867591 -0.0098767564 -0.0041085815 
  548000    258.54131    5122.0591     3048.625    26.806901  0.001405403 0.0026418322  0.016806298 
  549000    275.64965    8633.8535     3048.625    29.945125 -0.018315686 -0.017796133 -0.029664753 
  550000    276.59649    8058.0454     3048.625    30.995516  0.029013218 -0.014793786 -0.035987068 
  551000    275.00329    7417.5207     3048.625    29.469424  0.015290722  0.046318005  0.030577007 
  552000    278.33924   -3979.7565     3048.625    27.185778    0.0228562 -0.023042798 -0.023015214 
  553000    258.18706    10130.325     3048.625    22.139241 0.0023173359 -0.031897765  0.008049516 
  554000    273.65739    11265.235     3048.625    19.552351   0.01422815 -0.0060308526  0.010695066 
  555000    269.39464    8646.4551     3048.625    20.234337  0.050686094 -0.0020472416 -0.013374041 
  556000    251.42648    5590.6219     3048.625    21.026532 -0.042235514 -0.032385584 -0.0055961477 
  557000    259.38998    8597.8964     3048.625    22.777648  0.015873569 -0.009408961   0.01119286 
  558000     288.6657    7471.7911     3048.625    22.340303 -0.021053456 0.0011743807  0.020512203 
  559000    290.75036    1795.9704     3048.625    20.977465 -0.0035968638  0.019917716  0.011666504 
  560000    260.39427    6071.6342     3048.625    18.913101  0.038404102 -0.015350919 0.0023274899 
  561000    271.15132    4603.9665     3048.625    19.648579 -0.017006142  0.033338957 -0.027707233 
  562000    278.83417    5329.6686     3048.625    21.271175  0.018063577  0.025631046 -0.015395906 
  563000    277.50125    12502.184     3048.625    24.260751  0.032096428  0.027901589 -0.0057808411 
  564000    262.26799    4879.6822     3048.625    24.488094 -0.0088491019 -0.021584554  0.035775471 
  565000    268.73228    9632.9853     3048.625    26.075006 -0.028716521 -0.0022067198  0.019567796 
  566000    276.62288    10012.935     3048.625      26.8871 0.0026845925 -0.020150025  -0.01399491 
  567000    280.37521    10264.383     3048.625    25.521204 0.0062009724  0.049169087 -0.021612834 
  568000    286.46361    752.29997     3048.625    26.977135 0.0023784744 -0.028819399 0.0091351658 
  569000    263.63262    6161.2471     3048.625    28.289859 -0.0011959819 -0.0024703756 -0.0051610826 
  570000    287.60641    8639.2047     3048.625    30.040976 -0.011381974  0.022515621 -0.010044616 
  571000    268.72106    3235.4114     3048.625    30.219733  0.010345206  0.015677795  0.029355445 
  572000    260.04187    11030.153     3048.625     29.39462  0.011272321  0.025962717 -0.025257958 
  573000    273.11777    10504.142     3048.625    27.982603  0.022940205 -0.0006470942  0.018408906 
  574000    253.17618    4765.8615     3048.625    24.334719 0.0060984098 -0.023480379  0.025004499 
  575000    264.22372    5445.5141     3048.625    21.692815 -0.00037203703 -0.015924994   0.03832746 
  576000    257.35623    10000.389     3048.625     22.14614  0.037905764 -0.024894387 -0.036011514 
  577000    285.30152    5987.9475     3048.625    24.669793 -0.016946006  0.013386011 0.0013706433 
  578000    270.84424    6756.5482     3048.625    25.463568  0.012650776 -0.033894343 -0.010141299 
  579000    276.12115    4729.2343     3048.625    22.400973 -0.015744842 -0.019658104  0.023770279 
  580000    281.07998    8954.5636     3048.625     21.06642 0.0058778806 0.00025620748 0.0033777059 
  581000    262.20953    9666.8025     3048.625    21.137524  0.015303891  0.039581299  -0.02184462 
  582000    277.57033   -4463.9117     3048.625    21.820204  -0.04156454 -0.0032599138  0.014391486 
  583000    267.14624    5897.1383     3048.625    24.316059   -0.0250633  0.012749994  0.016845072 
  584000    272.55739    10732.132     3048.625    26.807128 0.0076384232 -0.023999856  0.030886003 
  585000    279.64192    663.21602     3048.625    28.099956 -0.032416743  0.021942708 0.00072782881 
  586000     274.6816    5634.4798     3048.625    29.440021 -0.002769726 0.0026744877 0.0043449362 
  587000    284.08767    8469.0898     3048.625    30.507212  0.017390374 0.0029436033 0.0054778622 
  588000    284.31316    4236.8813     3048.625    28.477726 -0.0082033589   0.02397115  0.036569473 
  589000    269.36012    2779.4869     3048.625    25.367989 0.00065926452 -0.0054840282  0.010801532 
  590000     288.4602    4420.0747     3048.625    27.438763  -0.01510507 -0.022374593 0.0066505894 
  591000    272.67723    4478.1547     3048.625    27.549461 -0.0084299152 -0.007868823 -0.035163202 
  592000    285.34001    5706.9626     3048.625    27.727237  0.010072539  0.012489711  0.019682165 
  593000     277.3359    14762.167     3048.625    30.770178 0.0090143724 -0.019410067 0.0011549064 
  594000    272.13668   -957.45755     3048.625    33.901196 -0.014882676 -0.0059038099 -0.0024799188 
  595000     257.9325    9783.1087     3048.625    31.884525 -0.034937898 0.0013575042 0.0042362697 
  596000    279.22741    7876.6071     3048.625    26.172828 -0.057933196  0.034190197 -0.0093746355 
  597000    281.29261   -8078.4552     3048.625    23.585781  0.018998965 -0.026592022 0.00067932904 
  598000    280.03483    7119.1024     3048.625    24.750081 -0.022155944  0.001350459 -0.010882835 
  599000    275.07641    17892.555     3048.625    26.916288 -0.0098088663 -0.0026528583 0.0011263038 
  600000    264.46088    4128.0944     3048.625    26.609615 0.0029846776 -0.021966479 0.00074987133 
  601000     256.5747     9560.076     3048.625    24.308318 -0.025816432  0.026790849  0.012716519 
  602000    269.90668    7639.0114     3048.625    25.479151  0.022633692  0.017310475 0.0016538784 
  603000    290.21125     11768.18     3048.625    31.499935 -0.027524134 0.00043947283 -0.0053585767 
  604000    277.10878    1734.9035     3048.625    35.583907 -0.050174067 -0.016282667    0.0107429 
  605000    278.28988    7525.6636     3048.625    34.124067 -0.0064787202 0.0056924468 0.0082848814 
  606000    278.72837   -645.48172     3048.625    30.511695  0.017400257 -0.00085721684 -0.002449058 
  607000    271.92375   -979.92838     3048.625    28.683585  0.055308867  0.018797006  0.017469362 
  608000     284.4706    10300.796     3048.625    29.363345 -0.0016887177  0.015880308  -0.01892448 
  609000    247.43031    12120.829     3048.625    30.209847  0.018336101  0.014801958 0.0048768303 
  610000    270.78682   -3124.2954     3048.625    31.120623 -0.011512097 -0.00091051742 -0.027531098 
  611000    274.85639     -1401.89     3048.625    29.117178  0.020858252  -0.02733206 -0.00076278185 
  612000    272.61968    9343.3887     3048.625    24.308342 -0.010785324 0.0074690291 -0.0072522356 
  613000    265.52035    7576.8587     3048.625    20.999851 -0.0079460372 -0.019129378 -0.0069554479 
  614000    277.28391     7218.984     3048.625    22.614996 -0.031114275 -0.016629915 -0.011395873 
  615000     255.9777    6841.5811     3048.625    27.186846  0.001443532 -0.028093934 -0.039072278 
  616000    267.92677    8797.1832     3048.625    28.169503  -0.01045449 -0.026521041  0.033016284 
  617000    276.20387    5028.7062     3048.625    27.649927 -0.022919643  0.038571791 0.0071142762 
  618000    280.84204    5752.4791     3048.625    27.278464  0.047144481 -0.021948528 -0.0025676411 
  619000    290.47865    10153.276     3048.625     27.28036 -0.0038737072  0.012454566  0.026289465 
  620000    260.56085   -1845.2647     3048.625    28.011471 -0.003145077 0.0092035104  0.020056713 
  621000    272.40714    2942.4846     3048.625    27.944551 -0.004391978 -0.033469453 -0.0098952256 
  622000    278.45364    13355.895     3048.625    28.249452 -0.0018188116 -0.029444163  0.018424544 
  623000    278.10252    8538.3822     3048.625    30.940577  0.016672837 -0.0051904893 0.0072653345 
  624000    267.27249   -2478.5523     3048.625    32.925682  0.013368178 -0.025156856   0.01091853 
  625000     272.1097    4596.2273     3048.625    32.754104 -0.0017142403 -0.037132879   0.03097515 
  626000    278.89797    12256.295     3048.625    30.345631  0.016009843 -0.0019519783 0.0024296495 
  627000    273.88808     6673.106     3048.625    28.479722 -0.022322338 -0.0058150063  -0.02318238 
  628000    242.72405    3855.0155     3048.625    29.514787  0.030327055  0.017755276  0.013211537 
  629000    278.32908    13029.294     3048.625    31.437121  0.019104241  0.026384542 -0.0072400358 
  630000    293.07122    962.88051     3048.625    31.137057 -0.013121529 -0.026526481 0.0099444276 
  631000    270.50118    2795.2226     3048.625    26.913229  0.018907825 -0.013922391 -0.0089980005 
  632000    262.67528     7991.258     3048.625    26.422723  0.028444017 -0.024857021   0.01422239 
  633000    280.34265     8917.097     3048.625    29.410138 -0.0050499048  0.013927464 -0.0087504759 
  634000    293.21396    5055.6861     3048.625    33.556671 -0.0053673534  0.010467944 -0.033597395 
  635000    264.32471    5136.0571     3048.625    34.088981 -0.026335341  -0.01055445 -0.042187391 
  636000    272.18056     1763.661     3048.625    30.307915 -0.00061093617 0.0052964063 -0.022565027 
  637000    281.77643    14053.162     3048.625    26.434824 0.0040190078 -0.0034527143 -0.043771865 
  638000    289.26677    4635.0062     3048.625     27.89037 -0.033099766 0.0068235494  0.024779522 
  639000    292.65967   -6120.4367     3048.625    32.327326 -0.00064733279  0.034012577  0.022870503 
  640000    272.73464    3530.3776     3048.625    32.483872 -0.019589326  0.018616261 -0.062916853 
  641000    279.59383     14562.14     3048.625    31.187022   0.01985846  0.002906922 -0.019933191 
  642000    281.37556    10336.224     3048.625     31.65695   0.02023461 0.0068185887  -0.02137451 
  643000    278.08093   -856.64131     3048.625    32.894924 0.0068226546  0.011616931  0.011285437 
  644000    277.49006    2640.9293     3048.625    30.772962 -0.029563144  0.011715585 0.0038609365 
  645000    280.75115    7267.2937     3048.625    26.775305 0.0061885263  0.013185923  0.038793097 
  646000    269.85166    2262.9299     3048.625     27.02831 -0.0093973196  0.014463135 -0.028633823 
  647000    276.48843     7200.691     3048.625    30.635498  -0.03968513  0.017723965 -0.024136753 
  648000    286.53878    3294.9602     3048.625    32.384442 -0.026704589 -0.048133205 -0.044106267 
  649000    280.37603    394.44825     3048.625     31.88077 0.0044620253 0.0098168595  -0.02466956 
  650000    295.14017    148.04771     3048.625    32.674839  0.033850485 -0.0023649175  0.027515838 
  651000    279.28359    6283.7201     3048.625    34.507938 -0.040732929  0.044827173  0.013390697 
  652000    270.94752    9280.5697     3048.625    34.275265  -0.01433424 -0.0066895809 -0.00011611082 
  653000    274.41903    4911.1693     3048.625    30.495296 -0.043917378 -0.014660096  0.011392624 
  654000    255.34727     1437.684     3048.625     27.63529 0.0062133482 -0.022626396  0.021640682 
  655000    274.58862     3923.814     3048.625    27.279014 0.0029874025 -0.024998538  0.038295271 
  656000    280.98181    6715.8862     3048.625    29.897094 -0.00039973769 -0.020892717  0.002769262 
  657000    283.90068    1394.3198     3048.625    32.803613  0.017897759 0.0054117849   0.01615963 
  658000    283.32304    5613.5648     3048.625     32.93276 -0.0055630303  0.021666241 -0.030509824 
  659000    278.14012    6650.3224     3048.625    31.694888 -0.037013925   0.02454678 -0.047984496 
  660000    276.25433   -3144.2621     3048.625    31.365992 -0.014968086  0.022410039  0.013539326 
  661000    299.25061    6481.6488     3048.625    31.255418 -0.010913357 -0.020669804 0.0079162905 
  662000    287.66505    10361.966     3048.625    29.931187 -0.015012938 -0.0072654019 -0.028463916 
  663000    280.57494    2894.3127     3048.625    29.313392 -0.017972986  0.027001496 -0.026582006 
  664000    255.84365    3572.3381     3048.625     30.59582 -0.0027660075 -0.0058836187  0.001167587 
  665000    288.29963    7160.3098     3048.625    32.356714 0.0083488338 0.0072387627 0.0028449263 
  666000    286.34432    5605.8079     3048.625    34.192537  -0.02529853  0.003754527   0.01453095 
  667000    273.98041    5213.5188     3048.625    34.935362 -0.00022254192 -0.009970352 -0.013426954 
  668000    274.61369    2121.8414     3048.625    34.763473 -0.027000791  0.010672922 0.0028969392 
  669000    265.10227    6340.3612     3048.625    30.172962 -0.012319873  0.020909677 -0.0045108033 
  670000    252.73869    14089.341     3048.625    23.787311 -0.018206536  0.031324681 -0.0045816369 
  671000    257.35075    2637.7827     3048.625    19.596514 4.3797934e-05 0.0078457546 -0.016249356 
  672000    252.68494    4580.5104     3048.625    20.452642 -0.0098648869 -0.012306448 0.0022807257 
  673000    269.52857    13203.731     3048.625    25.157393   0.03025966  0.029242671 -0.0054680455 
  674000     269.5447    8422.2548     3048.625    29.420248  0.018210511 0.0063821363  0.019999716 
  675000    280.76974   -752.69455     3048.625     30.19219  0.020259083 -0.013427791 -0.030848245 
  676000    276.44019    4848.6434     3048.625    28.665412 -0.010276629  0.018140558 -0.0085531529 
  677000    276.24799    8124.1888     3048.625    25.283612  -0.03316416 -0.0037472661 0.0037655906 
  678000    273.04089    6984.7763     3048.625    21.591025  0.022728926 -0.030904918 -0.011069196 
  679000    277.22488    4172.6957     3048.625    19.114757 -0.024296515 -0.010337609  0.022543478 
  680000    283.96511    3268.4341     3048.625    21.000251  0.024053385 -0.035868598   0.01941569 
  681000    260.11085   -3951.9356     3048.625    23.779376  0.024122595 -0.010864885  -0.04350601 
  682000      264.849    9863.2063     3048.625    29.304274   0.02494178 -0.014695131 -0.019030188 
  683000    273.25435    14948.227     3048.625    32.540681  0.044488639  0.013735336 -0.014490599 
  684000     274.7463    911.49992     3048.625    30.917474  0.010860045 0.00099670215 -0.0098046763 
  685000    281.49803   -2575.6347     3048.625    28.282386  0.011633497  0.010678705 0.0066736607 
  686000    275.44142    4364.2182     3048.625    27.707692 0.0002276169 -0.015788937 0.0083519145 
  687000    272.33848    11679.775     3048.625    30.591971   0.02088053 -0.0030124939 -0.023589697 
  688000    283.63245    4318.4592     3048.625    30.498021  0.013928546  0.020821243 -0.018393785 
  689000    273.25647   -4484.5594     3048.625     26.70422  0.030307265  0.012588888 0.0057956541 
  690000    270.78252     5123.432     3048.625    22.049361 -3.0924101e-06 0.00068736828 -0.0050488149 
  691000    280.16509    13062.891     3048.625    22.349407 -0.0050244143  0.012934327  0.014563862 
  692000     288.2044    6743.6638     3048.625    28.683707  0.020678575 -0.021590374 -0.0053565242 
  693000    277.33653    2959.2119     3048.625    32.622634  0.020990893   0.01646948  0.040555254 
  694000    265.64052    9516.8287     3048.625    31.798763 -0.014889699 -0.0095977195 -0.029882091 
  695000    271.34728    6468.6969     3048.625    28.417255  0.008117179 -0.0049009201 -0.0041285453 
  696000    279.35749    1739.3525     3048.625    27.894973 -0.025916442  0.015897546 0.0023177623 
  697000    272.33204    729.66239     3048.625    29.545184  0.025957878 -0.017783523  0.017809354 
  698000    271.05581    7676.1197     3048.625    30.571461 -0.0021891676 -0.019139783  0.028598185 
  699000    267.29486     8008.229     3048.625    28.079306 -0.0025003153 0.0008582492  0.025504402 
  700000    277.09658    6223.7323     3048.625    22.939165 0.0011743242 -0.010425908 -0.0030725003 
  701000    273.57801    3797.1217     3048.625    21.077916 -0.022995124  0.012142826 -0.0050402019 
  702000    284.42314    5150.4507     3048.625    25.574545 -0.0031631531 -0.011164662  0.022772005 
  703000    263.66096    2219.3434     3048.625    33.505738 -0.023042928  0.016185778   0.02755286 
  704000    270.79225    2274.6262     3048.625    34.401471  0.035070895  0.030266935  0.029314167 
  705000    270.80865    9501.8733     3048.625    27.416252 -0.012105095  0.022305879 0.0015840308 
  706000    257.73284    6906.9577     3048.625    21.491323 -0.0057992479 0.0060177351 -0.0088896591 
  707000    272.70199     2143.097     3048.625    23.745268 -0.013808596 -0.012311258 0.00056034898 
  708000    282.49054    2533.9041     3048.625     29.97418  0.025978064 -0.0096943863   0.01785078 
  709000    278.47701    7936.6159     3048.625    31.577193 -0.017278823 -0.046243921 0.0054519065 
  710000    267.92547    8137.8049     3048.625      26.8745  0.018763827  -0.01243271  0.024801887 
  711000    270.79295    3771.5909     3048.625    23.947003  0.017495947 0.0054046778 0.00035452893 
  712000     277.6219    6647.4466     3048.625    26.707793 -0.031154483  0.026451227  -0.02193812 
  713000    271.03234    7788.3061     3048.625    31.297783  0.037817188 0.0031955572 0.0043516487 
  714000    283.46571    7204.9915     3048.625    31.260662 -0.0042180805 -0.029636839 -0.0097511631 
  715000    288.96378     5950.674     3048.625    27.794999  0.013177199 -0.016416571   -0.0254712 
  716000    249.00778    6295.1859     3048.625    25.990171 -0.045965885 -0.014433517  0.014335621 
  717000    244.23463    7304.7297     3048.625    27.856118 -0.0089030207  0.029945537 -0.00068269761 
  718000    271.67201    8439.5926     3048.625    30.825852 -0.029010587 -0.024176368   0.01084579 
  719000    268.39491    7109.6079     3048.625    32.029211   0.01080369 0.0018996225 -0.023890439 
  720000    285.77991     8555.316     3048.625    28.967725 -0.042382634 -0.033784612 -0.033364344 
  721000    292.37897   -1851.2881     3048.625    22.842428 0.0013429691  0.024976039 -0.013907075 
  722000    275.09705    5560.0374     3048.625    19.302291  0.021668737  0.015513757 -0.0010057538 
  723000    275.24476    7311.0309     3048.625    19.926135 7.9408869e-05 0.0052614412  0.041192728 
  724000    267.60493    136.26713     3048.625    23.887273  0.019195068  0.046149203 0.00050389416 
  725000    288.05135    3403.6156     3048.625    28.956974 -0.0040649696  0.016273594 -0.028491005 
  726000    280.23699    8321.8715     3048.625    31.330168 0.0086966311  -0.01839114 -0.057149356 
  727000     286.8147    3196.4776     3048.625    28.187657  -0.01539416 -0.014728415 -0.011492782 
  728000    268.76963   -2089.8918     3048.625    22.097128 -0.015817809 -0.032481217 -0.0075062299 
  729000    273.42958    4910.8832     3048.625    16.973634 -0.008387358  0.019501477 -0.019016502 
  730000    275.72333    9964.9448     3048.625     15.98359 -0.0081512236  0.039706568  -0.01490312 
  731000    261.52566    7377.8406     3048.625    17.576553  0.013093291 -0.0023265108 0.0019703095 
  732000    254.55984    5966.4365     3048.625    20.020594  0.031434766 -0.043121648  0.016751297 
  733000    274.16716    8310.7951     3048.625    23.713257  0.010039115  0.030389585 -0.0020074986 
  734000    266.25048    -2605.788     3048.625    26.900298 -0.0054184108 0.0072692477  0.014615116 
  735000    290.85565    4718.0262     3048.625    27.061376 -0.010073758  0.022729053    0.0238671 
  736000    277.87492    13463.062     3048.625    24.658718  0.012274673 0.0051294107 -0.0060119422 
  737000    264.04772    3523.5791     3048.625    18.865203  -0.02434008 -0.021646366 0.0057147462 
  738000    259.59757    7353.1861     3048.625    13.478714  0.019631551  0.020355225  0.017915522 
  739000    275.67108    5613.3032     3048.625    11.130382  0.014715416  0.022271053  0.027508854 
  740000    261.30545    7600.0737     3048.625    13.603592  0.047306876  0.047355306  0.032668065 
  741000    245.48874    3371.3317     3048.625    21.756206 0.0019009876 -0.010778478  0.014500916 
  742000    264.84648    8048.4586     3048.625    28.960717  0.018652154 -0.021486506  0.010308728 
  743000    253.86039     9340.711     3048.625    31.634768  0.013091724  0.035233724  0.009748487 
  744000    263.95026    6833.1688     3048.625    28.541837 -0.023962895  0.017586297 -0.015336348 
  745000    263.65175    5654.5431     3048.625    23.019146 -0.023360832 -0.017723456 -0.0045920954 
  746000    277.41592    5314.0874     3048.625    20.709442 0.0017320798  0.025879208 -0.017429497 
  747000    274.34963    2475.5399     3048.625    24.537032 0.0054737425 0.0064916053 0.0034018714 
  748000    266.94469    4283.3303     3048.625    29.217427 0.0070327503    0.0195406   0.02602464 
  749000    272.50026    10218.174     3048.625    32.555983 0.0011421006  0.017549376 -0.022040453 
  750000    259.71696    6693.3572     3048.625    32.070417 -0.0056699429  0.010223347 -0.022594626 
  751000    262.40076    4110.4787     3048.625    28.700628 -0.0053854616 -0.00071051508  0.016051174 
  752000    280.51402    2185.7544     3048.625    23.563161 -0.002679451  0.034856632  0.015863688 
  753000    269.24181    2758.1358     3048.625     20.62027 -0.006595273 0.00082847692 0.0063544775 
  754000    266.20569    5199.9425     3048.625    21.811366  0.027697801  0.026736156 -0.037436905 
  755000    272.49163    7803.7442     3048.625    26.656378  0.025609981  0.019726353 -0.014672758 
  756000    249.23618    6728.3786     3048.625    31.655241 -0.010852084  0.028671105  0.010782911 
  757000    255.59844    4383.2239     3048.625    32.321828  0.012840278 -0.022006728  0.034239107 
  758000    267.27879    3103.0311     3048.625    28.944107 -0.016471186 0.0063615444  -0.01394699 
  759000    283.00131    5531.9872     3048.625    25.756504  0.030108945 0.0062656741  0.008397387 
  760000    275.24344    8110.4857     3048.625    25.969361 -0.020396349 -0.010294017  0.010064868 
  761000    271.56781     4462.811     3048.625    27.274709 -0.0064500097 -0.002816267  0.027279881 
  762000    274.92805    2820.8114     3048.625    25.454543 -0.0079194449 -0.037984837 -0.011401046 
  763000    254.48569    5994.3229     3048.625    21.142096 0.0062640778 -0.0056795476   0.02609728 
  764000    269.55311    3304.8633     3048.625    20.339993 -0.020143726  0.041119539  0.029099092 
  765000    275.34172    10741.833     3048.625    23.643634 -0.0036550584 -0.00074186715 -0.014301444 
  766000     263.6796    3810.6065     3048.625    26.258807 -0.040246925  0.010021856 -0.027659839 
  767000    265.21297   -1204.9246     3048.625    28.539686 -0.030939291 0.0013991529  0.005799701 
  768000    275.22427    3589.4562     3048.625    29.790966 -0.013043064 -0.004410371  0.021284974 
  769000    267.95106    12735.091     3048.625    29.244844 0.00039231509 -0.0094944242   0.04794087 
  770000    261.89744    8104.4282     3048.625    27.578339 -0.0079357227 0.0053883487 -0.013440566 
  771000    276.86079   -1091.5149     3048.625     26.52893 -0.015929881  0.017157648  0.001473029 
  772000    279.39086    4721.9419     3048.625    27.273407  0.032083633 0.0015102612 -0.0028756704 
  773000    273.86896    11952.106     3048.625    28.322775  0.020235856  0.015081414  0.011234864 
  774000    276.71683    7329.9515     3048.625    30.124819  0.022976839 -0.010184714  0.006890982 
  775000    261.84417    736.18923     3048.625    29.446416 0.0019114543 -0.0068324772  0.044721285 
  776000    260.83565    10233.806     3048.625    25.154003 0.0031867145 -0.020203081  0.050100972 
  777000     277.3118    8927.7574     3048.625    20.771306 0.0019962489 -0.0035513866  0.011970196 
  778000    278.75795    1742.2468     3048.625    19.820146  0.026764375 -0.0032784055  0.022506152 
  779000    269.85619    3618.7822     3048.625    22.856907 -0.015488644  0.024299451 -0.011770318 
  780000     279.6926    6207.6316     3048.625    27.634718 -0.0087367427   0.02776655 0.0095168127 
  781000    283.64957    728.14758     3048.625    30.534962 -0.027874582 -0.0025418662 -0.029409901 
  782000    295.93203    3369.7117     3048.625    30.148581  0.020235007 -0.028743317  0.014367816 
  783000    251.31744    7966.9906     3048.625    24.745907  0.025021638  0.027861821 -0.022252753 
  784000    248.47614    8854.8399     3048.625    21.975771 -0.011344557 -0.0060133402 -0.00050078146 
  785000    250.34386    10407.057     3048.625     21.62877 -0.032550189  0.017618559  0.014280065 
  786000    258.28081    4832.7952     3048.625    23.629755 -0.021274271 -0.014239744  0.018275971 
  787000     273.2764    4038.9256     3048.625    27.154434  0.020741302  0.003841388  0.012697869 
  788000    268.79403   -2499.1274     3048.625    31.009032 -0.025117027  0.017018064  0.023429141 
  789000    267.35935    1490.7973     3048.625    33.408602  0.006114203 0.0018272417 -0.0039056325 
  790000    252.13763    6656.6328     3048.625    33.072499 -0.031042563 -0.020004181 -0.011871528 
  791000    257.36644    7370.5892     3048.625    27.501414 -0.026157849 -0.019114452 -0.021593187 
  792000    255.97014    8809.3247     3048.625    19.971505  0.010633982 -0.004814241 0.0048132547 
  793000    266.61882    2546.8296     3048.625    13.153997  0.046379514 -0.033450286 -0.0085744621 
  794000    272.65589    8037.9723     3048.625    10.270013  0.024912709 -0.012934013  0.022855512 
  795000    256.30457    8955.1635     3048.625    11.788347  0.014998253 -0.034513191  0.020896662 
  796000    270.74305    6311.5772     3048.625    16.939058 -0.00089628595 -0.0019087838  0.019334516 
  797000     281.2594    4900.3315     3048.625    24.780622 0.0055676572  0.012326425 -0.018757738 
  798000     267.2777    991.33956     3048.625    32.614959  0.033322809 -0.018688195 -0.030692121 
  799000    253.82734   -2754.1809     3048.625    34.704532 -0.0085300392  0.014600091 -0.0036570721 
  800000    265.51178     14964.52     3048.625    30.420468 -0.030551664 -0.0037431138 0.0011827254 
  801000    269.92606    9764.8945     3048.625    22.956189  0.020117669 -0.021513614   0.05653206 
  802000    272.21002   -5165.7507     3048.625     17.34587 -0.024080964  0.036396233  0.049380361 
  803000    264.78244    8393.2633     3048.625    16.649617 -0.022810569  0.021564084  0.017262557 
  804000    267.39051    9767.4792     3048.625    20.540523 -0.021294254 -0.003967319 0.0037890998 
  805000    253.42361    983.19891     3048.625    25.391033 0.0059842756 -0.0040204778 -0.019012682 
  806000    262.52631    1194.0891     3048.625    27.940203 0.0065143264  0.016362168 -0.018066516 
  807000     283.5633    5989.0488     3048.625    27.189074 -0.017318233 -0.0043055952  0.033710862 
  808000    272.48707    1710.2772     3048.625    23.791271 -0.021870339  0.016376098 -0.022296969 
  809000    271.96548    604.24369     3048.625    22.746217 -0.013404315 -0.0096152711 0.0044616038 
  810000    265.34847    6801.5794     3048.625    24.056138  0.011131327 -0.0032955103 -0.020761341 
  811000    271.09896    9389.2444     3048.625    26.451189 0.0091091487  0.012631527 0.0053459689 
  812000    261.17311    1941.0493     3048.625    30.450774 0.00064178715 -0.047397917  0.014509325 
  813000    261.20294    8411.5772     3048.625    34.031946 -0.0039903862 -0.0045027616 0.0071342415 
  814000    273.60105    7691.0973     3048.625    35.243204 -0.010185815 -0.025524581 -0.034791563 
  815000    255.64451    8973.2017     3048.625    34.399666 -0.0036543197 -0.030786584 0.0096458029 
  816000    281.87672     1086.448     3048.625    31.976974  0.018065739 -0.046540237  0.030388546 
  817000    263.06657    7433.2703     3048.625    28.646882  0.040624261 -0.0097019894 -0.037543766 
  818000     269.9328   -726.24346     3048.625    26.697004  -0.02275494 0.0068318437  0.013312333 
  819000    284.60652    2980.1971     3048.625    27.722675 -0.013546219   0.01223842   0.04599371 
  820000    254.34055    6703.4026     3048.625    31.017397 -0.013445845 -0.010637252 -0.027011743 
  821000    270.96683    5401.9655     3048.625    32.541816  -0.04742206 0.0029674029  0.016284415 
  822000    254.46475    467.56526     3048.625    30.614727 -0.0051027961 -0.0082863472 -0.018763513 
  823000    269.51679    2280.4739     3048.625    28.157509 -0.0064805887 -0.011097347 -0.021457022 
  824000    277.41605    6307.9914     3048.625    25.851976  0.011246216 0.00074528485  0.021026058 
  825000    285.20752      4432.25     3048.625    25.870184 -0.019721576 -0.00039669994 -0.0015460608 
  826000    268.44934    9800.2858     3048.625    29.168648  0.038806375 -0.0093738632 0.0054327895 
  827000    264.62976    3686.4904     3048.625    32.710496  0.026846136  0.010100686 -0.044249705 
  828000    278.30651    1261.2514     3048.625    32.833635  0.033275578  0.031649178 -0.0054547182 
  829000    287.96925    4132.2547     3048.625    29.846992 0.0069611311 -0.0010211557 -0.0040112018 
  830000    271.38729    3561.6833     3048.625    27.397528 -0.0047304175  0.046635791 -0.026598796 
  831000    280.45098    3322.4589     3048.625    26.773095 -0.016087693 -0.0062357507 -0.042445126 
  832000    275.95862    4873.1405     3048.625    29.129399 -0.0012431798  0.044756511 0.00059218032 
  833000    264.71154    4711.8225     3048.625     31.36279 -0.029025865  0.028932609 -0.016749653 
  834000    263.40405    7058.6194     3048.625     32.50201  0.011044406 -0.023595698  0.001977334 
  835000    274.92253    1052.1231     3048.625    29.863186 0.0076911423 -0.022267795  -0.00598376 
  836000    249.95412    3913.9483     3048.625    24.751244  0.015743589  0.018798123  0.022627343 
  837000    250.33114    8194.9934     3048.625    21.761129 0.00070963557 -0.017891371 -0.041512029 
  838000    265.77804    6760.9342     3048.625    21.983601  0.048564901  0.013178351 -0.0038032716 
  839000    261.56436    1747.3337     3048.625    24.229865 0.0042624931 -0.037379859  0.018852291 
  840000    268.41306    7814.8589     3048.625    29.281146 -0.036826505  0.009562935  0.040651197 
  841000    265.06337    12233.771     3048.625    32.067874  0.015694499  0.009856562  0.023751001 
  842000     273.5778    2060.4942     3048.625    32.572839  -0.01632695 -0.041465925 0.0095237287 
  843000    258.43746    4162.5675     3048.625    29.101013 -0.042434259 -0.020267311 0.0039825923 
  844000    254.08336    13270.713     3048.625    24.906911  0.028093772 -0.0062346806  0.040105996 
  845000    267.49911    4539.5525     3048.625    24.182458  0.013986293  0.023280921  0.042905173 
  846000    279.85175   -1682.2013     3048.625    26.475554 -0.023632196 0.0039365023   0.02165679 
  847000    270.91669    4403.6916     3048.625    28.073903 -0.014201887   0.01478251  0.038991594 
  848000    260.45766    12725.078     3048.625     29.06054 -0.018451496 -0.045483174 -0.0096043917 
  849000    269.81182   -4030.4418     3048.625    28.819528 0.0050627177 -0.040049633  -0.00219744 
  850000    269.90428    4262.8161     3048.625    26.415477 -0.0014447657  0.012533924  0.019670895 
  851000    297.57125    9962.9605     3048.625    23.130739 -0.00063991724  0.033469604 -0.039878939 
  852000    265.60587    6658.6846     3048.625    22.056008 -0.035139706 -0.023198873 -0.029056687 
  853000    270.16457    1458.3737     3048.625    24.443302 -0.013143879 -0.010043463 0.0081268949 
  854000    275.82661    833.65984     3048.625    26.405116  0.020292563 -0.021551733 -0.0092534662 
  855000    260.56557    9010.5488     3048.625    25.697701  0.016573763 -0.0049957677 -0.0072045356 
  856000    269.71537    7609.2368     3048.625    24.538209  0.018352803  0.016662205 0.0062865657 
  857000    270.00579    2602.1225     3048.625    24.940729  0.016026427 0.0045492109 0.0022649799 
  858000    269.26786    4866.2968     3048.625    27.426344 0.0062916062 0.0085382286 -0.022901652 
  859000    278.72153    2128.8014     3048.625    29.838771 -0.018030466 -0.0032171038 -0.011882136 
  860000    273.34933    8085.0508     3048.625    31.029566 -0.0074731667 -0.013407029 0.0017598936 
  861000    258.68132    13751.908     3048.625    30.903174 -0.0096625711 -0.013776231 -0.0061129901 
  862000    270.94816    5260.2919     3048.625    31.863716 -0.0052839477 -0.004479889 -0.0080528261 
  863000    273.69425    604.98338     3048.625    32.693507 -0.0014667785 0.0052992304 -0.0035856081 
  864000    277.48129    4299.4207     3048.625    31.495266 -0.00080067154  0.054577465 -0.013212822 
  865000    259.88574    12673.409     3048.625    28.357643  0.018037384 -0.0032287425  0.014255447 
  866000    256.22937    1081.1327     3048.625     24.77793  0.029292732  0.071374548  0.031530251 
  867000    251.97044    2804.3652     3048.625    23.096734  0.031177417  0.032354807  0.012744993 
  868000    253.82931    6984.1448     3048.625    24.401238 0.0086563545 0.0064581798 -0.0098586156 
  869000    283.79296    3851.3529     3048.625    26.734411  0.046529928 0.0023356819  0.014167757 
  870000    271.33597    4139.5293     3048.625    29.820029 -0.013287058 -0.0032759649   -0.0022586 
  871000    265.46296    10876.507     3048.625    31.175763  0.013057993  0.032698003 -0.0099971485 
  872000    269.65222    7631.6891     3048.625    31.402957  0.014359884 0.0035166831  0.013841875 
  873000    267.02772    1001.0353     3048.625    31.609328  0.011764163  -0.02991547 -0.021795697 
  874000    272.70683   -82.012756     3048.625     30.76422 0.0054229086  0.018112624 -0.017409769 
  875000    268.40034    1384.5621     3048.625    29.805894 0.0085271776 0.0038396751  0.038955023 
  876000    267.24981    5376.3132     3048.625    28.942497 -0.027174154 0.0040218765  0.012705779 
  877000    262.61557    3899.0109     3048.625    28.801034 -0.025355227  0.048252407 -0.0066132958 
  878000    271.91166   -203.21966     3048.625     30.19763 0.0017251203 -0.013031615 0.0054210902 
  879000    256.59011    5272.6563     3048.625    30.509745  0.026736611  0.013730122 0.0065128073 
  880000    273.42295    5827.7217     3048.625    29.559232  0.013047658 0.0075495303 -0.0010991009 
  881000    284.93821    4471.1064     3048.625     28.37502  0.039717736 -0.00040324239 -0.007447973 
  882000    269.30506   -3301.0086     3048.625    26.301436 -0.0043683806 0.0062107731 0.0093727418 
  883000    284.84529    3956.0052     3048.625    25.300741  0.011341877  -0.01124644 0.0031322759 
  884000    281.54628    11006.525     3048.625    25.286164 -0.0022507015  0.024525568 -0.016095704 
  885000    281.39031    1628.6208     3048.625    26.218057 -0.032016113  0.016718481   0.01388589 
  886000    271.82031   -1706.6298     3048.625      27.8564  -0.01180462 0.0036967877   0.01687466 
  887000    270.35115    8708.7025     3048.625    28.589338   0.01592588 0.0022552193  -0.02670124 
  888000    287.27202    7253.3357     3048.625    28.885494 -0.00090926881  0.010871899 -0.015154663 
  889000    261.31393    3212.8298     3048.625    26.316503 0.0016821877  0.031015248 -0.015928416 
  890000    278.88462    4055.4399     3048.625    21.360751  0.014644763  0.015868542 -0.0078214849 
  891000    259.74052    4215.4135     3048.625    20.498975 -0.035439799  0.047601818 -0.030544256 
  892000    276.10018    7087.8643     3048.625    24.472055  0.036849576 -0.0067151639 -0.039823856 
  893000     270.2676   -119.75741     3048.625    28.669166  0.010502311 -0.016991881 -0.069006424 
  894000    271.32781   -2508.4009     3048.625    28.710556 -0.032697914 -0.019397845 -0.038813747 
  895000    270.80642    13989.439     3048.625    25.910878 -0.045898168 -0.0012548971 -0.019260932 
  896000    262.34044    6734.8907     3048.625    23.855018 -0.0078842707 -0.0055227474 -0.020033386 
  897000    262.80612   -1728.8662     3048.625    25.726005  0.007108979 0.0083378877 0.0018730646 
  898000    260.94229    5352.2507     3048.625    29.703156 -0.024542927 0.0041972218  0.028944401 
  899000    268.63443    9860.8176     3048.625    30.033955 -0.019502381 0.0077530452  0.023028259 
  900000    279.44925    4975.4069     3048.625    24.507073 0.0059165374 -0.023418912 -0.018694274 
  901000    274.27504    199.23223     3048.625    16.193643  0.011231857 -0.040584743 0.0044929989 
  902000    268.79142    6190.6883     3048.625    15.147214 -0.0018694726 -0.0013453714 -0.042604096 
  903000    280.40275    9312.7571     3048.625    23.299259 0.0082329732 -0.021610312 -0.010039972 
  904000     275.2925   -3573.7929     3048.625    32.455159 -0.027107825 -0.016029155 -0.052688266 
  905000    262.64574      2371.38     3048.625    34.156732 -0.025791642 -0.016845469 -0.033224204 
  906000     276.4529    10984.834     3048.625     28.98565  0.017054576 -0.018559765 -0.013589011 
  907000    256.39915    5113.1373     3048.625    23.406941 -0.026116711 -0.00050627891 -0.014016313 
  908000    263.20023   -3589.9295     3048.625    22.686654 0.0079280687 -0.034214456  0.023890155 
  909000    257.04358    7542.8127     3048.625    27.346608  0.045652694  0.016924469 -0.015773623 
  910000    261.02867    5520.5907     3048.625    33.635923  0.018709415  0.025129257 -0.010565918 
  911000    259.94633    4058.1875     3048.625    34.859528  0.025158059 -0.010005443 -0.0090898275 
  912000    277.20934    2302.4148     3048.625    30.143123  0.024107897 -0.017688648  0.007710841 
  913000    269.84079    5093.3766     3048.625    25.703824 0.0052523079  0.042535344 0.0066534688 
  914000    257.49641    1996.0735     3048.625    26.256805  0.035599656 -0.0033371524 0.0024084485 
  915000    269.85493     4438.772     3048.625    29.295614 -0.015834594  0.018758147 0.0077854598 
  916000    276.50184    11373.177     3048.625    32.471261 -0.026356779   0.02885913  0.030447751 
  917000    270.48564     2922.914     3048.625    34.882666 -0.016782322  0.031200302 -0.010076637 
  918000    277.08772    609.00945     3048.625     35.25674 -0.016542129  0.020294873  0.039024701 
  919000    278.83337    7637.0959     3048.625    35.219967   0.03240771  0.027914509   0.03108038 
  920000    264.81477    5348.4756     3048.625    34.360767 0.0094588601 -0.0037820574 0.0099435616 
  921000    286.80748    3525.6776     3048.625    32.487436  0.023985342 -0.017889366 -0.015218948 
  922000    284.23561    5968.1791     3048.625    30.914223 0.0068139236 -0.023062391  0.014825285 
  923000    266.54061    3551.9429     3048.625    30.682997 -0.022306719 -0.017014416 0.0049365441 
  924000    273.84728   -117.60457     3048.625     31.53241  -0.02316203  0.015044805 -0.002036426 
  925000    262.76674    8234.2097     3048.625    31.644271 -0.014902974  -0.02294842 0.0070594905 
  926000    267.22313    8753.2426     3048.625     29.78006 -0.0097017721 -0.010822581 -0.020321319 
  927000    267.89529    2402.0847     3048.625    26.839304 -0.016177841 0.00064573979 -0.0037622559 
  928000     283.4583    1282.7221     3048.625    26.303192 -0.0053674847  0.061425501 -0.021257104 
  929000    277.79148    6272.6386     3048.625    29.116352  0.019646312 -0.0044608096 -0.0041922538 
  930000    275.32739    6396.8055     3048.625    33.068775 0.0081707505   0.01018315 0.0046277875 
  931000     275.9481     9261.157     3048.625    35.243086 -0.008631145  0.025983322  0.028406932 
  932000    271.98998    5628.2255     3048.625    33.989774 -0.029800177  0.027914695  0.017476527 
  933000    266.92107    2199.1233     3048.625    29.923612  0.027605059  0.021849121 -0.0086351492 
  934000    268.16704    8046.9884     3048.625    26.001848 -0.010008579  0.025420973 -0.033101908 
  935000    265.57576     14259.32     3048.625    23.819814  0.012888733 0.0031166398 -0.013698681 
  936000    283.82321    1958.2824     3048.625    25.074245 0.0056561407 -0.021016775 -0.031456693 
  937000    290.34451   -2814.5574     3048.625     26.80136  0.015820917  0.022954695  0.023381567 
  938000    267.81037    8624.2213     3048.625    27.618099 -0.00011108031 -0.031471848 0.0031293265 
  939000    270.59805    12088.052     3048.625    26.044374 0.0054510214 -0.0023679192 -0.029348788 
  940000    279.12211    3539.9406     3048.625    22.078527 -0.0091384429 -0.012609485 -0.0049670334 
  941000    269.67486   -1323.4633     3048.625    19.036446 -0.027534359  0.018202981  0.013470573 
  942000    266.91177     8740.517     3048.625    19.999287 0.0066085268  0.021836409 0.0033564271 
  943000    256.05381     8446.524     3048.625    24.592966 -0.017316853  0.014334442  0.058142772 
  944000    262.64229    585.41593     3048.625    31.678608 0.0017570197 -0.047712455 -0.013674864 
  945000    288.94454   -1467.2556     3048.625    35.749173 -0.019062757 -0.020082559 -0.023992157 
  946000    276.41541    13407.895     3048.625    32.015163 -0.022189593  0.015343944 -0.012692299 
  947000    278.96299    7937.6927     3048.625    25.782351 0.0057480751  -0.02252829  0.010849053 
  948000    256.97102    5244.4219     3048.625     23.11013 -0.019206019 -0.029360367  0.051847606 
  949000    278.92423    4618.6228     3048.625    23.769894 0.0028555432 0.00022971069 -0.0075037703 
  950000    280.56205    3511.1538     3048.625    24.363343 -0.013352043 -0.0031938454 -0.003961814 
  951000    268.06726    1937.8498     3048.625    24.139296  0.016851549 -0.0017482962   0.02685626 
  952000    261.94592    9552.2448     3048.625    23.954338 0.0027450051 -0.0012674269 0.0066119836 
  953000    271.64034    7296.7511     3048.625    22.938661 0.0070379453 -0.017774922 -0.026379915 
  954000    276.35498    5076.3856     3048.625    19.986663 -0.050137623 0.0090051848 -0.0097730796 
  955000    272.37115      886.897     3048.625    18.268557 -0.032013945  -0.02399323 -0.014412699 
  956000    269.80319    8162.7234     3048.625    21.096352 -0.0090241439 -0.017108041  0.004943611 
  957000    263.07698    7865.6752     3048.625    26.068333 -0.0045543791  0.040643875  0.012646406 
  958000    269.23601    1418.7865     3048.625    29.643733 0.0047403336   0.01668961  0.024469045 
  959000    257.17204    2963.3948     3048.625    29.617664  0.014287646  0.011680784  0.028033941 
  960000    256.40048    7907.0997     3048.625    25.170694  0.027804551 0.0087579426   0.01853248 
  961000     259.6151    7113.8526     3048.625    19.686693  0.027518206 0.0086071757 -0.0070058464 
  962000    264.65226    7323.3153     3048.625    17.342369 -0.021774861 -0.047184686 -0.0075066723 
  963000    264.97652   -2546.7941     3048.625    19.690014 -0.0049399806  0.032086437 -0.0010627715 
  964000    257.27388    5809.9542     3048.625    24.007729 0.0096613733 -0.0085388091 0.0032604135 
  965000    266.18327     8840.467     3048.625    26.211942 -0.022874624 0.00084826853 -0.015461468 
  966000    251.01248    8198.2991     3048.625    26.293085 -0.0064391317  0.011589694 -0.015717212 
  967000    277.41268    1487.4736     3048.625    23.984795  -0.01740479 -0.019989027  0.012040351 
  968000    264.14045    7152.5457     3048.625    23.330837 -0.013354517 -0.018721834  0.016920428 
  969000    261.19231    11719.592     3048.625     25.98284 -0.023295946 -0.00062223822  0.036066917 
  970000    251.79443    1474.7075     3048.625    28.138891 -0.0025474415  0.013949535 -0.0011312097 
  971000    247.14995    1834.0281     3048.625    28.518289 -0.024306998  0.020020379 -0.014645777 
  972000    256.82874    5781.5604     3048.625    28.270173 -0.0031767294 -0.015580551 -0.006323199 
  973000    266.46556    8749.9264     3048.625    26.436201  0.013454906 0.0023946615 -0.025071688 
  974000    268.68352    7125.9272     3048.625    24.425039  0.020885095  0.011370215 -0.025330882 
  975000    260.02297    503.67356     3048.625    20.805913 -0.036932974 -0.0014396846 -0.007615524 
  976000    271.39433    149.66157     3048.625    19.000543 -0.0033129069 -0.066015472   0.03308017 
  977000    277.92699    11476.965     3048.625    20.293496 -0.005955939 -0.016320198 0.0056312525 
  978000    269.86614    4057.8719     3048.625    23.055857 -0.0022573388  0.018798624 -0.0041677525 
  979000    276.77358    3608.6716     3048.625    27.485757 -0.021506491   0.05100134 -0.0041271409 
  980000    260.18238    2758.3336     3048.625     29.74572 0.0094776943  0.015121844   -0.0218355 
  981000    270.95068    993.94258     3048.625    29.943286 -0.0085690256  0.013703092  0.012181879 
  982000    266.68454    951.10444     3048.625    28.626821  0.020076427 -0.037470237  0.010773348 
  983000    272.49992    10444.792     3048.625    24.921018  0.012506099 0.0063374021 -0.0064376373 
  984000     253.0155    10534.958     3048.625    19.848045  0.010476593 0.0019354468 0.0095266708 
  985000     257.8898   -3854.2481     3048.625    18.773594  0.040912633  0.017686919  0.035073515 
  986000    268.69858   -2800.2258     3048.625    20.359133  0.014986242 0.0032332546 -0.0021770933 
  987000    244.70018    15285.502     3048.625    22.530899 -0.027260991 0.0071203499 0.00088965224 
  988000    273.00058    2842.6715     3048.625    23.760081 -0.0059591666 -0.0057914971  0.006618581 
  989000    255.38841    3657.8205     3048.625     23.61201 0.0049820704  0.028616028 0.0071821381 
  990000    265.43581    3983.3645     3048.625    23.252086 0.0078315048  0.029650444 -0.035598922 
  991000    253.35554     6678.144     3048.625    24.552963  -0.00464732 -0.019719641 -0.043218439 
  992000    258.96427    1551.3457     3048.625    28.501101 -0.020228422 -0.022924703 -0.015740065 
  993000    271.57751    6300.5416     3048.625    32.672431 -0.0075587585 -0.014114035 0.0036967563 
  994000    276.72682    2738.1826     3048.625    32.390232 0.0046252365 -0.023524565 0.0073707444 
  995000    261.36858    1006.1454     3048.625    26.727444  0.043895012 -0.019597616 -0.036324993 
  996000    276.53371    3569.2838     3048.625    20.695207  -0.01391385 -0.0038971418 0.0010334327 
  997000    288.13965    6482.4326     3048.625    18.451451 0.00045304947  0.015887357 0.0043429052 
  998000    266.77007    3735.3388     3048.625    19.730456 -0.0057226246 0.0079029415 -0.0031220383 
  999000     273.7803    3397.0776     3048.625    21.134319 -0.024610837  0.019070516 -0.049879206 
 1000000    287.83583    2611.8449     3048.625    19.467922  -0.01237115 0.0027941244  0.026549165 
Loop time of 10936.8 on 1 procs for 1000000 steps with 240 atoms

Pair  time (%) = 10794.3 (98.6962)
Bond  time (%) = 0.268198 (0.00245225)
Neigh time (%) = 46.544 (0.425571)
Comm  time (%) = 29.9865 (0.274179)
Outpt time (%) = 0.212991 (0.00194746)
Other time (%) = 65.5824 (0.599647)

Nlocal:    240 ave 240 max 240 min
Histogram: 1 0 0 0 0 0 0 0 0 0
Nghost:    5889 ave 5889 max 5889 min
Histogram: 1 0 0 0 0 0 0 0 0 0
Neighs:    87991 ave 87991 max 87991 min
Histogram: 1 0 0 0 0 0 0 0 0 0
FullNghs:  175982 ave 175982 max 175982 min
Histogram: 1 0 0 0 0 0 0 0 0 0

Total # of neighbors = 175982
Ave neighs/atom = 733.258
Ave special neighs/atom = 0
Neighbor list builds = 6591
Dangerous builds = 0
#	run			10000
	unfix			1
	uncompute		myKE
	uncompute		myPE
	uncompute		myStress
	uncompute		flux
	uncompute		myDis
	unfix			JJ

	next seed
	next iseed
jump lmp.in.gk loop_seed
variable iseed loop 10
variable seed index 11111 22222 33333 44444 55555 66666 77777 88888 99999 11110
clear
###########################################################################
#x0
###########################################################################
units 			metal
atom_style		full
read_data		fort.26.nonbonded
  0 = max bonds/atom
  0 = max angles/atom
  0 = max dihedrals/atom
  triclinic box = (0 0 0) to (14.5 14.5 14.5) with tilt (0 0 0)
  1 by 1 by 1 MPI processor grid
  240 atoms
  0 bonds
  0 angles
  0 dihedrals
  0 = max # of 1-2 neighbors
  0 = max # of 1-3 neighbors
  0 = max # of 1-4 neighbors
  1 = max # of special neighbors
group         		C type = 1
60 atoms in group C
###########################################################################
#OLPS
###########################################################################

################################################################################
#### Pair potentials
################################################################################
pair_style hybrid/overlay tersoff lj/cut 12.0
pair_coeff * * tersoff C.4.tersoff 1 2 3 4
pair_coeff 1 2 lj/cut 0.0007000000 3.5500000000
pair_coeff 1 3 lj/cut 0.0007000000 3.5500000000
pair_coeff 1 4 lj/cut 0.0007000000 3.5500000000
pair_coeff 2 3 lj/cut 0.0007000000 3.5500000000
pair_coeff 2 4 lj/cut 0.0007000000 3.5500000000
pair_coeff 3 4 lj/cut 0.0007000000 3.5500000000
special_bonds lj 0.0 0.0 0.0 coul 0.0 0.0 0.0

#pair_style tersoff
#pair_coeff * * C.4.tersoff 1 2 3 4

#pair_style lj/cut 12.0
#pair_coeff 1 1 0.0700000000 3.5500000000
#special_bonds lj 0.0 0.0 0.0 coul 0.0 0.0 0.0
###########################################################################

#--------------------------------------------------------------------------
#variables
#--------------------------------------------------------------------------
variable   	dt 		equal 0.001
#--------------------------------------------------------------------------
#kappa parameters
#--------------------------------------------------------------------------
variable    	p 		equal 100000 	# correlation length
variable    	s 		equal 10  	# sample interval
variable    	d 		equal $p*$s 	# dump interval
variable    	d 		equal 100000*$s 	
variable    	d 		equal 100000*10 	

#--------------------------------------------------------------------------
variable 	T_run 		equal 300
#--------------------------------------------------------------------------

log 	log_heat_${iseed}.lammps
log 	log_heat_5.lammps
