LAMMPS (22 Feb 2013)
###########################################################################
#x0
###########################################################################
units 			metal
atom_style		full
read_data		fort.26
  0 = max bonds/atom
  0 = max angles/atom
  0 = max dihedrals/atom
  triclinic box = (0 0 0) to (28.4 28.4 28.4) with tilt (0 0 0)
  1 by 2 by 2 MPI processor grid
  1920 atoms
  0 bonds
  0 angles
  0 dihedrals
  0 = max # of 1-2 neighbors
  0 = max # of 1-3 neighbors
  0 = max # of 1-4 neighbors
  1 = max # of special neighbors
group         		C type = 1
60 atoms in group C
###########################################################################
#OLPS
###########################################################################


################################################################################
#### Pair potentials
################################################################################
pair_style hybrid/overlay tersoff lj/cut 12.0
pair_coeff * * tersoff C.temp.tersoff 1 2 3 4 5 6 7 8 9 10 11 12 13 14 15 16 17 18 19 20 21 22 23 24 25 26 27 28 29 30 31 32
pair_coeff 1 2 lj/cut 0.00070000000 3.5500000000
pair_coeff 1 3 lj/cut 0.00070000000 3.5500000000
pair_coeff 1 4 lj/cut 0.00070000000 3.5500000000
pair_coeff 1 5 lj/cut 0.00070000000 3.5500000000
pair_coeff 1 6 lj/cut 0.00070000000 3.5500000000
pair_coeff 1 7 lj/cut 0.00070000000 3.5500000000
pair_coeff 1 8 lj/cut 0.00070000000 3.5500000000
pair_coeff 1 9 lj/cut 0.00070000000 3.5500000000
pair_coeff 1 10 lj/cut 0.00070000000 3.5500000000
pair_coeff 1 11 lj/cut 0.00070000000 3.5500000000
pair_coeff 1 12 lj/cut 0.00070000000 3.5500000000
pair_coeff 1 13 lj/cut 0.00070000000 3.5500000000
pair_coeff 1 14 lj/cut 0.00070000000 3.5500000000
pair_coeff 1 15 lj/cut 0.00070000000 3.5500000000
pair_coeff 1 16 lj/cut 0.00070000000 3.5500000000
pair_coeff 1 17 lj/cut 0.00070000000 3.5500000000
pair_coeff 1 18 lj/cut 0.00070000000 3.5500000000
pair_coeff 1 19 lj/cut 0.00070000000 3.5500000000
pair_coeff 1 20 lj/cut 0.00070000000 3.5500000000
pair_coeff 1 21 lj/cut 0.00070000000 3.5500000000
pair_coeff 1 22 lj/cut 0.00070000000 3.5500000000
pair_coeff 1 23 lj/cut 0.00070000000 3.5500000000
pair_coeff 1 24 lj/cut 0.00070000000 3.5500000000
pair_coeff 1 25 lj/cut 0.00070000000 3.5500000000
pair_coeff 1 26 lj/cut 0.00070000000 3.5500000000
pair_coeff 1 27 lj/cut 0.00070000000 3.5500000000
pair_coeff 1 28 lj/cut 0.00070000000 3.5500000000
pair_coeff 1 29 lj/cut 0.00070000000 3.5500000000
pair_coeff 1 30 lj/cut 0.00070000000 3.5500000000
pair_coeff 1 31 lj/cut 0.00070000000 3.5500000000
pair_coeff 1 32 lj/cut 0.00070000000 3.5500000000

pair_coeff 2 3 lj/cut 0.00070000000 3.5500000000
pair_coeff 2 4 lj/cut 0.00070000000 3.5500000000
pair_coeff 2 5 lj/cut 0.00070000000 3.5500000000
pair_coeff 2 6 lj/cut 0.00070000000 3.5500000000
pair_coeff 2 7 lj/cut 0.00070000000 3.5500000000
pair_coeff 2 8 lj/cut 0.00070000000 3.5500000000
pair_coeff 2 9 lj/cut 0.00070000000 3.5500000000
pair_coeff 2 10 lj/cut 0.00070000000 3.5500000000
pair_coeff 2 11 lj/cut 0.00070000000 3.5500000000
pair_coeff 2 12 lj/cut 0.00070000000 3.5500000000
pair_coeff 2 13 lj/cut 0.00070000000 3.5500000000
pair_coeff 2 14 lj/cut 0.00070000000 3.5500000000
pair_coeff 2 15 lj/cut 0.00070000000 3.5500000000
pair_coeff 2 16 lj/cut 0.00070000000 3.5500000000
pair_coeff 2 17 lj/cut 0.00070000000 3.5500000000
pair_coeff 2 18 lj/cut 0.00070000000 3.5500000000
pair_coeff 2 19 lj/cut 0.00070000000 3.5500000000
pair_coeff 2 20 lj/cut 0.00070000000 3.5500000000
pair_coeff 2 21 lj/cut 0.00070000000 3.5500000000
pair_coeff 2 22 lj/cut 0.00070000000 3.5500000000
pair_coeff 2 23 lj/cut 0.00070000000 3.5500000000
pair_coeff 2 24 lj/cut 0.00070000000 3.5500000000
pair_coeff 2 25 lj/cut 0.00070000000 3.5500000000
pair_coeff 2 26 lj/cut 0.00070000000 3.5500000000
pair_coeff 2 27 lj/cut 0.00070000000 3.5500000000
pair_coeff 2 28 lj/cut 0.00070000000 3.5500000000
pair_coeff 2 29 lj/cut 0.00070000000 3.5500000000
pair_coeff 2 30 lj/cut 0.00070000000 3.5500000000
pair_coeff 2 31 lj/cut 0.00070000000 3.5500000000
pair_coeff 2 32 lj/cut 0.00070000000 3.5500000000

pair_coeff 3 4 lj/cut 0.00070000000 3.5500000000
pair_coeff 3 5 lj/cut 0.00070000000 3.5500000000
pair_coeff 3 6 lj/cut 0.00070000000 3.5500000000
pair_coeff 3 7 lj/cut 0.00070000000 3.5500000000
pair_coeff 3 8 lj/cut 0.00070000000 3.5500000000
pair_coeff 3 9 lj/cut 0.00070000000 3.5500000000
pair_coeff 3 10 lj/cut 0.00070000000 3.5500000000
pair_coeff 3 11 lj/cut 0.00070000000 3.5500000000
pair_coeff 3 12 lj/cut 0.00070000000 3.5500000000
pair_coeff 3 13 lj/cut 0.00070000000 3.5500000000
pair_coeff 3 14 lj/cut 0.00070000000 3.5500000000
pair_coeff 3 15 lj/cut 0.00070000000 3.5500000000
pair_coeff 3 16 lj/cut 0.00070000000 3.5500000000
pair_coeff 3 17 lj/cut 0.00070000000 3.5500000000
pair_coeff 3 18 lj/cut 0.00070000000 3.5500000000
pair_coeff 3 19 lj/cut 0.00070000000 3.5500000000
pair_coeff 3 20 lj/cut 0.00070000000 3.5500000000
pair_coeff 3 21 lj/cut 0.00070000000 3.5500000000
pair_coeff 3 22 lj/cut 0.00070000000 3.5500000000
pair_coeff 3 23 lj/cut 0.00070000000 3.5500000000
pair_coeff 3 24 lj/cut 0.00070000000 3.5500000000
pair_coeff 3 25 lj/cut 0.00070000000 3.5500000000
pair_coeff 3 26 lj/cut 0.00070000000 3.5500000000
pair_coeff 3 27 lj/cut 0.00070000000 3.5500000000
pair_coeff 3 28 lj/cut 0.00070000000 3.5500000000
pair_coeff 3 29 lj/cut 0.00070000000 3.5500000000
pair_coeff 3 30 lj/cut 0.00070000000 3.5500000000
pair_coeff 3 31 lj/cut 0.00070000000 3.5500000000
pair_coeff 3 32 lj/cut 0.00070000000 3.5500000000

pair_coeff 4 5 lj/cut 0.00070000000 3.5500000000
pair_coeff 4 6 lj/cut 0.00070000000 3.5500000000
pair_coeff 4 7 lj/cut 0.00070000000 3.5500000000
pair_coeff 4 8 lj/cut 0.00070000000 3.5500000000
pair_coeff 4 9 lj/cut 0.00070000000 3.5500000000
pair_coeff 4 10 lj/cut 0.00070000000 3.5500000000
pair_coeff 4 11 lj/cut 0.00070000000 3.5500000000
pair_coeff 4 12 lj/cut 0.00070000000 3.5500000000
pair_coeff 4 13 lj/cut 0.00070000000 3.5500000000
pair_coeff 4 14 lj/cut 0.00070000000 3.5500000000
pair_coeff 4 15 lj/cut 0.00070000000 3.5500000000
pair_coeff 4 16 lj/cut 0.00070000000 3.5500000000
pair_coeff 4 17 lj/cut 0.00070000000 3.5500000000
pair_coeff 4 18 lj/cut 0.00070000000 3.5500000000
pair_coeff 4 19 lj/cut 0.00070000000 3.5500000000
pair_coeff 4 20 lj/cut 0.00070000000 3.5500000000
pair_coeff 4 21 lj/cut 0.00070000000 3.5500000000
pair_coeff 4 22 lj/cut 0.00070000000 3.5500000000
pair_coeff 4 23 lj/cut 0.00070000000 3.5500000000
pair_coeff 4 24 lj/cut 0.00070000000 3.5500000000
pair_coeff 4 25 lj/cut 0.00070000000 3.5500000000
pair_coeff 4 26 lj/cut 0.00070000000 3.5500000000
pair_coeff 4 27 lj/cut 0.00070000000 3.5500000000
pair_coeff 4 28 lj/cut 0.00070000000 3.5500000000
pair_coeff 4 29 lj/cut 0.00070000000 3.5500000000
pair_coeff 4 30 lj/cut 0.00070000000 3.5500000000
pair_coeff 4 31 lj/cut 0.00070000000 3.5500000000
pair_coeff 4 32 lj/cut 0.00070000000 3.5500000000

pair_coeff 5 6 lj/cut 0.00070000000 3.5500000000
pair_coeff 5 7 lj/cut 0.00070000000 3.5500000000
pair_coeff 5 8 lj/cut 0.00070000000 3.5500000000
pair_coeff 5 9 lj/cut 0.00070000000 3.5500000000
pair_coeff 5 10 lj/cut 0.00070000000 3.5500000000
pair_coeff 5 11 lj/cut 0.00070000000 3.5500000000
pair_coeff 5 12 lj/cut 0.00070000000 3.5500000000
pair_coeff 5 13 lj/cut 0.00070000000 3.5500000000
pair_coeff 5 14 lj/cut 0.00070000000 3.5500000000
pair_coeff 5 15 lj/cut 0.00070000000 3.5500000000
pair_coeff 5 16 lj/cut 0.00070000000 3.5500000000
pair_coeff 5 17 lj/cut 0.00070000000 3.5500000000
pair_coeff 5 18 lj/cut 0.00070000000 3.5500000000
pair_coeff 5 19 lj/cut 0.00070000000 3.5500000000
pair_coeff 5 20 lj/cut 0.00070000000 3.5500000000
pair_coeff 5 21 lj/cut 0.00070000000 3.5500000000
pair_coeff 5 22 lj/cut 0.00070000000 3.5500000000
pair_coeff 5 23 lj/cut 0.00070000000 3.5500000000
pair_coeff 5 24 lj/cut 0.00070000000 3.5500000000
pair_coeff 5 25 lj/cut 0.00070000000 3.5500000000
pair_coeff 5 26 lj/cut 0.00070000000 3.5500000000
pair_coeff 5 27 lj/cut 0.00070000000 3.5500000000
pair_coeff 5 28 lj/cut 0.00070000000 3.5500000000
pair_coeff 5 29 lj/cut 0.00070000000 3.5500000000
pair_coeff 5 30 lj/cut 0.00070000000 3.5500000000
pair_coeff 5 31 lj/cut 0.00070000000 3.5500000000
pair_coeff 5 32 lj/cut 0.00070000000 3.5500000000

pair_coeff 6 7 lj/cut 0.00070000000 3.5500000000
pair_coeff 6 8 lj/cut 0.00070000000 3.5500000000
pair_coeff 6 9 lj/cut 0.00070000000 3.5500000000
pair_coeff 6 10 lj/cut 0.00070000000 3.5500000000
pair_coeff 6 11 lj/cut 0.00070000000 3.5500000000
pair_coeff 6 12 lj/cut 0.00070000000 3.5500000000
pair_coeff 6 13 lj/cut 0.00070000000 3.5500000000
pair_coeff 6 14 lj/cut 0.00070000000 3.5500000000
pair_coeff 6 15 lj/cut 0.00070000000 3.5500000000
pair_coeff 6 16 lj/cut 0.00070000000 3.5500000000
pair_coeff 6 17 lj/cut 0.00070000000 3.5500000000
pair_coeff 6 18 lj/cut 0.00070000000 3.5500000000
pair_coeff 6 19 lj/cut 0.00070000000 3.5500000000
pair_coeff 6 20 lj/cut 0.00070000000 3.5500000000
pair_coeff 6 21 lj/cut 0.00070000000 3.5500000000
pair_coeff 6 22 lj/cut 0.00070000000 3.5500000000
pair_coeff 6 23 lj/cut 0.00070000000 3.5500000000
pair_coeff 6 24 lj/cut 0.00070000000 3.5500000000
pair_coeff 6 25 lj/cut 0.00070000000 3.5500000000
pair_coeff 6 26 lj/cut 0.00070000000 3.5500000000
pair_coeff 6 27 lj/cut 0.00070000000 3.5500000000
pair_coeff 6 28 lj/cut 0.00070000000 3.5500000000
pair_coeff 6 29 lj/cut 0.00070000000 3.5500000000
pair_coeff 6 30 lj/cut 0.00070000000 3.5500000000
pair_coeff 6 31 lj/cut 0.00070000000 3.5500000000
pair_coeff 6 32 lj/cut 0.00070000000 3.5500000000

pair_coeff 7 8 lj/cut 0.00070000000 3.5500000000
pair_coeff 7 9 lj/cut 0.00070000000 3.5500000000
pair_coeff 7 10 lj/cut 0.00070000000 3.5500000000
pair_coeff 7 11 lj/cut 0.00070000000 3.5500000000
pair_coeff 7 12 lj/cut 0.00070000000 3.5500000000
pair_coeff 7 13 lj/cut 0.00070000000 3.5500000000
pair_coeff 7 14 lj/cut 0.00070000000 3.5500000000
pair_coeff 7 15 lj/cut 0.00070000000 3.5500000000
pair_coeff 7 16 lj/cut 0.00070000000 3.5500000000
pair_coeff 7 17 lj/cut 0.00070000000 3.5500000000
pair_coeff 7 18 lj/cut 0.00070000000 3.5500000000
pair_coeff 7 19 lj/cut 0.00070000000 3.5500000000
pair_coeff 7 20 lj/cut 0.00070000000 3.5500000000
pair_coeff 7 21 lj/cut 0.00070000000 3.5500000000
pair_coeff 7 22 lj/cut 0.00070000000 3.5500000000
pair_coeff 7 23 lj/cut 0.00070000000 3.5500000000
pair_coeff 7 24 lj/cut 0.00070000000 3.5500000000
pair_coeff 7 25 lj/cut 0.00070000000 3.5500000000
pair_coeff 7 26 lj/cut 0.00070000000 3.5500000000
pair_coeff 7 27 lj/cut 0.00070000000 3.5500000000
pair_coeff 7 28 lj/cut 0.00070000000 3.5500000000
pair_coeff 7 29 lj/cut 0.00070000000 3.5500000000
pair_coeff 7 30 lj/cut 0.00070000000 3.5500000000
pair_coeff 7 31 lj/cut 0.00070000000 3.5500000000
pair_coeff 7 32 lj/cut 0.00070000000 3.5500000000

pair_coeff 8 9 lj/cut 0.00070000000 3.5500000000
pair_coeff 8 10 lj/cut 0.00070000000 3.5500000000
pair_coeff 8 11 lj/cut 0.00070000000 3.5500000000
pair_coeff 8 12 lj/cut 0.00070000000 3.5500000000
pair_coeff 8 13 lj/cut 0.00070000000 3.5500000000
pair_coeff 8 14 lj/cut 0.00070000000 3.5500000000
pair_coeff 8 15 lj/cut 0.00070000000 3.5500000000
pair_coeff 8 16 lj/cut 0.00070000000 3.5500000000
pair_coeff 8 17 lj/cut 0.00070000000 3.5500000000
pair_coeff 8 18 lj/cut 0.00070000000 3.5500000000
pair_coeff 8 19 lj/cut 0.00070000000 3.5500000000
pair_coeff 8 20 lj/cut 0.00070000000 3.5500000000
pair_coeff 8 21 lj/cut 0.00070000000 3.5500000000
pair_coeff 8 22 lj/cut 0.00070000000 3.5500000000
pair_coeff 8 23 lj/cut 0.00070000000 3.5500000000
pair_coeff 8 24 lj/cut 0.00070000000 3.5500000000
pair_coeff 8 25 lj/cut 0.00070000000 3.5500000000
pair_coeff 8 26 lj/cut 0.00070000000 3.5500000000
pair_coeff 8 27 lj/cut 0.00070000000 3.5500000000
pair_coeff 8 28 lj/cut 0.00070000000 3.5500000000
pair_coeff 8 29 lj/cut 0.00070000000 3.5500000000
pair_coeff 8 30 lj/cut 0.00070000000 3.5500000000
pair_coeff 8 31 lj/cut 0.00070000000 3.5500000000
pair_coeff 8 32 lj/cut 0.00070000000 3.5500000000

pair_coeff 9 10 lj/cut 0.00070000000 3.5500000000
pair_coeff 9 11 lj/cut 0.00070000000 3.5500000000
pair_coeff 9 12 lj/cut 0.00070000000 3.5500000000
pair_coeff 9 13 lj/cut 0.00070000000 3.5500000000
pair_coeff 9 14 lj/cut 0.00070000000 3.5500000000
pair_coeff 9 15 lj/cut 0.00070000000 3.5500000000
pair_coeff 9 16 lj/cut 0.00070000000 3.5500000000
pair_coeff 9 17 lj/cut 0.00070000000 3.5500000000
pair_coeff 9 18 lj/cut 0.00070000000 3.5500000000
pair_coeff 9 19 lj/cut 0.00070000000 3.5500000000
pair_coeff 9 20 lj/cut 0.00070000000 3.5500000000
pair_coeff 9 21 lj/cut 0.00070000000 3.5500000000
pair_coeff 9 22 lj/cut 0.00070000000 3.5500000000
pair_coeff 9 23 lj/cut 0.00070000000 3.5500000000
pair_coeff 9 24 lj/cut 0.00070000000 3.5500000000
pair_coeff 9 25 lj/cut 0.00070000000 3.5500000000
pair_coeff 9 26 lj/cut 0.00070000000 3.5500000000
pair_coeff 9 27 lj/cut 0.00070000000 3.5500000000
pair_coeff 9 28 lj/cut 0.00070000000 3.5500000000
pair_coeff 9 29 lj/cut 0.00070000000 3.5500000000
pair_coeff 9 30 lj/cut 0.00070000000 3.5500000000
pair_coeff 9 31 lj/cut 0.00070000000 3.5500000000
pair_coeff 9 32 lj/cut 0.00070000000 3.5500000000

pair_coeff 10 11 lj/cut 0.00070000000 3.5500000000
pair_coeff 10 12 lj/cut 0.00070000000 3.5500000000
pair_coeff 10 13 lj/cut 0.00070000000 3.5500000000
pair_coeff 10 14 lj/cut 0.00070000000 3.5500000000
pair_coeff 10 15 lj/cut 0.00070000000 3.5500000000
pair_coeff 10 16 lj/cut 0.00070000000 3.5500000000
pair_coeff 10 17 lj/cut 0.00070000000 3.5500000000
pair_coeff 10 18 lj/cut 0.00070000000 3.5500000000
pair_coeff 10 19 lj/cut 0.00070000000 3.5500000000
pair_coeff 10 20 lj/cut 0.00070000000 3.5500000000
pair_coeff 10 21 lj/cut 0.00070000000 3.5500000000
pair_coeff 10 22 lj/cut 0.00070000000 3.5500000000
pair_coeff 10 23 lj/cut 0.00070000000 3.5500000000
pair_coeff 10 24 lj/cut 0.00070000000 3.5500000000
pair_coeff 10 25 lj/cut 0.00070000000 3.5500000000
pair_coeff 10 26 lj/cut 0.00070000000 3.5500000000
pair_coeff 10 27 lj/cut 0.00070000000 3.5500000000
pair_coeff 10 28 lj/cut 0.00070000000 3.5500000000
pair_coeff 10 29 lj/cut 0.00070000000 3.5500000000
pair_coeff 10 30 lj/cut 0.00070000000 3.5500000000
pair_coeff 10 31 lj/cut 0.00070000000 3.5500000000
pair_coeff 10 32 lj/cut 0.00070000000 3.5500000000

pair_coeff 11 12 lj/cut 0.00070000000 3.5500000000
pair_coeff 11 13 lj/cut 0.00070000000 3.5500000000
pair_coeff 11 14 lj/cut 0.00070000000 3.5500000000
pair_coeff 11 15 lj/cut 0.00070000000 3.5500000000
pair_coeff 11 16 lj/cut 0.00070000000 3.5500000000
pair_coeff 11 17 lj/cut 0.00070000000 3.5500000000
pair_coeff 11 18 lj/cut 0.00070000000 3.5500000000
pair_coeff 11 19 lj/cut 0.00070000000 3.5500000000
pair_coeff 11 20 lj/cut 0.00070000000 3.5500000000
pair_coeff 11 21 lj/cut 0.00070000000 3.5500000000
pair_coeff 11 22 lj/cut 0.00070000000 3.5500000000
pair_coeff 11 23 lj/cut 0.00070000000 3.5500000000
pair_coeff 11 24 lj/cut 0.00070000000 3.5500000000
pair_coeff 11 25 lj/cut 0.00070000000 3.5500000000
pair_coeff 11 26 lj/cut 0.00070000000 3.5500000000
pair_coeff 11 27 lj/cut 0.00070000000 3.5500000000
pair_coeff 11 28 lj/cut 0.00070000000 3.5500000000
pair_coeff 11 29 lj/cut 0.00070000000 3.5500000000
pair_coeff 11 30 lj/cut 0.00070000000 3.5500000000
pair_coeff 11 31 lj/cut 0.00070000000 3.5500000000
pair_coeff 11 32 lj/cut 0.00070000000 3.5500000000

pair_coeff 12 13 lj/cut 0.00070000000 3.5500000000
pair_coeff 12 14 lj/cut 0.00070000000 3.5500000000
pair_coeff 12 15 lj/cut 0.00070000000 3.5500000000
pair_coeff 12 16 lj/cut 0.00070000000 3.5500000000
pair_coeff 12 17 lj/cut 0.00070000000 3.5500000000
pair_coeff 12 18 lj/cut 0.00070000000 3.5500000000
pair_coeff 12 19 lj/cut 0.00070000000 3.5500000000
pair_coeff 12 20 lj/cut 0.00070000000 3.5500000000
pair_coeff 12 21 lj/cut 0.00070000000 3.5500000000
pair_coeff 12 22 lj/cut 0.00070000000 3.5500000000
pair_coeff 12 23 lj/cut 0.00070000000 3.5500000000
pair_coeff 12 24 lj/cut 0.00070000000 3.5500000000
pair_coeff 12 25 lj/cut 0.00070000000 3.5500000000
pair_coeff 12 26 lj/cut 0.00070000000 3.5500000000
pair_coeff 12 27 lj/cut 0.00070000000 3.5500000000
pair_coeff 12 28 lj/cut 0.00070000000 3.5500000000
pair_coeff 12 29 lj/cut 0.00070000000 3.5500000000
pair_coeff 12 30 lj/cut 0.00070000000 3.5500000000
pair_coeff 12 31 lj/cut 0.00070000000 3.5500000000
pair_coeff 12 32 lj/cut 0.00070000000 3.5500000000

pair_coeff 13 14 lj/cut 0.00070000000 3.5500000000
pair_coeff 13 15 lj/cut 0.00070000000 3.5500000000
pair_coeff 13 16 lj/cut 0.00070000000 3.5500000000
pair_coeff 13 17 lj/cut 0.00070000000 3.5500000000
pair_coeff 13 18 lj/cut 0.00070000000 3.5500000000
pair_coeff 13 19 lj/cut 0.00070000000 3.5500000000
pair_coeff 13 20 lj/cut 0.00070000000 3.5500000000
pair_coeff 13 21 lj/cut 0.00070000000 3.5500000000
pair_coeff 13 22 lj/cut 0.00070000000 3.5500000000
pair_coeff 13 23 lj/cut 0.00070000000 3.5500000000
pair_coeff 13 24 lj/cut 0.00070000000 3.5500000000
pair_coeff 13 25 lj/cut 0.00070000000 3.5500000000
pair_coeff 13 26 lj/cut 0.00070000000 3.5500000000
pair_coeff 13 27 lj/cut 0.00070000000 3.5500000000
pair_coeff 13 28 lj/cut 0.00070000000 3.5500000000
pair_coeff 13 29 lj/cut 0.00070000000 3.5500000000
pair_coeff 13 30 lj/cut 0.00070000000 3.5500000000
pair_coeff 13 31 lj/cut 0.00070000000 3.5500000000
pair_coeff 13 32 lj/cut 0.00070000000 3.5500000000

pair_coeff 14 15 lj/cut 0.00070000000 3.5500000000
pair_coeff 14 16 lj/cut 0.00070000000 3.5500000000
pair_coeff 14 17 lj/cut 0.00070000000 3.5500000000
pair_coeff 14 18 lj/cut 0.00070000000 3.5500000000
pair_coeff 14 19 lj/cut 0.00070000000 3.5500000000
pair_coeff 14 20 lj/cut 0.00070000000 3.5500000000
pair_coeff 14 21 lj/cut 0.00070000000 3.5500000000
pair_coeff 14 22 lj/cut 0.00070000000 3.5500000000
pair_coeff 14 23 lj/cut 0.00070000000 3.5500000000
pair_coeff 14 24 lj/cut 0.00070000000 3.5500000000
pair_coeff 14 25 lj/cut 0.00070000000 3.5500000000
pair_coeff 14 26 lj/cut 0.00070000000 3.5500000000
pair_coeff 14 27 lj/cut 0.00070000000 3.5500000000
pair_coeff 14 28 lj/cut 0.00070000000 3.5500000000
pair_coeff 14 29 lj/cut 0.00070000000 3.5500000000
pair_coeff 14 30 lj/cut 0.00070000000 3.5500000000
pair_coeff 14 31 lj/cut 0.00070000000 3.5500000000
pair_coeff 14 32 lj/cut 0.00070000000 3.5500000000

pair_coeff 15 16 lj/cut 0.00070000000 3.5500000000
pair_coeff 15 17 lj/cut 0.00070000000 3.5500000000
pair_coeff 15 18 lj/cut 0.00070000000 3.5500000000
pair_coeff 15 19 lj/cut 0.00070000000 3.5500000000
pair_coeff 15 20 lj/cut 0.00070000000 3.5500000000
pair_coeff 15 21 lj/cut 0.00070000000 3.5500000000
pair_coeff 15 22 lj/cut 0.00070000000 3.5500000000
pair_coeff 15 23 lj/cut 0.00070000000 3.5500000000
pair_coeff 15 24 lj/cut 0.00070000000 3.5500000000
pair_coeff 15 25 lj/cut 0.00070000000 3.5500000000
pair_coeff 15 26 lj/cut 0.00070000000 3.5500000000
pair_coeff 15 27 lj/cut 0.00070000000 3.5500000000
pair_coeff 15 28 lj/cut 0.00070000000 3.5500000000
pair_coeff 15 29 lj/cut 0.00070000000 3.5500000000
pair_coeff 15 30 lj/cut 0.00070000000 3.5500000000
pair_coeff 15 31 lj/cut 0.00070000000 3.5500000000
pair_coeff 15 32 lj/cut 0.00070000000 3.5500000000

pair_coeff 16 17 lj/cut 0.00070000000 3.5500000000
pair_coeff 16 18 lj/cut 0.00070000000 3.5500000000
pair_coeff 16 19 lj/cut 0.00070000000 3.5500000000
pair_coeff 16 20 lj/cut 0.00070000000 3.5500000000
pair_coeff 16 21 lj/cut 0.00070000000 3.5500000000
pair_coeff 16 22 lj/cut 0.00070000000 3.5500000000
pair_coeff 16 23 lj/cut 0.00070000000 3.5500000000
pair_coeff 16 24 lj/cut 0.00070000000 3.5500000000
pair_coeff 16 25 lj/cut 0.00070000000 3.5500000000
pair_coeff 16 26 lj/cut 0.00070000000 3.5500000000
pair_coeff 16 27 lj/cut 0.00070000000 3.5500000000
pair_coeff 16 28 lj/cut 0.00070000000 3.5500000000
pair_coeff 16 29 lj/cut 0.00070000000 3.5500000000
pair_coeff 16 30 lj/cut 0.00070000000 3.5500000000
pair_coeff 16 31 lj/cut 0.00070000000 3.5500000000
pair_coeff 16 32 lj/cut 0.00070000000 3.5500000000

pair_coeff 17 18 lj/cut 0.00070000000 3.5500000000
pair_coeff 17 19 lj/cut 0.00070000000 3.5500000000
pair_coeff 17 20 lj/cut 0.00070000000 3.5500000000
pair_coeff 17 21 lj/cut 0.00070000000 3.5500000000
pair_coeff 17 22 lj/cut 0.00070000000 3.5500000000
pair_coeff 17 23 lj/cut 0.00070000000 3.5500000000
pair_coeff 17 24 lj/cut 0.00070000000 3.5500000000
pair_coeff 17 25 lj/cut 0.00070000000 3.5500000000
pair_coeff 17 26 lj/cut 0.00070000000 3.5500000000
pair_coeff 17 27 lj/cut 0.00070000000 3.5500000000
pair_coeff 17 28 lj/cut 0.00070000000 3.5500000000
pair_coeff 17 29 lj/cut 0.00070000000 3.5500000000
pair_coeff 17 30 lj/cut 0.00070000000 3.5500000000
pair_coeff 17 31 lj/cut 0.00070000000 3.5500000000
pair_coeff 17 32 lj/cut 0.00070000000 3.5500000000

pair_coeff 18 19 lj/cut 0.00070000000 3.5500000000
pair_coeff 18 20 lj/cut 0.00070000000 3.5500000000
pair_coeff 18 21 lj/cut 0.00070000000 3.5500000000
pair_coeff 18 22 lj/cut 0.00070000000 3.5500000000
pair_coeff 18 23 lj/cut 0.00070000000 3.5500000000
pair_coeff 18 24 lj/cut 0.00070000000 3.5500000000
pair_coeff 18 25 lj/cut 0.00070000000 3.5500000000
pair_coeff 18 26 lj/cut 0.00070000000 3.5500000000
pair_coeff 18 27 lj/cut 0.00070000000 3.5500000000
pair_coeff 18 28 lj/cut 0.00070000000 3.5500000000
pair_coeff 18 29 lj/cut 0.00070000000 3.5500000000
pair_coeff 18 30 lj/cut 0.00070000000 3.5500000000
pair_coeff 18 31 lj/cut 0.00070000000 3.5500000000
pair_coeff 18 32 lj/cut 0.00070000000 3.5500000000

pair_coeff 19 20 lj/cut 0.00070000000 3.5500000000
pair_coeff 19 21 lj/cut 0.00070000000 3.5500000000
pair_coeff 19 22 lj/cut 0.00070000000 3.5500000000
pair_coeff 19 23 lj/cut 0.00070000000 3.5500000000
pair_coeff 19 24 lj/cut 0.00070000000 3.5500000000
pair_coeff 19 25 lj/cut 0.00070000000 3.5500000000
pair_coeff 19 26 lj/cut 0.00070000000 3.5500000000
pair_coeff 19 27 lj/cut 0.00070000000 3.5500000000
pair_coeff 19 28 lj/cut 0.00070000000 3.5500000000
pair_coeff 19 29 lj/cut 0.00070000000 3.5500000000
pair_coeff 19 30 lj/cut 0.00070000000 3.5500000000
pair_coeff 19 31 lj/cut 0.00070000000 3.5500000000
pair_coeff 19 32 lj/cut 0.00070000000 3.5500000000

pair_coeff 20 21 lj/cut 0.00070000000 3.5500000000
pair_coeff 20 22 lj/cut 0.00070000000 3.5500000000
pair_coeff 20 23 lj/cut 0.00070000000 3.5500000000
pair_coeff 20 24 lj/cut 0.00070000000 3.5500000000
pair_coeff 20 25 lj/cut 0.00070000000 3.5500000000
pair_coeff 20 26 lj/cut 0.00070000000 3.5500000000
pair_coeff 20 27 lj/cut 0.00070000000 3.5500000000
pair_coeff 20 28 lj/cut 0.00070000000 3.5500000000
pair_coeff 20 29 lj/cut 0.00070000000 3.5500000000
pair_coeff 20 30 lj/cut 0.00070000000 3.5500000000
pair_coeff 20 31 lj/cut 0.00070000000 3.5500000000
pair_coeff 20 32 lj/cut 0.00070000000 3.5500000000

pair_coeff 21 22 lj/cut 0.00070000000 3.5500000000
pair_coeff 21 23 lj/cut 0.00070000000 3.5500000000
pair_coeff 21 24 lj/cut 0.00070000000 3.5500000000
pair_coeff 21 25 lj/cut 0.00070000000 3.5500000000
pair_coeff 21 26 lj/cut 0.00070000000 3.5500000000
pair_coeff 21 27 lj/cut 0.00070000000 3.5500000000
pair_coeff 21 28 lj/cut 0.00070000000 3.5500000000
pair_coeff 21 29 lj/cut 0.00070000000 3.5500000000
pair_coeff 21 30 lj/cut 0.00070000000 3.5500000000
pair_coeff 21 31 lj/cut 0.00070000000 3.5500000000
pair_coeff 21 32 lj/cut 0.00070000000 3.5500000000

pair_coeff 22 23 lj/cut 0.00070000000 3.5500000000
pair_coeff 22 24 lj/cut 0.00070000000 3.5500000000
pair_coeff 22 25 lj/cut 0.00070000000 3.5500000000
pair_coeff 22 26 lj/cut 0.00070000000 3.5500000000
pair_coeff 22 27 lj/cut 0.00070000000 3.5500000000
pair_coeff 22 28 lj/cut 0.00070000000 3.5500000000
pair_coeff 22 29 lj/cut 0.00070000000 3.5500000000
pair_coeff 22 30 lj/cut 0.00070000000 3.5500000000
pair_coeff 22 31 lj/cut 0.00070000000 3.5500000000
pair_coeff 22 32 lj/cut 0.00070000000 3.5500000000

pair_coeff 23 24 lj/cut 0.00070000000 3.5500000000
pair_coeff 23 25 lj/cut 0.00070000000 3.5500000000
pair_coeff 23 26 lj/cut 0.00070000000 3.5500000000
pair_coeff 23 27 lj/cut 0.00070000000 3.5500000000
pair_coeff 23 28 lj/cut 0.00070000000 3.5500000000
pair_coeff 23 29 lj/cut 0.00070000000 3.5500000000
pair_coeff 23 30 lj/cut 0.00070000000 3.5500000000
pair_coeff 23 31 lj/cut 0.00070000000 3.5500000000
pair_coeff 23 32 lj/cut 0.00070000000 3.5500000000

pair_coeff 24 25 lj/cut 0.00070000000 3.5500000000
pair_coeff 24 26 lj/cut 0.00070000000 3.5500000000
pair_coeff 24 27 lj/cut 0.00070000000 3.5500000000
pair_coeff 24 28 lj/cut 0.00070000000 3.5500000000
pair_coeff 24 29 lj/cut 0.00070000000 3.5500000000
pair_coeff 24 30 lj/cut 0.00070000000 3.5500000000
pair_coeff 24 31 lj/cut 0.00070000000 3.5500000000
pair_coeff 24 32 lj/cut 0.00070000000 3.5500000000

pair_coeff 25 26 lj/cut 0.00070000000 3.5500000000
pair_coeff 25 27 lj/cut 0.00070000000 3.5500000000
pair_coeff 25 28 lj/cut 0.00070000000 3.5500000000
pair_coeff 25 29 lj/cut 0.00070000000 3.5500000000
pair_coeff 25 30 lj/cut 0.00070000000 3.5500000000
pair_coeff 25 31 lj/cut 0.00070000000 3.5500000000
pair_coeff 25 32 lj/cut 0.00070000000 3.5500000000

pair_coeff 26 27 lj/cut 0.00070000000 3.5500000000
pair_coeff 26 28 lj/cut 0.00070000000 3.5500000000
pair_coeff 26 29 lj/cut 0.00070000000 3.5500000000
pair_coeff 26 30 lj/cut 0.00070000000 3.5500000000
pair_coeff 26 31 lj/cut 0.00070000000 3.5500000000
pair_coeff 26 32 lj/cut 0.00070000000 3.5500000000

pair_coeff 27 28 lj/cut 0.00070000000 3.5500000000
pair_coeff 27 29 lj/cut 0.00070000000 3.5500000000
pair_coeff 27 30 lj/cut 0.00070000000 3.5500000000
pair_coeff 27 31 lj/cut 0.00070000000 3.5500000000
pair_coeff 27 32 lj/cut 0.00070000000 3.5500000000

pair_coeff 28 29 lj/cut 0.00070000000 3.5500000000
pair_coeff 28 30 lj/cut 0.00070000000 3.5500000000
pair_coeff 28 31 lj/cut 0.00070000000 3.5500000000
pair_coeff 28 32 lj/cut 0.00070000000 3.5500000000

pair_coeff 29 30 lj/cut 0.00070000000 3.5500000000
pair_coeff 29 31 lj/cut 0.00070000000 3.5500000000
pair_coeff 29 32 lj/cut 0.00070000000 3.5500000000

pair_coeff 30 31 lj/cut 0.00070000000 3.5500000000
pair_coeff 30 32 lj/cut 0.00070000000 3.5500000000

pair_coeff 31 32 lj/cut 0.00070000000 3.5500000000

special_bonds lj 0.0 0.0 0.0 coul 0.0 0.0 0.0

#pair_style tersoff
#pair_coeff * * C.4.tersoff 1 2 3 4

#pair_style lj/cut 12.0
#pair_coeff 1 1 0.00070000000 3.5500000000
#special_bonds lj 0.0 0.0 0.0 coul 0.0 0.0 0.0
###########################################################################

###########################################################################
#run parameters
###########################################################################
variable   	dt 		equal 0.001
variable 	T_run 		equal 300
variable 	seed 		equal 11111

velocity 		all create ${T_run} ${seed} rot yes dist gaussian
velocity 		all create 300 ${seed} rot yes dist gaussian
velocity 		all create 300 11111 rot yes dist gaussian

#--------------------------------------------------------------------------
#nvtanneal
#--------------------------------------------------------------------------
fix 		1 all nvt temp 300 300 1.0
dump		1 all xyz 10 dump.xyz
dump_modify 	1 sort id
compute 	myDis all msd
thermo_style  	custom step temp press etotal pe ke vol c_myDis[4]
thermo			10
timestep		${dt}
timestep		0.0010000000000000000208
#run			500000
run			5000
Memory usage per processor = 8.19755 Mbytes
Step Temp Press TotEng PotEng KinEng Volume myDis[4] 
       0          300    186363.81   -12582.676   -12657.091    74.415065    22906.304            0 
      10    775.58595    127162.38   -12582.683   -12775.068    192.38426    22906.304 0.0065502278 
      20    1104.5699   -10827.259   -12582.846   -12856.835     273.9888    22906.304  0.041833782 
      30    454.07669   -114568.89   -12582.627   -12695.261    112.63382    22906.304  0.095793905 
      40    382.15302   -129640.82   -12582.745   -12677.538    94.793141    22906.304   0.10226719 
      50    939.17857   -50454.908   -12583.141   -12816.104    232.96345    22906.304  0.059642132 
      60    929.00224    81098.695   -12583.619   -12814.058    230.43921    22906.304  0.024936319 
      70    327.67485    169558.67   -12583.573   -12664.853    81.279818    22906.304  0.019537179 
      80    616.82486     148178.4   -12583.948   -12736.951    153.00354    22906.304  0.021742039 
      90     1059.837     28920.46   -12584.569   -12847.462    262.89281    22906.304  0.045071035 
     100    695.87099   -85585.775   -12584.982   -12757.593    172.61095    22906.304  0.097318008 
     110    329.77397   -126971.03   -12585.077   -12666.877    81.800506    22906.304   0.12593392 
     120    816.27402   -77271.001   -12585.654   -12788.131    202.47695    22906.304   0.09714946 
     130    976.14406    38059.914   -12586.413   -12828.546    242.13275    22906.304   0.05995515 
     140    494.07598    144158.92   -12586.803   -12709.358    122.55565    22906.304  0.052661783 
     150    508.19714    159931.28   -12587.153   -12713.212    126.05841    22906.304  0.064233089 
     160    984.57889    65494.873   -12587.874   -12832.099    244.22501    22906.304  0.092013924 
     170    792.12667   -55883.489   -12588.435   -12784.922    196.48719    22906.304   0.14438522 
     180    350.73574    -121408.2   -12588.624   -12675.624    87.000076    22906.304   0.18490386 
     190    663.16641   -99997.523   -12589.108   -12753.606    164.49857    22906.304   0.17425623 
     200    970.56373   -6212.8116   -12589.823   -12830.572    240.74855    22906.304   0.14097455 
     210    625.95667    106382.56   -12590.305   -12745.573    155.26869    22906.304   0.12641136 
     220    458.72236    159424.05   -12590.615   -12704.401    113.78618    22906.304    0.1324744 
     230    845.03867    102973.69   -12591.143   -12800.755    209.61203    22906.304   0.15547508 
     240    866.68635   -9710.4466   -12591.677   -12806.659    214.98174    22906.304   0.20437321 
     250    492.10751   -95477.239   -12591.889   -12713.957    122.06738    22906.304   0.25167143 
     260    559.81491   -105263.95   -12592.196   -12731.058    138.86221    22906.304   0.25638085 
     270    829.11589   -39387.069   -12592.756   -12798.418    205.66238    22906.304   0.22936645 
     280    710.96144    63053.286   -12593.269   -12769.623    176.35414    22906.304   0.20981234 
     290    476.89742    138251.57   -12593.587   -12711.882    118.29451    22906.304   0.21061285 
     300    740.27355    123608.23   -12594.145    -12777.77    183.62502    22906.304   0.22627376 
     310    856.39691    26655.093   -12594.651   -12807.081    212.42944    22906.304   0.26329044 
     320    602.02562   -68281.101   -12595.008   -12744.341    149.33259    22906.304    0.3089257 
     330    499.27555   -100781.33   -12595.306   -12719.151    123.84541    22906.304     0.326277 
     340    731.99922   -63484.425   -12595.792   -12777.365    181.57257    22906.304   0.30538725 
     350    798.19277    22705.591   -12596.436   -12794.428    197.99189    22906.304     0.276046 
     360    576.38222    109499.45   -12596.967   -12739.939    142.97173    22906.304    0.2659699 
     370    595.18873     129075.2   -12597.345   -12744.981     147.6367    22906.304   0.27702186 
     380    835.37611    63175.724   -12597.984   -12805.199    207.21523    22906.304   0.30794484 
     390    701.81778   -32019.406   -12598.496   -12772.582    174.08605    22906.304   0.35168358 
     400    500.67313    -87123.06   -12598.836   -12723.028    124.19208    22906.304   0.37938269 
     410    617.14502   -76214.968   -12599.268   -12752.351    153.08296    22906.304   0.36992247 
     420    806.23162   -11347.771   -12599.995   -12799.981    199.98593    22906.304   0.34170029 
     430    624.20432    72856.346   -12600.509   -12755.343    154.83402    22906.304   0.32482499 
     440    539.08748    119400.05   -12600.936   -12734.656    133.72077    22906.304   0.32680615 
     450    748.20225    88199.018   -12601.585   -12787.177    185.59173    22906.304   0.34687385 
     460     732.0622    6742.9669   -12602.146   -12783.734    181.58819    22906.304    0.3845636 
     470    547.03181    -61319.76   -12602.596   -12738.287    135.69136    22906.304      0.41829 
     480    560.83333   -77569.929   -12603.054   -12742.169    139.11483    22906.304   0.42329228 
     490    744.02737   -36019.905   -12603.752   -12788.308    184.55615    22906.304   0.40125195 
     500    666.76699    37394.607   -12604.323   -12769.714     165.3917    22906.304   0.38071219 
     510    571.82312    97311.896   -12604.852   -12746.693    141.84085    22906.304   0.37752312 
     520    664.30722    97201.543   -12605.421   -12770.203    164.78155    22906.304   0.39377924 
     530    737.12891    35054.475   -12606.027   -12788.872    182.84499    22906.304   0.42724066 
     540    603.81905    -37551.33   -12606.533    -12756.31    149.77745    22906.304   0.46486766 
     550    552.92888   -70553.252   -12607.021   -12744.175    137.15413    22906.304   0.48145273 
     560    681.04806    -50453.99   -12607.621   -12776.555    168.93412    22906.304   0.46988534 
     570    710.38732    8218.2904   -12608.306   -12784.517    176.21173    22906.304   0.44927884 
     580    595.90822    71247.644   -12608.862   -12756.678    147.81516    22906.304   0.44040694 
     590    627.66021    94889.059   -12609.411   -12765.102    155.69125    22906.304   0.45125158 
     600     734.8141    58187.601   -12610.012   -12792.283     182.2708    22906.304   0.48141548 
     610    648.02625   -9099.6332   -12610.543   -12771.286    160.74305    22906.304   0.52126654 
     620    555.50411   -56146.689   -12611.021   -12748.814    137.79292    22906.304   0.54867809 
     630    625.36172   -55274.189   -12611.571   -12766.692    155.12111    22906.304   0.54789042 
     640    702.96421    -13888.74   -12612.204   -12786.574    174.37043    22906.304   0.53143278 
     650    597.44247    45130.675    -12612.79   -12760.985    148.19574    22906.304   0.52096457 
     660    601.51318    83671.201   -12613.348   -12762.553    149.20548    22906.304   0.52486296 
     670    698.96768    69826.171   -12613.966   -12787.345    173.37909    22906.304   0.54749098 
     680    661.61092    16076.514   -12614.512   -12778.625    164.11273    22906.304   0.58542614 
     690    552.97613   -35761.364    -12614.99   -12752.156    137.16585    22906.304   0.61830215 
     700    587.91655   -50733.442   -12615.502   -12761.335    145.83283    22906.304   0.62643534 
     710    683.91814    -25176.46   -12616.109   -12785.755    169.64604    22906.304   0.61277369 
     720    623.48343    22160.827   -12616.713   -12771.369     154.6552    22906.304   0.59847761 
     730    557.80846    64150.574   -12617.238   -12755.603    138.36451    22906.304    0.5980517 
     740    666.70798    70857.223   -12617.897   -12783.274    165.37706    22906.304   0.61498196 
     750    686.03552     33913.41   -12618.494   -12788.665    170.17126    22906.304   0.64749913 
     760    578.71223   -15633.805   -12619.019   -12762.569     143.5497    22906.304   0.68230915 
     770    547.48622   -42027.182   -12619.517   -12755.321    135.80408    22906.304   0.69922853 
     780     662.6071   -32310.785   -12620.112   -12784.472    164.35984    22906.304   0.69335974 
     790    663.36739    4733.7072    -12620.75   -12785.299    164.54843    22906.304   0.68064064 
     800    562.93198    44288.654   -12621.322   -12760.957     139.6354    22906.304   0.67636868 
     810    609.16815    62780.787    -12621.85   -12772.954    151.10429    22906.304   0.68642057 
     820     692.6658    45827.217    -12622.44   -12794.256     171.8159    22906.304   0.71377883 
     830    583.93359    3725.2902   -12622.972   -12767.817    144.84485    22906.304   0.75100673 
     840    538.42956   -28850.329   -12623.495   -12757.053    133.55757    22906.304   0.77643985 
     850    625.50524     -30288.6   -12624.061   -12779.218    155.15671    22906.304      0.77866 
     860    664.76707   -6234.3307   -12624.724   -12789.619    164.89562    22906.304   0.76990687 
     870     570.7077    26816.137   -12625.313   -12766.877    141.56417    22906.304   0.76681375 
     880    547.38797    50233.734   -12625.779   -12761.559    135.77971    22906.304   0.77447661 
     890     684.7099    47588.841   -12626.415   -12796.257    169.84244    22906.304   0.79510397 
     900    634.51202    18264.086   -12627.027   -12784.418    157.39085    22906.304   0.82939518 
     910    524.55817   -14315.056   -12627.522   -12757.639    130.11677    22906.304    0.8615079 
     920    556.10124   -24187.763   -12627.994   -12765.935    137.94103    22906.304   0.87353406 
     930    679.18207   -9106.5039   -12628.653   -12797.124    168.47126    22906.304     0.867925 
     940    609.35724    14800.934   -12629.261   -12780.412     151.1512    22906.304   0.86318906 
     950    513.18403    36729.993   -12629.758   -12757.054    127.29541    22906.304     0.869768 
     960    624.01377    41959.415   -12630.341   -12785.128    154.78675    22906.304   0.88826745 
     970     670.7707    25355.943   -12630.941   -12797.326    166.38482    22906.304   0.91894199 
     980    558.44145    -2067.593   -12631.465   -12769.987    138.52152    22906.304   0.95300606 
     990     517.5378   -16899.513   -12631.962   -12760.337    128.37536    22906.304   0.97336208 
    1000    624.16581   -11075.153   -12632.568   -12787.392    154.82447    22906.304   0.97636319 
    1010    643.71917    7647.9992   -12633.202   -12792.876    159.67468    22906.304   0.97481245 
    1020    533.62719     26028.86   -12633.691   -12766.058    132.36634    22906.304   0.98000742 
    1030    583.19895    33827.683   -12634.274   -12778.937    144.66263    22906.304   0.99490918 
    1040     649.7529    26122.649   -12634.882   -12796.053    161.17135    22906.304    1.0226787 
    1050    587.87315    6678.1511   -12635.458    -12781.28    145.82206    22906.304    1.0584261 
    1060    517.99033   -9221.2277   -12635.928   -12764.416    128.48761    22906.304    1.0861488 
    1070    594.54165   -7943.8684   -12636.509   -12783.985    147.47619    22906.304    1.0949782 
    1080    640.82853    5111.2956   -12637.125   -12796.083    158.95766    22906.304    1.0948475 
    1090    563.10502    18455.401   -12637.666   -12777.344    139.67832    22906.304    1.1007834 
    1100    538.11717    26228.597     -12638.2    -12771.68    133.48008    22906.304    1.1172088 
    1110    625.14135    23890.068   -12638.792   -12793.859    155.06645    22906.304    1.1423368 
    1120    620.12274    11760.856   -12639.389   -12793.211    153.82158    22906.304    1.1742137 
    1130    537.08232   -1102.3782   -12639.916   -12773.139    133.22339    22906.304    1.2031829 
    1140    538.88867    -2914.588     -12640.4   -12774.071    133.67145    22906.304    1.2183514 
    1150    619.47451    6594.0302   -12640.973   -12794.634    153.66079    22906.304     1.221194 
    1160     607.5809    16203.279   -12641.577   -12792.287    150.71057    22906.304     1.224394 
    1170    512.88146    19728.051   -12642.073   -12769.293    127.22036    22906.304    1.2371313 
    1180    566.89602    18590.896   -12642.615   -12783.234    140.61868    22906.304    1.2586858 
    1190    630.14686    11773.656   -12643.221   -12799.529    156.30807    22906.304    1.2868702 
    1200     568.2971     2732.908   -12643.784   -12784.751    140.96622    22906.304    1.3157003 
    1210    504.44029    1355.0357    -12644.25   -12769.376    125.12652    22906.304    1.3338553 
    1220    575.97469    7970.4301    -12644.78   -12787.651    142.87065    22906.304    1.3385829 
    1230    617.59746    15817.298   -12645.379   -12798.574    153.19519    22906.304    1.3413463 
    1240    529.19962    17994.976   -12645.882   -12777.151    131.26808    22906.304     1.352201 
    1250    523.62965    13811.021   -12646.395   -12776.282    129.88645    22906.304    1.3708334 
    1260     608.8388    8355.6619   -12646.995   -12798.017     151.0226    22906.304    1.3951343 
    1270    570.71978     2935.902   -12647.549   -12789.116    141.56717    22906.304    1.4229447 
    1280    509.34459    3026.0568   -12648.054   -12774.397    126.34304    22906.304      1.44426 
    1290    547.51772    10622.631   -12648.606   -12784.418    135.81189    22906.304    1.4524183 
    1300    610.96105    19168.954   -12649.225   -12800.774    151.54902    22906.304     1.454334 
    1310    560.57409    19056.192   -12649.753   -12788.804    139.05052    22906.304    1.4630416 
    1320    516.01049    11914.779   -12650.258   -12778.254    127.99652    22906.304    1.4817675 
    1330     577.9515    4357.8226   -12650.811   -12794.172      143.361    22906.304    1.5057341 
    1340    595.04109    939.69449   -12651.372   -12798.972    147.60007    22906.304    1.5311742 
    1350      524.887    3209.1793   -12651.838   -12782.037    130.19834    22906.304    1.5526079 
    1360    521.23384      11693.8   -12652.346   -12781.639    129.29217    22906.304    1.5641438 
    1370    575.96977     21455.85   -12652.921    -12795.79    142.86943    22906.304    1.5686466 
    1380    580.86663    23005.309   -12653.478   -12797.562    144.08409    22906.304    1.5756269 
    1390    524.06122    13718.894    -12653.97   -12783.963     129.9935    22906.304    1.5916701 
    1400    533.01004    2957.8565   -12654.487   -12786.701    132.21326    22906.304     1.615657 
    1410    575.69683   -2703.1343   -12655.035   -12797.837    142.80172    22906.304     1.642347 
    1420    548.43514   -326.63182    -12655.52    -12791.56    136.03945    22906.304    1.6654019 
    1430    510.17419    9034.2042   -12656.065   -12782.614    126.54882    22906.304    1.6788905 
    1440    540.65167    21640.664   -12656.591     -12790.7    134.10877    22906.304    1.6831328 
    1450    578.67536     27382.55   -12657.117   -12800.657    143.54055    22906.304    1.6876638 
    1460    533.55057    19299.571   -12657.617   -12789.965    132.34733    22906.304    1.7027478 
    1470     499.1519    4263.9735   -12658.087   -12781.902    123.81474    22906.304    1.7268302 
    1480    539.41703   -5974.5196   -12658.607   -12792.409    133.80251    22906.304    1.7534911 
    1490    567.99427   -5660.8302   -12659.187   -12800.078     140.8911    22906.304    1.7784913 
    1500    512.18357    4522.5123   -12659.668   -12786.715    127.04725    22906.304    1.7976388 
    1510    510.56722     20073.31   -12660.184   -12786.831    126.64631    22906.304    1.8076392 
    1520    557.28708    30615.205   -12660.746   -12798.981    138.23518    22906.304    1.8132826 
    1530     555.5393     26274.81   -12661.271   -12799.073    137.80164    22906.304    1.8253674 
    1540    508.40158    9572.7613   -12661.771    -12787.88    126.10912    22906.304    1.8492881 
    1550    517.05739   -6159.4022   -12662.228   -12790.484     128.2562    22906.304    1.8790754 
    1560    548.84476   -10071.067   -12662.754   -12798.895    136.14106    22906.304    1.9061719 
    1570    528.81154   -1384.8113   -12663.276   -12794.448    131.17182    22906.304    1.9257873 
    1580    517.96825    15359.088   -12663.813   -12792.295    128.48214    22906.304    1.9369986 
    1590    523.99784    30433.517    -12664.33   -12794.307    129.97778    22906.304    1.9446152 
    1600    556.15098    32055.002   -12664.852   -12802.806    137.95337    22906.304    1.9565039 
    1610    523.38709    16931.931   -12665.311   -12795.138    129.82628    22906.304     1.979483 
    1620    513.49545   -2431.5006   -12665.786   -12793.159    127.37266    22906.304    2.0109563 
    1630    520.51206    -12974.01   -12666.293   -12795.406    129.11313    22906.304    2.0437945 
    1640    534.12543   -8225.4963   -12666.811   -12799.301    132.48993    22906.304     2.069173 
    1650    518.73074    8494.7899   -12667.314   -12795.985    128.67127    22906.304    2.0839141 
    1660    511.62016    27497.428   -12667.816   -12794.723    126.90749    22906.304     2.090922 
    1670    530.39872    35702.383   -12668.304    -12799.87    131.56552    22906.304    2.0993111 
    1680    536.18952    25254.919   -12668.803   -12801.804    133.00193    22906.304    2.1182477 
    1690    504.01972    4468.1405   -12669.272   -12794.294     125.0222    22906.304    2.1485913 
    1700    496.04331   -12240.561   -12669.728   -12792.772    123.04365    22906.304    2.1818467 
    1710    523.36125   -13955.781   -12670.246   -12800.066    129.81987    22906.304    2.2095851 
    1720    523.25101    292.01078   -12670.751   -12800.544    129.79253    22906.304    2.2283904 
    1730     500.5602    21153.802   -12671.251   -12795.415    124.16407    22906.304    2.2400051 
    1740    512.21096    36055.259   -12671.758   -12798.812    127.05404    22906.304     2.249661 
    1750    529.55464    32897.787   -12672.215   -12803.571    131.35614    22906.304    2.2664372 
    1760    507.87392     13247.34   -12672.669   -12798.647    125.97824    22906.304    2.2962666 
    1770    482.55512   -8555.7784   -12673.124   -12792.822     119.6979    22906.304    2.3332647 
    1780    500.64258   -17318.273   -12673.619   -12797.803     124.1845    22906.304    2.3647508 
    1790    521.50898   -8300.8864   -12674.129    -12803.49    129.36042    22906.304    2.3843554 
    1800    510.97461    12543.494   -12674.636   -12801.383    126.74736    22906.304    2.3940582 
    1810     498.9524    32145.165   -12675.147   -12798.912    123.76525    22906.304    2.4009612 
    1820    508.64831     37480.77   -12675.614   -12801.785    126.17032    22906.304    2.4142313 
    1830    522.73406    22671.841   -12676.097   -12805.762     129.6643    22906.304    2.4400786 
    1840    500.65554   -1068.9573   -12676.539   -12800.727    124.18772    22906.304    2.4767161 
    1850    492.36646   -16709.836   -12677.008   -12799.139    122.13161    22906.304    2.5145253 
    1860    500.42726    -14784.81   -12677.463   -12801.594    124.13109    22906.304    2.5435058 
    1870    512.00886    2836.1674   -12677.977   -12804.981    127.00391    22906.304    2.5600654 
    1880    497.59593    25801.731   -12678.447   -12801.875    123.42878    22906.304     2.568865 
    1890    489.01745    38761.708   -12678.901   -12800.202    121.30089    22906.304    2.5785223 
    1900    517.09506    31029.658   -12679.406   -12807.672    128.26554    22906.304    2.5980821 
    1910    497.75377    8657.1981   -12679.842    -12803.31    123.46793    22906.304    2.6304049 
    1920    484.69179   -11987.752   -12680.292    -12800.52     120.2279    22906.304    2.6668534 
    1930    488.17481   -18045.369   -12680.735   -12801.826    121.09187    22906.304    2.6969776 
    1940    498.43802    -5701.342     -12681.2   -12804.837    123.63766    22906.304    2.7158088 
    1950    490.77362    16791.138   -12681.686   -12803.422     121.7365    22906.304    2.7259814 
    1960    487.98142    35593.149   -12682.188   -12803.232     121.0439    22906.304    2.7351414 
    1970    495.42386    36922.538    -12682.63    -12805.52       122.89    22906.304    2.7522992 
    1980    502.85603    19536.536   -12683.056    -12807.79    124.73355    22906.304    2.7823634 
    1990    478.13738   -4184.3679   -12683.505   -12802.107    118.60208    22906.304    2.8210838 
    2000    465.73219   -18005.537   -12683.941   -12799.466    115.52497    22906.304    2.8564787 
    2010    486.81685   -13352.991   -12684.395    -12805.15    120.75503    22906.304    2.8790142 
    2020    495.27572    6366.8818   -12684.859   -12807.712    122.85325    22906.304    2.8882458 
    2030    479.08346    28347.843   -12685.347   -12804.184    118.83676    22906.304     2.892174 
    2040    476.19412    38938.264   -12685.803   -12803.923    118.12006    22906.304    2.9001897 
    2050    498.05995    29464.929   -12686.231   -12809.775    123.54388    22906.304    2.9196523 
    2060    491.08991    6238.9888   -12686.695    -12808.51    121.81496    22906.304    2.9529325 
    2070    465.63647   -14027.389   -12687.138   -12802.639    115.50123    22906.304     2.990896 
    2080    477.73734   -17470.524   -12687.566   -12806.068    118.50285    22906.304    3.0200788 
    2090    495.47602   -3439.6477   -12688.014   -12810.917    122.90293    22906.304    3.0354616 
    2100    483.52785    19041.166   -12688.486   -12808.425    119.93919    22906.304    3.0418969 
    2110    468.85465     35834.14   -12688.927   -12805.226     116.2995    22906.304    3.0475666 
    2120    483.40586    35154.324   -12689.355   -12809.264    119.90893    22906.304    3.0615798 
    2130    486.91072    16626.298   -12689.778   -12810.556    120.77831    22906.304    3.0879588 
    2140    468.95525    -6587.814   -12690.214   -12806.539    116.32445    22906.304     3.120625 
    2150    453.98886   -17778.218   -12690.616   -12803.228    112.61204    22906.304    3.1487942 
    2160    476.87565   -10605.354   -12691.042   -12809.331    118.28911    22906.304    3.1647963 
    2170    482.50627    9111.9052   -12691.527   -12811.213    119.68579    22906.304    3.1701917 
    2180    457.60256    29579.264   -12691.957   -12805.465    113.50841    22906.304    3.1724076 
    2190    463.78256    36847.221   -12692.375   -12807.417    115.04136    22906.304    3.1808697 
    2200    481.13487    25516.083   -12692.797   -12812.143    119.34561    22906.304     3.202539 
    2210    474.88343    3129.3225   -12693.249   -12811.043    117.79494    22906.304    3.2364751 
    2220     450.5235   -14406.144   -12693.665   -12805.417    111.75245    22906.304    3.2708402 
    2230    463.09898   -15137.525    -12694.09   -12808.961     114.8718    22906.304    3.2929799 
    2240    484.48085   -434.47048    -12694.55   -12814.726    120.17558    22906.304    3.3006122 
    2250     469.3683    20155.564    -12694.99   -12811.417    116.42691    22906.304    3.3007175 
    2260    454.18465    34564.464   -12695.397   -12808.057     112.6606    22906.304    3.3021848 
    2270    476.94246    31882.431   -12695.806   -12814.112    118.30568    22906.304    3.3128696 
    2280    483.24775    13635.109   -12696.253   -12816.122    119.86971    22906.304    3.3369384 
    2290    446.33379   -7234.1006   -12696.633   -12807.346    110.71319    22906.304    3.3692148 
    2300     447.2069    -15917.58   -12697.032   -12807.962    110.92977    22906.304    3.3974312 
    2310    476.06936    -7733.664   -12697.486   -12815.575    118.08911    22906.304    3.4133909 
    2320    469.49588    11290.955   -12697.922    -12814.38    116.45855    22906.304    3.4185936 
    2330    447.41438    28908.563   -12698.323   -12809.304    110.98123    22906.304    3.4211348 
    2340    463.98866    33894.231   -12698.743   -12813.835    115.09249    22906.304    3.4301872 
    2350    469.56185    22244.682   -12699.128   -12815.603    116.47492    22906.304    3.4515311 
    2360    449.47377    1600.3159   -12699.532   -12811.024    111.49207    22906.304    3.4812597 
    2370    443.21284   -12851.467   -12699.953   -12809.892    109.93904    22906.304    3.5084129 
    2380    457.24387   -11956.266   -12700.365   -12813.784    113.41944    22906.304    3.5250466 
    2390    469.09415    2690.9605    -12700.79   -12817.149    116.35891    22906.304    3.5308651 
    2400    451.73419    21208.191   -12701.223   -12813.275    112.05276    22906.304    3.5312972 
    2410    447.99374    32645.939   -12701.617   -12812.742    111.12495    22906.304    3.5343836 
    2420    459.89732    28245.146   -12702.009   -12816.087    114.07763    22906.304    3.5491825 
    2430     457.6118    10733.606   -12702.397   -12815.908    113.51071    22906.304    3.5778724 
    2440    437.18508   -6518.8608   -12702.787   -12811.231    108.44386    22906.304    3.6122047 
    2450    442.65955   -12868.308    -12703.19   -12812.991     109.8018    22906.304    3.6395898 
    2460    460.35033   -4753.8889   -12703.631   -12817.821       114.19    22906.304    3.6535167 
    2470    447.43414     12720.41   -12704.032   -12815.018    110.98614    22906.304    3.6565661 
    2480    441.98826    27812.741   -12704.414    -12814.05    109.63529    22906.304     3.657392 
    2490    443.91475    31193.561   -12704.769   -12814.882    110.11315    22906.304    3.6646742 
    2500     452.9924    19386.765   -12705.174   -12817.539    112.36486    22906.304    3.6831573 
    2510    438.24294    1274.9646    -12705.58   -12814.286    108.70626    22906.304    3.7101501 
    2520    429.44881   -10786.738   -12705.956   -12812.481    106.52487    22906.304    3.7368354 
    2530    454.03868   -8810.9462    -12706.38   -12819.004    112.62439    22906.304    3.7552322 
    2540    450.12383    4469.8098    -12706.76   -12818.413    111.65331    22906.304    3.7642947 
    2550    432.06157    20782.353   -12707.148   -12814.321    107.17297    22906.304    3.7681942 
    2560    439.30228    29784.218   -12707.544   -12816.513    108.96903    22906.304    3.7752109 
    2570    453.76776    25152.696   -12707.927   -12820.484    112.55719    22906.304    3.7931357 
    2580    441.13568    9541.0688   -12708.286    -12817.71     109.4238    22906.304    3.8217026 
    2590    427.80188   -5479.4228   -12708.677   -12814.793    106.11635    22906.304    3.8514906 
    2600    437.51153    -9954.148   -12709.081   -12817.606    108.52483    22906.304    3.8724933 
    2610    450.08165   -2313.6949   -12709.481   -12821.124    111.64285    22906.304     3.881673 
    2620    444.43077    12591.228    -12709.87   -12820.111    110.24115    22906.304    3.8826467 
    2630    428.66333    25507.546   -12710.202   -12816.532    106.33003    22906.304    3.8835979 
    2640    437.27804    27587.515   -12710.564   -12819.031    108.46691    22906.304    3.8920348 
    2650    436.37032    17241.805   -12710.939   -12819.181    108.24175    22906.304     3.911836 
    2660     418.3211    2120.2214   -12711.292   -12815.057    103.76464    22906.304    3.9402805 
    2670    430.51609    -7590.888   -12711.686   -12818.476    106.78961    22906.304    3.9683019 
    2680    432.51302   -6204.6886    -12712.06   -12819.345    107.28495    22906.304    3.9881873 
    2690    429.15537    4783.0969   -12712.447   -12818.899    106.45208    22906.304    3.9972667 
    2700     428.1115    18558.699   -12712.832   -12819.025    106.19315    22906.304    3.9998431 
    2710     440.7038    26177.681   -12713.224    -12822.54    109.31667    22906.304    4.0047774 
    2720    435.19345    22433.939   -12713.571   -12821.521    107.94983    22906.304    4.0187855 
    2730    422.81142    10075.701   -12713.914   -12818.793    104.87847    22906.304     4.040328 
    2740    418.45196   -2548.4252   -12714.271   -12818.068     103.7971    22906.304    4.0624953 
    2750    436.18409   -6661.9885   -12714.675    -12822.87    108.19556    22906.304    4.0793261 
    2760    426.44103   -627.03237   -12715.026   -12820.805    105.77879    22906.304    4.0881316 
    2770    430.79992    11217.256   -12715.416   -12822.276    106.86002    22906.304    4.0907702 
    2780     425.8738    21826.214   -12715.769   -12821.407    105.63809    22906.304    4.0937164 
    2790    424.85498    24364.009   -12716.101   -12821.486    105.38537    22906.304    4.1030891 
    2800    424.51914    16685.216   -12716.447   -12821.749    105.30206    22906.304     4.121492 
    2810    418.25151    4733.4314   -12716.808   -12820.555    103.74738    22906.304    4.1459766 
    2820    415.95058   -3418.7315   -12717.169   -12820.346    103.17663    22906.304     4.168999 
    2830     425.9972   -3352.8899   -12717.537   -12823.206     105.6687    22906.304    4.1829766 
    2840    420.70453    4618.3975   -12717.896   -12822.252    104.35585    22906.304    4.1864434 
    2850    412.05082    15321.494   -12718.225   -12820.434     102.2093    22906.304     4.184033 
    2860    424.92703    22004.887   -12718.609   -12824.012    105.40324    22906.304    4.1833093 
    2870    422.49692    20582.647   -12718.964   -12823.764    104.80045    22906.304    4.1905145 
    2880    418.11278    11897.265   -12719.307    -12823.02    103.71297    22906.304     4.205741 
    2890    412.50878    1948.2316   -12719.626   -12821.949    102.32289    22906.304    4.2247386 
    2900    420.91081   -2738.0873   -12719.986   -12824.393    104.40702    22906.304    4.2425164 
    2910     408.1023    23.363471   -12720.309   -12821.539    101.22987    22906.304    4.2547685 
    2920    404.67547    8651.2256   -12720.652   -12821.032    100.37984    22906.304    4.2584194 
    2930    418.94009    17578.524   -12721.011   -12824.929    103.91818    22906.304    4.2574626 
    2940    423.76085    21321.406   -12721.388   -12826.502    105.11397    22906.304     4.260149 
    2950    406.62849    17132.796   -12721.705    -12822.57    100.86428    22906.304    4.2705348 
    2960    406.37775    8109.9414   -12722.022   -12822.824    100.80209    22906.304    4.2867331 
    2970    409.00881    253.62639   -12722.339   -12823.793    101.45473    22906.304     4.302234 
    2980    406.15581   -1838.8668    -12722.68   -12823.427    100.74704    22906.304    4.3114101 
    2990    410.37925    2640.5756   -12723.068   -12824.863    101.79466    22906.304    4.3135642 
    3000    416.29955    11290.348   -12723.414   -12826.677    103.26319    22906.304    4.3113441 
    3010    409.76226    18923.908   -12723.734   -12825.375    101.64162    22906.304    4.3099896 
    3020    413.98315     20048.97   -12724.077   -12826.766    102.68861    22906.304    4.3144729 
    3030    409.64646    14282.556   -12724.407    -12826.02    101.61289    22906.304     4.327614 
    3040    410.57374    5188.9522   -12724.729   -12826.572    101.84291    22906.304    4.3476182 
    3050    400.59309   -1209.7093   -12725.033     -12824.4    99.367202    22906.304     4.367017 
    3060    407.55723   -1193.8776   -12725.385    -12826.48    101.09466    22906.304    4.3768015 
    3070    402.51375    5420.3721   -12725.691   -12825.535    99.843624    22906.304    4.3754489 
    3080    398.47153    14473.394   -12725.996   -12824.837     98.84095    22906.304    4.3694285 
    3090    403.59101    19967.877   -12726.347   -12826.458    100.11084    22906.304    4.3674643 
    3100    396.76885    18614.336   -12726.666   -12825.084    98.418599    22906.304    4.3738662 
    3110    397.02116    10934.162   -12726.999    -12825.48    98.481185    22906.304    4.3868157 
    3120    403.11599    2284.1747    -12727.32   -12827.313    99.993008    22906.304    4.4025188 
    3130    392.98254   -1593.8371   -12727.638   -12825.118    97.479405    22906.304    4.4170182 
    3140    391.26484    980.64946    -12727.96   -12825.014    97.053329    22906.304     4.425204 
    3150    401.17799    9038.3239   -12728.285   -12827.797    99.512289    22906.304    4.4256247 
    3160    406.32274    17224.962   -12728.643   -12829.431    100.78844    22906.304    4.4234514 
    3170    397.13356     20484.69   -12728.956   -12827.465    98.509066    22906.304    4.4263284 
    3180    397.69599     15901.97    -12729.27   -12827.919    98.648578    22906.304    4.4386215 
    3190     405.1161    7266.2467   -12729.591    -12830.08    100.48914    22906.304    4.4566936 
    3200    393.68836   -515.07654   -12729.884   -12827.538    97.654484    22906.304    4.4721496 
    3210    398.65215   -1896.7696   -12730.227   -12829.112    98.885752    22906.304    4.4786409 
    3220    396.67826    3880.8513   -12730.535   -12828.931    98.396129    22906.304    4.4769717 
    3230    402.06472    13212.863   -12730.864   -12830.596    99.732242    22906.304    4.4719631 
    3240    400.26895    20173.198    -12731.17   -12830.457    99.286801    22906.304    4.4699005 
    3250    391.23608    19773.039   -12731.447   -12828.493    97.046196    22906.304    4.4760252 
    3260    393.88294     12425.79   -12731.739   -12829.441    97.702749    22906.304    4.4919817 
    3270    384.79311     2899.963   -12732.017   -12827.465    95.448015    22906.304    4.5133484 
    3280    380.89632   -2387.2119   -12732.303   -12826.785    94.481416    22906.304      4.53078 
    3290    381.10118   -343.21318    -12732.61   -12827.142     94.53223    22906.304     4.536381 
    3300     388.5826    8338.7365    -12732.93   -12829.318    96.387999    22906.304    4.5309956 
    3310    387.40976    17804.442   -12733.233    -12829.33    96.097076    22906.304    4.5234868 
    3320    383.49422    21677.339   -12733.564   -12828.689    95.125825    22906.304    4.5234183 
    3330    388.20677    17026.861   -12733.872   -12830.167    96.294773    22906.304    4.5327743 
    3340    390.31609    7361.7143   -12734.155   -12830.973    96.817992    22906.304    4.5483558 
    3350    385.18602   -1370.5816   -12734.452   -12829.997    95.545476    22906.304    4.5638661 
    3360    380.75623   -3344.6852    -12734.75   -12829.197    94.446666    22906.304    4.5730899 
    3370    383.34471    2834.9702   -12735.027   -12830.116    95.088738    22906.304    4.5742728 
    3380     392.0102    13123.795   -12735.344   -12832.582    97.238216    22906.304    4.5699304 
    3390    383.32085    20985.056   -12735.662   -12830.745    95.082821    22906.304    4.5670966 
    3400    382.77425    20928.375   -12735.956   -12830.903    94.947237    22906.304    4.5735712 
    3410    387.55605    12695.885    -12736.23   -12832.363    96.133364    22906.304    4.5903531 
    3420    383.08116    2021.7797   -12736.506   -12831.529    95.023365    22906.304    4.6096078 
    3430    371.56212   -4390.9487   -12736.798   -12828.965    92.166066    22906.304    4.6220477 
    3440    381.25845   -2122.7464   -12737.105   -12831.676    94.571243    22906.304    4.6230739 
    3450    384.73525    7404.2114   -12737.409   -12832.843    95.433663    22906.304    4.6158736 
    3460     379.8611    17909.068   -12737.676     -12831.9     94.22463    22906.304    4.6081574 
    3470    375.45291    22780.657   -12737.958   -12831.089    93.131177    22906.304    4.6075202 
    3480    379.59326    18569.502    -12738.26   -12832.418     94.15819    22906.304    4.6175547 
    3490     386.0762    7830.7749   -12738.584   -12834.351    95.766285    22906.304    4.6364234 
    3500    380.72644     -2368.58    -12738.88   -12833.319    94.439277    22906.304     4.656181 
    3510    380.50354   -5095.5485   -12739.138   -12833.522    94.383986    22906.304    4.6669314 
    3520    373.11179    1306.4706   -12739.383   -12831.933    92.550461    22906.304    4.6658708 
    3530    378.33389    12893.994   -12739.648   -12833.494    93.845803    22906.304     4.657783 
    3540    371.38336    22031.803   -12739.934   -12832.056    92.121725    22906.304    4.6517131 
    3550    373.85525    22418.209   -12740.249   -12832.984    92.734877    22906.304    4.6551266 
    3560    378.25719    13871.342   -12740.534   -12834.361     93.82678    22906.304    4.6681166 
    3570     374.0898    2264.9816    -12740.79   -12833.583    92.793057    22906.304    4.6851473 
    3580     369.0977   -5173.7985   -12741.056   -12832.611    91.554764    22906.304    4.6975504 
    3590    366.01905   -3138.9287   -12741.318   -12832.109    90.791104    22906.304    4.6999537 
    3600    368.63324    6480.7001   -12741.594   -12833.034    91.439555    22906.304      4.69306 
    3610    371.17501     18500.68   -12741.875   -12833.945    92.070041    22906.304    4.6847598 
    3620    370.44172     24109.09   -12742.154   -12834.042    91.888148    22906.304    4.6842438 
    3630    363.91241    19487.374   -12742.419   -12832.688    90.268552    22906.304    4.6952638 
    3640    371.53221    7857.8021   -12742.699   -12834.858    92.158645    22906.304    4.7133312 
    3650    370.94372   -3200.3517   -12742.967   -12834.979    92.012671    22906.304    4.7298863 
    3660     357.4992    -6330.638   -12743.206   -12831.884    88.677756    22906.304    4.7367732 
    3670    371.92267    480.07744   -12743.518   -12835.774    92.255499    22906.304     4.731555 
    3680    370.54269    12855.225   -12743.796   -12835.709    91.913196    22906.304    4.7192317 
    3690    373.66634    22843.982   -12744.074   -12836.762    92.688016    22906.304    4.7096538 
    3700     370.8012    23339.749   -12744.351   -12836.329    91.977319    22906.304    4.7120763 
    3710    370.72703     13907.03   -12744.613   -12836.572     91.95892    22906.304    4.7273591 
    3720    373.34406    1331.2052   -12744.862    -12837.47    92.608076    22906.304    4.7465091 
    3730    365.82496   -6309.5055   -12745.131   -12835.874     90.74296    22906.304    4.7592307 
    3740    366.46341    -4317.903   -12745.396   -12836.297    90.901329    22906.304    4.7595645 
    3750    363.81149    6392.3312   -12745.621   -12835.864     90.24352    22906.304    4.7505299 
    3760    366.33593     18972.35   -12745.879   -12836.748    90.869706    22906.304    4.7400147 
    3770    361.31094    24714.541   -12746.142   -12835.765    89.623257    22906.304    4.7362689 
    3780    363.91918    19713.013   -12746.407   -12836.677    90.270232    22906.304    4.7430483 
    3790    358.12433    7886.7777   -12746.653   -12835.486    88.832817    22906.304    4.7579205 
    3800    366.67674   -3176.9325   -12746.913   -12837.867    90.954246    22906.304    4.7720686 
    3810    354.65328   -6457.4571   -12747.179   -12835.151    87.971822    22906.304    4.7763708 
    3820    361.61155    341.76927   -12747.437   -12837.135    89.697824    22906.304    4.7678174 
    3830    366.05483     12893.14   -12747.691   -12838.491    90.799979    22906.304    4.7536456 
    3840    362.79358    22998.423   -12747.933   -12837.924    89.991028    22906.304     4.745218 
    3850     359.7563    23270.237   -12748.184   -12837.422    89.237629    22906.304    4.7492198 
    3860      354.525     14167.74   -12748.428   -12836.368    87.940003    22906.304    4.7619624 
    3870    359.12278    1621.3979   -12748.668   -12837.749    89.080483    22906.304    4.7755218 
    3880    358.05441   -6090.7891     -12748.9   -12837.716    88.815474    22906.304    4.7839258 
    3890     351.5007   -4026.6172    -12749.16    -12836.35    87.189824    22906.304    4.7819721 
    3900    355.90716    6541.9377   -12749.426   -12837.709    88.282848    22906.304    4.7692012 
    3910    362.55464    18690.691   -12749.665   -12839.597    89.931757    22906.304    4.7537131 
    3920    361.20471    24313.409   -12749.911   -12839.508    89.596907    22906.304    4.7467418 
    3930    343.90254    19507.206   -12750.135    -12835.44    85.305099    22906.304    4.7529334 
    3940    361.55059    7340.5005   -12750.414   -12840.097    89.682702    22906.304     4.767359 
    3950    358.78152   -3450.9372   -12750.645   -12839.641    88.995834    22906.304    4.7794266 
    3960    350.96754   -6489.6098   -12750.877   -12837.934    87.057575    22906.304    4.7813021 
    3970    348.19907    563.27616   -12751.099    -12837.47    86.370856    22906.304    4.7729285 
    3980    358.14284     12706.28   -12751.354   -12840.191    88.837409    22906.304    4.7605753 
    3990    353.78015    22555.341   -12751.583   -12839.338    87.755245    22906.304    4.7518204 
    4000    348.91402    22942.909   -12751.821   -12838.369    86.548199    22906.304    4.7520805 
    4010    348.72028    13392.331   -12752.061   -12838.561    86.500143    22906.304    4.7610435 
    4020    358.35257    1437.7583   -12752.309   -12841.199    88.889434    22906.304    4.7738204 
    4030    351.01537   -6186.3625   -12752.557   -12839.626    87.069439    22906.304    4.7827782 
    4040    344.78925   -4155.2286   -12752.772   -12838.297    85.525048    22906.304    4.7799297 
    4050    357.11315    6485.6495   -12753.022   -12841.604    88.581996    22906.304    4.7670292 
    4060    352.13553    18613.328   -12753.258   -12840.606    87.347294    22906.304    4.7550392 
    4070    355.86869    23757.007   -12753.511   -12841.784    88.273306    22906.304     4.752776 
    4080    346.69765     18724.34    -12753.72   -12839.718    85.998428    22906.304    4.7610931 
    4090    344.87173    7273.8646   -12753.927   -12839.472    85.545509    22906.304    4.7745139 
    4100    353.37761   -3383.4678    -12754.16   -12841.815    87.655394    22906.304    4.7863189 
    4110    344.74313   -6236.9677   -12754.401   -12839.914    85.513609    22906.304    4.7909379 
    4120    340.54397    734.94848   -12754.624   -12839.096    84.472007    22906.304    4.7856268 
    4130    348.67193    13165.167   -12754.844   -12841.332    86.488149    22906.304    4.7739208 
    4140    353.50904    22301.864     -12755.1   -12842.788    87.687995    22906.304    4.7652051 
    4150    345.41746    22150.306    -12755.34   -12841.021    85.680876    22906.304     4.767724 
    4160    343.60624    12993.978   -12755.557   -12840.789    85.231603    22906.304    4.7807437 
    4170     353.4482    1074.1399   -12755.777    -12843.45    87.672902    22906.304    4.7966161 
    4180    345.89468   -5719.4612   -12755.971    -12841.77    85.799251    22906.304    4.8066903 
    4190     330.6677   -3399.6472   -12756.167   -12838.189    82.022196    22906.304    4.8062522 
    4200    346.30751    7048.1956   -12756.429   -12842.331    85.901654    22906.304    4.7982032 
    4210    356.10832    18295.868   -12756.676   -12845.009    88.332747    22906.304    4.7909909 
    4220    338.38499     22937.49   -12756.873    -12840.81     83.93647    22906.304    4.7907987 
    4230    340.07663    17864.221   -12757.076   -12841.432    84.356084    22906.304    4.7993107 
    4240    347.92145    6569.1553    -12757.31   -12843.612    86.301993    22906.304    4.8146474 
    4250    340.03603   -3039.0239   -12757.512   -12841.858    84.346011    22906.304    4.8294538 
    4260    331.30299    -5214.331   -12757.697   -12839.877    82.179778    22906.304    4.8361392 
    4270    338.94692    1609.3661    -12757.93   -12842.006    84.075859    22906.304    4.8320029 
    4280    346.57444     13424.56   -12758.168   -12844.136    85.967864    22906.304    4.8233258 
    4290    339.05204    21348.381   -12758.385   -12842.487    84.101932    22906.304    4.8203786 
    4300    340.75909    20485.977   -12758.602   -12843.127    84.525368    22906.304    4.8281856 
    4310     335.4995    11871.485   -12758.796   -12842.017    83.220725    22906.304    4.8438273 
    4320    341.24565    1292.6236   -12759.007   -12843.654    84.646058    22906.304    4.8602634 
    4330    340.64609   -4787.2858   -12759.211   -12843.708    84.497337    22906.304     4.870794 
    4340    325.44386   -1867.3115   -12759.408   -12840.135     80.72642    22906.304    4.8724771 
    4350     336.9992    7810.6446   -12759.627    -12843.22    83.592725    22906.304    4.8676968 
    4360    343.29338    17817.156   -12759.844   -12844.998    85.153997    22906.304    4.8632461 
    4370    335.18494    21470.938   -12760.048   -12843.191    83.142699    22906.304    4.8655997 
    4380    331.38569    16383.013   -12760.281   -12842.482    82.200292    22906.304    4.8773548 
    4390    338.84497    6116.9703   -12760.476   -12844.527    84.050569    22906.304    4.8949082 
    4400    340.77081   -1979.3796   -12760.659   -12845.187    84.528275    22906.304    4.9099513 
    4410    329.45837   -3744.6924   -12760.881   -12842.604     81.72222    22906.304    4.9169413 
    4420    334.42576    2614.9985   -12761.092   -12844.046    82.954383    22906.304    4.9153561 
    4430    340.55587    13079.205   -12761.281   -12845.755    84.474959    22906.304    4.9109841 
    4440    328.41311    20241.122   -12761.458   -12842.921    81.462944    22906.304    4.9114083 
    4450    328.62299    19400.764    -12761.66   -12843.175    81.515004    22906.304    4.9197166 
    4460    329.89646    11382.173   -12761.863   -12843.694    81.830888    22906.304    4.9344901 
    4470     338.6108    2067.3581   -12762.069   -12846.062    83.992483    22906.304    4.9509358 
    4480    323.08445   -3338.2291   -12762.263   -12842.404    80.141169    22906.304    4.9627117 
    4490    329.63978   -906.22572   -12762.472   -12844.239     81.76722    22906.304    4.9660832 
    4500    332.70807    7554.5639   -12762.673   -12845.201    82.528309    22906.304    4.9633659 
    4510     342.3772    16664.426   -12762.885   -12847.811    84.926738    22906.304    4.9608175 
    4520    323.94975    19948.217   -12763.054   -12843.409    80.355807    22906.304    4.9648676 
    4530    327.52748    15653.968   -12763.236   -12844.479    81.243263    22906.304    4.9772378 
    4540    331.56498    6827.8025   -12763.421   -12845.666    82.244765    22906.304     4.994492 
    4550    325.64997   -755.25842   -12763.608   -12844.386    80.777547    22906.304    5.0091531 
    4560    327.94556   -2560.6283   -12763.822   -12845.169    81.346968    22906.304     5.016209 
    4570    325.59572    2835.3372   -12764.013   -12844.777    80.764089    22906.304    5.0160914 
    4580    333.72025     12071.87   -12764.205   -12846.984    82.779381    22906.304    5.0138619 
    4590    331.40756    18590.695   -12764.412   -12846.618    82.205717    22906.304    5.0153102 
    4600    329.34703    17799.286    -12764.61   -12846.305    81.694603    22906.304    5.0236569 
    4610    323.33826    11222.641   -12764.773   -12844.977    80.204126    22906.304    5.0385478 
    4620     330.6794    3176.2014   -12764.946   -12846.971    82.025097    22906.304    5.0551962 
    4630    326.14696   -1758.2642   -12765.133   -12846.033    80.900825    22906.304    5.0677327 
    4640    316.41682   -126.40726   -12765.319   -12843.806    78.487261    22906.304    5.0723098 
    4650    328.46667    7348.1172    -12765.52   -12846.996    81.476228    22906.304     5.070589 
    4660    330.97228    15453.144   -12765.707   -12847.805    82.097747    22906.304    5.0690378 
    4670    317.68618    18451.674   -12765.865   -12844.667    78.802126    22906.304    5.0736548 
    4680    319.20067     15026.34   -12766.045   -12845.223    79.177795    22906.304    5.0853269 
    4690    328.65248    7604.7197   -12766.235   -12847.757    81.522319    22906.304    5.1008819 
    4700    322.09557    621.56058   -12766.412   -12846.308    79.895877    22906.304    5.1152822 
    4710    314.69836   -1350.1324     -12766.6   -12844.661    78.060997    22906.304    5.1239064 
    4720    323.52168    3222.0658    -12766.78    -12847.03    80.249622    22906.304     5.126156 
    4730    324.56494    11332.673   -12766.947   -12847.455    80.508405    22906.304    5.1257342 
    4740    321.63859    16944.711   -12767.134   -12846.917    79.782523    22906.304    5.1278384 
    4750    317.11118    16927.445   -12767.308   -12845.967    78.659497    22906.304    5.1356451 
    4760    320.19642    11631.945   -12767.475     -12846.9    79.424791    22906.304    5.1494855 
    4770     321.6933    4249.0732   -12767.649   -12847.445    79.796093    22906.304     5.165474 
    4780    321.02786   -880.20836   -12767.843   -12847.474    79.631032    22906.304    5.1775463 
    4790    317.41328    281.27702   -12768.024   -12846.758    78.734434    22906.304    5.1825945 
    4800    317.03495     6927.366   -12768.169    -12846.81    78.640589    22906.304    5.1824804 
    4810    326.07542    14000.089   -12768.338   -12849.221     80.88308    22906.304    5.1822221 
    4820    314.70027    17337.441   -12768.499    -12846.56     78.06147    22906.304     5.187018 
    4830    314.09834    14768.662   -12768.694   -12846.606    77.912163    22906.304    5.1982126 
    4840    325.67337    7759.3689   -12768.886    -12849.67    80.783351    22906.304    5.2139479 
    4850    322.44354    1331.6719   -12769.035   -12849.017    79.982189    22906.304     5.229207 
    4860    313.81735   -629.86496   -12769.184   -12847.027    77.842462    22906.304     5.239405 
    4870    317.13554    3160.7596   -12769.368   -12848.033    78.665541    22906.304    5.2435022 
    4880    326.40641    10266.757   -12769.555   -12850.521    80.965181    22906.304    5.2442215 
    4890    318.61905    15820.283   -12769.718   -12848.751    79.033525    22906.304    5.2465813 
    4900     314.3551    15985.383   -12769.885   -12847.861    77.975851    22906.304    5.2537988 
    4910    319.73928    11441.626   -12770.043   -12849.354    79.311398    22906.304    5.2660346 
    4920    327.87791    4882.7398   -12770.207   -12851.537    81.330187    22906.304    5.2811615 
    4930    309.38017    379.38856   -12770.347   -12847.089    76.741818    22906.304    5.2941478 
    4940    305.80918    1016.7026   -12770.494    -12846.35    75.856034    22906.304     5.300924 
    4950    316.98647    6713.5474   -12770.656   -12849.285    78.628563    22906.304    5.3031091 
    4960    314.98446    12956.945   -12770.828    -12848.96    78.131963    22906.304    5.3060877 
    4970    317.10549    15858.482   -12771.032    -12849.69    78.658087    22906.304      5.31303 
    4980    313.42576    14095.263    -12771.18   -12848.925    77.745329    22906.304    5.3243737 
    4990    321.06499    8945.7879   -12771.328   -12850.968    79.640241    22906.304    5.3383658 
    5000    312.54335    3171.1635    -12771.47   -12848.996    77.526447    22906.304     5.352484 
Loop time of 453.124 on 4 procs for 5000 steps with 1920 atoms

Pair  time (%) = 293.589 (64.7922)
Bond  time (%) = 0.00390303 (0.000861361)
Neigh time (%) = 0.490847 (0.108325)
Comm  time (%) = 119.747 (26.4271)
Outpt time (%) = 15.014 (3.31344)
Other time (%) = 24.2787 (5.35807)

Nlocal:    480 ave 488 max 473 min
Histogram: 1 0 1 0 0 0 1 0 0 1
Nghost:    7969.5 ave 8002 max 7944 min
Histogram: 1 1 0 0 0 0 1 0 0 1
Neighs:    221096 ave 225824 max 216841 min
Histogram: 1 0 1 0 0 0 1 0 0 1
FullNghs:  442192 ave 450136 max 435110 min
Histogram: 1 0 1 0 0 0 1 0 0 1

Total # of neighbors = 1768770
Ave neighs/atom = 921.234
Ave special neighs/atom = 0
Neighbor list builds = 16
Dangerous builds = 0
unfix 			1
uncompute 		myDis
