	reset_timestep  	0
	fix 			1 all nve
	compute   		myKE all ke/atom
	compute   		myPE all pe/atom
	compute   		myStress all stress/atom virial
	compute   		flux all heat/flux myKE myPE myStress
	variable  		Jx equal c_flux[1]/vol
	variable  		Jy equal c_flux[2]/vol
	variable  		Jz equal c_flux[3]/vol
	fix       		JJ all ave/correlate $s $p $d c_flux[1] c_flux[2] c_flux[3] type auto file J0Jt_${iseed}.dat ave running
	fix       		JJ all ave/correlate 10 $p $d c_flux[1] c_flux[2] c_flux[3] type auto file J0Jt_${iseed}.dat ave running
	fix       		JJ all ave/correlate 10 100000 $d c_flux[1] c_flux[2] c_flux[3] type auto file J0Jt_${iseed}.dat ave running
	fix       		JJ all ave/correlate 10 100000 1000000 c_flux[1] c_flux[2] c_flux[3] type auto file J0Jt_${iseed}.dat ave running
	fix       		JJ all ave/correlate 10 100000 1000000 c_flux[1] c_flux[2] c_flux[3] type auto file J0Jt_2.dat ave running
	compute 		myDis all msd
	thermo_style 		custom step temp press vol c_myDis[4] v_Jx v_Jy v_Jz
	thermo			1000
	timestep		${dt}
	timestep		0.0010000000000000000208
	run			1000000
Memory usage per processor = 7.28915 Mbytes
Step Temp Press Volume myDis[4] Jx Jy Jz 
       0    283.59863     15049.34     2924.207 2.1066712e-30 -0.0084433726  0.010123246  0.018024717 
    1000    269.44045    9627.5232     2924.207    8.5768577 -0.019278204  0.001385986  0.041910418 
    2000     270.7588    16772.559     2924.207    22.653473 -0.017551035 0.00078529399 -0.0063289877 
    3000    290.34713    17005.172     2924.207    25.084713  0.010154918  0.011913382  -0.02362305 
    4000     276.2184    14289.417     2924.207    16.753449 -0.0026877785 0.0094188664  0.018278164 
    5000    265.64722    14219.239     2924.207    15.619642 -0.0094776919  0.019158443  0.011839427 
    6000    300.70631    6822.9238     2924.207    22.921499 -0.00041121002 -0.015509717 0.0091458601 
    7000    293.32118    19161.977     2924.207     25.58172  0.044855494  0.022342874  0.010055934 
    8000    244.12416    12436.013     2924.207     19.79733 0.0098468937  0.010850623 -0.034632513 
    9000    281.29987    17120.695     2924.207    17.010537  0.014329863   0.04990173  -0.00789174 
   10000    291.90638    6915.1343     2924.207    23.748424  0.020046764 -0.031323577 -0.011895905 
   11000    278.44824    14342.486     2924.207    22.843896 -0.019087528 -0.034470146 -0.029137485 
   12000    278.40426    15405.084     2924.207    21.398761 -0.018406349 -0.022095084 -0.048395197 
   13000    286.95761    13712.084     2924.207    25.722143 -0.043961383  0.024462723 0.0070682217 
   14000    247.86539      19981.5     2924.207    26.672693  0.020530402 -0.019636078  0.042856937 
   15000    305.28139    12628.945     2924.207    19.026039  0.011812173 -0.034066932 -0.0025484413 
   16000    235.42805    18972.624     2924.207    18.505185 -0.0036122038 -0.038289999  0.020078137 
   17000    283.07552    17128.183     2924.207    22.731068  0.012038522 -0.021144712  0.019785948 
   18000    264.99242    16872.579     2924.207    27.101948 0.0030460992 0.0088352705  0.009089796 
   19000     295.8504    16968.396     2924.207    29.338391 -0.0059621808   0.03902621  0.031549436 
   20000    291.86771    9548.5157     2924.207    26.712068  0.017909705 -0.013401358 0.0039396317 
   21000    283.54509    20970.141     2924.207    28.719264 -0.017419507 -0.016352863 -0.012951907 
   22000    284.23019    6342.9811     2924.207    31.762826  0.008530311 -0.0017191943  0.007799908 
   23000    264.31996    20787.127     2924.207    23.991102 -0.024363155  0.024853305 -0.014901557 
   24000    295.48708    8223.8945     2924.207    21.832177  0.013318065 0.0067496875 -0.024603613 
   25000    246.36247    20050.009     2924.207    26.937125 -0.023028023 0.0081174446 0.0094296603 
   26000    281.70563    8126.1538     2924.207    29.238448 -0.0098404756 -0.0058485657  0.011376739 
   27000    227.99839    21432.188     2924.207    27.695238 0.0064921492 0.0080834811  -0.02910264 
   28000    274.11297    19808.494     2924.207    27.416049 0.0021172436 -0.020148294 0.0074981706 
   29000    277.43565    9520.0033     2924.207    27.636631 -0.040630829  0.013030007  0.026004769 
   30000    253.88849    13086.172     2924.207    23.878492 -0.016194965  0.002888752   -0.0117215 
   31000    251.57203    23453.658     2924.207    20.807412 -0.021978545 -0.021409334 -0.0088453044 
   32000    298.47144    13204.874     2924.207    23.903357 -0.023545566  0.020670564  0.023859092 
   33000    270.35687    18070.726     2924.207    27.619239 -0.0050886975  0.028552594  0.026427704 
   34000    252.52663    15199.492     2924.207    27.775118  0.012249484 -0.029054157   0.02982864 
   35000     279.7842    20296.931     2924.207    27.918271 0.0088484963 -0.0065695032  0.031553974 
   36000    248.96209    18358.648     2924.207    27.666138 -0.014602178  0.010121346  0.012614882 
   37000    297.61285    9027.1811     2924.207    30.915679 -0.012391506  0.010548927 0.0080276776 
   38000    233.78586    20510.408     2924.207    33.247448 -0.0031861877 -0.0079656497 0.0047670575 
   39000    268.70292     12069.09     2924.207    33.029135 -0.031581374 -0.020354155 -0.041976567 
   40000    238.79962     16807.61     2924.207    32.194031 -0.012662127  0.018213731 -0.0023481233 
   41000    301.99593    16552.012     2924.207    26.359389  0.013822961 -0.023056732 -0.00043636955 
   42000    269.59541    15916.176     2924.207    21.430701 0.0064019725  0.022550684 -0.0082504033 
   43000    245.87794    14102.021     2924.207    17.775032  0.010310007 0.00020212274  0.016175533 
   44000    279.93042    14796.391     2924.207    18.192022  0.011926626 -0.019200253  0.021701579 
   45000    264.13593    14009.354     2924.207    24.977624 -0.0044194868  0.025251621 0.0026005292 
   46000    283.93213    15184.088     2924.207     30.15009 -0.029033962 -0.0089346509 -0.018425693 
   47000    275.09588    11256.989     2924.207    30.471503 -0.015933282 0.0016680658 -0.051963047 
   48000    271.69161    17144.646     2924.207    27.196723 -0.0048456633 0.0051700899 -0.0079775228 
   49000    277.21459    11272.147     2924.207    25.287864 -0.021806222  0.010787559 -0.0031487557 
   50000    290.75456    9852.9524     2924.207    24.649069 -0.012718332  0.022867092 -0.023641988 
   51000    249.63555    17576.748     2924.207    23.700077 -0.024434134  0.012692495 -0.013396827 
   52000    279.47986    10678.662     2924.207    22.995123  0.023837919  0.014191984 0.0077444696 
   53000    294.98695    10633.165     2924.207    29.486221 -0.019000887  0.020399676  0.015598753 
   54000    290.69781    13180.302     2924.207    32.465177 -0.053343378 -0.022829855  0.010024086 
   55000    288.41848    10786.044     2924.207     24.57589 -0.008668364 -0.029524733  -0.01077832 
   56000     294.6684    11340.545     2924.207    19.895915 -0.0026028547 -0.0053448177 0.0032643433 
   57000    268.80075    11329.812     2924.207    25.946534 -0.0038335662  0.019079822 -0.027293116 
   58000    268.40612    14341.608     2924.207    30.401753  0.020177943  0.067371649 -0.045989676 
   59000    285.98601    16134.013     2924.207    30.438576  0.011285402  0.014794475  0.037311692 
   60000    275.71686    8991.6595     2924.207    29.440427 -0.0018588689   0.01686498  0.010118603 
   61000    267.11643     12163.41     2924.207    27.975644 -0.0037113269  0.013249019    -0.017441 
   62000    286.78177    9929.8595     2924.207    20.737424  0.015907127  0.018682242 -0.025082051 
   63000    278.71644    11769.347     2924.207    19.871783 -0.015842292 -0.0046771311 -0.017425986 
   64000    285.15784     18426.79     2924.207     24.95216   0.01306022 -0.020184628 -0.0052329074 
   65000      279.137    8529.7935     2924.207    22.963411  0.045219467  0.054874301 -0.039418854 
   66000    306.16541    9424.9432     2924.207    23.335328 -0.025265523 -0.026866959 -0.034395177 
   67000    269.57101    15252.984     2924.207    25.177448 0.0027210557 -0.046271173 -0.010357393 
   68000    283.65716    13398.211     2924.207    18.137786 -0.0021237487  0.008966544 -0.0011252352 
   69000    282.16263    9295.7644     2924.207    17.294513 -0.0051792164 0.0061143566  0.032671973 
   70000    288.58014    13253.291     2924.207    26.661798 -0.045139295 0.0095101771 -0.0024419678 
   71000    280.48446    17023.514     2924.207     27.82154 -0.014968725 -0.00036645114 0.00089565514 
   72000    275.39726    14750.742     2924.207    27.737492 -0.012329422 0.0049403988 -0.011732758 
   73000    262.26227    13522.948     2924.207    28.990753 -0.0043419336   0.02764917 -0.038520217 
   74000    254.35449     19067.88     2924.207    23.661014 -0.004965791  -0.01920488 -0.0024507874 
   75000    287.00285    6956.0999     2924.207    22.771501  0.013088163  0.026848717 -0.022669252 
   76000    265.51026    11429.718     2924.207    29.771642  0.042250476 -0.013785666  -0.02122186 
   77000    290.86869    10652.153     2924.207    30.948819 -0.018055544 0.0003778211  0.023151049 
   78000    269.73194    11138.448     2924.207    20.823893 -0.016023777  0.021191316  0.023019468 
   79000    269.61649     18313.25     2924.207    12.736035 -0.012992612 0.0090884736 0.0087015636 
   80000     296.3532    6000.1109     2924.207    17.867164 -0.0043531858 -0.0031304341 -0.0097069727 
   81000    267.24013    16027.428     2924.207    28.335537 -0.0070413735 -0.014222088 -0.024448452 
   82000    274.67037     16348.83     2924.207    27.726474 0.0089913398 -0.027851592 -0.0014697362 
   83000    298.01553    6753.0644     2924.207    23.839399 -0.0017800782  0.003425574 -0.012494986 
   84000    265.48095    19289.438     2924.207     24.76058  0.011376993  0.029042234 -0.023980785 
   85000    274.32128    18093.829     2924.207    25.692509   0.04043152  0.024777378 -0.012478816 
   86000    285.31032    2726.9724     2924.207    23.680991 0.0093333838  0.012646598  0.024893585 
   87000    245.33085    15496.297     2924.207      22.4044 -0.046697175  -0.04806749 -0.0088138161 
   88000    260.69046    18809.287     2924.207    23.637723  0.030552383 0.0093521591 -0.023071616 
   89000    288.83205    10487.991     2924.207    26.917101  0.019437695 -0.017124282 0.0022421891 
   90000     241.7732    17737.525     2924.207    27.877216 -0.010116568 0.00071355582 -0.011603547 
   91000    274.42334    16186.383     2924.207     28.48209 0.0036319145  0.012491452 -0.014427913 
   92000    285.98953    12926.975     2924.207    28.110414  0.025861583  0.007597933 -0.051373251 
   93000    262.98288    8458.0071     2924.207    27.706327 -0.036874878  0.025978652 -0.011356435 
   94000     272.1432    15341.881     2924.207     27.17116 -0.0014705212  -0.01272248  0.001330773 
   95000    267.60187     10566.06     2924.207    25.274139 -0.040540179 -0.0058376187 0.0021926941 
   96000    289.97105    15305.356     2924.207    22.844909 -0.035714638  0.032511699 -0.00035703799 
   97000    278.23854    9598.2025     2924.207    19.365092 0.0039625387 -0.0053825757 -0.010119632 
   98000    229.97385    17060.175     2924.207    17.068044 0.0040009567 -0.001547864  0.030295605 
   99000    247.25734    18497.699     2924.207    15.523283  0.038655383 -0.026828356 -0.008297837 
  100000    267.38689     17768.53     2924.207    18.969991 -0.011488262 -0.011877709  0.016572009 
  101000    294.41245     9045.093     2924.207    23.736232 -0.012393781 -0.0039380993 -0.0016409953 
  102000    245.00523    12782.664     2924.207    24.374989  0.027897387  0.015636055 -0.021584462 
  103000    245.77935     23255.54     2924.207    24.169955 -0.0016356841 -0.048005975  0.013801209 
  104000    270.93048    10083.712     2924.207    31.030759  0.026175145 -0.020338882 -0.0048890416 
  105000    287.73195    7989.8227     2924.207    34.954663 0.0061347568 -0.003763058 -0.039021341 
  106000    290.97201    11281.254     2924.207    26.155535  0.014191456  -0.02373568 -0.0050922795 
  107000    289.03466    9130.4588     2924.207    19.032513 0.0057734435 -0.030568724  0.001742545 
  108000    273.01094    18184.063     2924.207    24.052287 -0.012260727 -0.019261775 0.0094979316 
  109000    252.96615    14243.724     2924.207    20.310575 -0.0057426571 -0.027988509 -0.0012049463 
  110000    260.00881    11067.597     2924.207    16.732527 -0.044827529 -0.032873393  0.012340456 
  111000    294.22134    15618.536     2924.207    27.906792 0.0039340399  0.039690335 -0.0063179485 
  112000    294.41411    10524.068     2924.207    31.343108 -0.010120837 -0.027919245 -0.021262213 
  113000    292.57086    11995.997     2924.207    28.046298  0.024169002  0.015900834 -0.020839483 
  114000    256.25352    17525.076     2924.207     32.48134 -0.013096781  0.004667909 -0.016247275 
  115000    265.62719    17007.226     2924.207    32.174956 -0.007717617  0.018486188 -0.016351247 
  116000    296.77687     8206.172     2924.207    22.323655 -0.029099013 -0.0040483272 0.0075137275 
  117000    275.78341    13999.746     2924.207    25.025178 -0.012587885 -0.0065111774  0.035631219 
  118000    275.96381    11757.965     2924.207    31.621716 -0.027806631   0.04672848   0.03823602 
  119000    300.05354    12905.965     2924.207    26.413181  0.014031514  0.021802874 -0.011195154 
  120000    247.30374    20322.036     2924.207    25.398209    0.0306674 0.0071864766  0.029312196 
  121000    287.94486      15067.5     2924.207    29.766865 -0.0036363137 0.0012369048 0.0088638115 
  122000      300.507    13081.183     2924.207    30.904487  0.026307653  0.012664005  0.018829837 
  123000    271.03561    8699.3594     2924.207    28.503095 -0.0077019569  0.014652629  0.017515465 
  124000     286.3569    15589.577     2924.207    28.147211 0.0084149129  0.013192926  0.017585177 
  125000     259.5403    9428.7844     2924.207    28.138021  -0.03589808   0.01695892 -0.038720865 
  126000    289.43571    12506.816     2924.207    26.519853  -0.05670197 -0.0041670494 -0.0024894304 
  127000     284.3096    13310.861     2924.207    25.870392  0.019859678 0.0017324546 -0.0023521291 
  128000    246.15103    9467.0491     2924.207    28.815593 -7.8528829e-05 -0.029044333 0.0030411545 
  129000    270.41097    13927.303     2924.207     32.12124  -0.01580161 -0.015799029 -0.00057191866 
  130000    297.25228    10644.093     2924.207    29.622504  0.036537823  0.014739684 -0.0029683151 
  131000     293.7571    9906.0721     2924.207    21.066869   0.02753566  0.010506978 -0.0090276447 
  132000    288.11032    8494.7261     2924.207    22.750155 -0.018015679 0.0027100307  0.059991611 
  133000    273.12677    8162.3349     2924.207    33.081544 -0.018479461 0.0097415405  0.012149878 
  134000    283.20082    18571.002     2924.207    35.814948 -0.0010233542  0.027142592 -0.072172267 
  135000    281.34494    12120.468     2924.207     29.13283  0.048542998  0.011912326 -0.0075685291 
  136000    279.10312    10144.164     2924.207    23.810026 -0.0021424641 -0.024000307 -0.0018011141 
  137000    271.06502    14226.894     2924.207    26.111804  0.010862333  0.013434001 0.0065672011 
  138000    281.16512    12369.224     2924.207    32.593553   0.00165042 -0.018153403  0.018836542 
  139000    257.46742    13483.057     2924.207    35.217564  0.024736202 0.0092133321  0.020225607 
  140000    295.24764    9723.9825     2924.207    31.652113 -0.0097458613 -0.025724163  0.021088113 
  141000    283.49183    5990.7826     2924.207    26.330945 -0.053749503  0.011892138 -0.0010863006 
  142000    287.78303    14977.227     2924.207    23.702031 -0.024850615  0.036419919 0.00015190517 
  143000     295.4932    11187.566     2924.207    24.928972  0.011491541  0.010177453 -0.015659284 
  144000    274.51439    14337.767     2924.207    27.638879 0.0010152258  0.023439305  0.004264662 
  145000    295.24634    7001.1934     2924.207    24.913822  0.024744421 0.0078975562   0.02942028 
  146000    287.09911    14052.461     2924.207    20.909562 0.0083615075 -0.0017356692  0.021324889 
  147000    269.52079    11773.517     2924.207    19.874788  0.038879119  0.010284653  0.033411732 
  148000    250.57207    11768.871     2924.207    23.839057  0.018613202  0.027630927 0.00097179224 
  149000    284.61578    14659.925     2924.207     27.10677  -0.01160548 0.0018723616  0.013950486 
  150000    288.59243    10834.416     2924.207    29.396869 0.0029243643 -0.022675468 -0.0080195481 
  151000    263.68548    16353.337     2924.207    28.816361  0.026311535 -0.007046603 -0.0079573328 
  152000    269.78361    10676.735     2924.207     26.07718 0.0042568628  0.023838803  0.022893118 
  153000     273.8897    16384.576     2924.207    25.254271 -0.020843795 0.0087494577 -0.018810747 
  154000    273.67377    9571.1777     2924.207    31.895818 -0.040391825 -0.030906885 -0.048952973 
  155000    285.26874    12030.863     2924.207     34.72491  0.023179408 0.0074055119  -0.03783329 
  156000    265.29497    10578.379     2924.207    29.019828  0.013317938  0.016028891 -0.011805002 
  157000     272.3126    7293.7244     2924.207    25.212331   0.00968424 -0.017250935 -0.024910745 
  158000    255.57161    17421.463     2924.207    28.143182  -0.02597961 -0.0042481711 -0.019157954 
  159000    269.65966    10108.787     2924.207     29.84715 -0.00051990273 -0.00059025692  0.020318662 
  160000    281.74414    7760.0094     2924.207    27.007622  0.024821163  0.023188439  0.020804383 
  161000    292.70614    12528.765     2924.207    26.543193 -0.018069842 -0.0099948837  0.028548015 
  162000    256.52878    17065.438     2924.207    29.642303 -0.011360184  0.018416438 -0.0046313058 
  163000     273.1538    16454.104     2924.207    27.535027 -0.011293068  0.035404109  0.025795026 
  164000    280.20515    9444.1065     2924.207    24.348021  0.017549442 -0.014419461 0.0019547063 
  165000    274.70049     19519.15     2924.207    24.447806 -0.024332215 0.0053616402  0.020655662 
  166000    274.48008    13766.801     2924.207    26.968217 -0.017567679 0.0033992196  0.044277666 
  167000    281.76022    5814.3555     2924.207    28.287633 -0.036242325  0.014815784   0.01482016 
  168000    277.12573    8788.0402     2924.207    24.379973 -0.0056604275 0.00056994548 0.0029036946 
  169000    268.23219    10746.075     2924.207    22.721296 -0.0051796547 0.0096737703 -0.031810683 
  170000    278.65457    7241.9213     2924.207    25.019858 0.0060144759 0.0068541302 -0.0079669352 
  171000    265.38254    16424.145     2924.207    30.913205  0.011924796 -0.017052195 -0.017324531 
  172000    265.46548    8213.3834     2924.207    33.535854   0.03306537 -0.020905722  0.020893399 
  173000    271.68711    9796.9392     2924.207     28.64374  -0.03286592  -0.03532736 -0.032303057 
  174000    278.14116    14684.135     2924.207    22.600493 -0.031275196 -0.0021360702 -0.012503825 
  175000    281.48741    8264.7492     2924.207    23.934853 -0.023433932 0.0064509517  -0.03504094 
  176000    269.14634    21292.389     2924.207    28.719362 -0.00046772924 -0.013643407  -0.03681726 
  177000    290.09705    4257.1367     2924.207    33.094458 -0.0027870319  0.028836662  0.024701402 
  178000    284.76411    10691.018     2924.207    31.906071  0.031687725  0.022659968 -0.035062515 
  179000    283.13978    8312.0046     2924.207    28.016107  0.018060253  0.031383706 0.0013573165 
  180000    284.11278    9260.0836     2924.207    26.403325 -0.033422829 -0.0025628368 -0.071716131 
  181000    269.82958    13728.112     2924.207    27.618582 0.0017340072 -0.0075413718 0.0073208288 
  182000    287.25962    9886.3332     2924.207    29.886724 0.0088744402 -0.022956026 -0.019488332 
  183000    281.40237    13452.399     2924.207    34.290945 -0.014719315  0.036896557   0.01923119 
  184000    272.40782    7692.7068     2924.207     34.27332  0.029598673  0.036026505 0.0045620462 
  185000    285.96153    13812.206     2924.207     30.79812  -0.03282282  0.012739444  0.032272296 
  186000    273.32739    11793.713     2924.207    25.111194  0.033201454   0.02209973  0.025344997 
  187000    254.95775    9380.8388     2924.207    25.854284 0.0088620673  0.018605161  0.026757517 
  188000    286.98019    10178.259     2924.207    29.751882  0.023910291 -0.012641756 -0.0090788574 
  189000    284.15786    10719.332     2924.207    29.130374  -0.02849993 -0.00052324657  0.035645873 
  190000    267.36516    12348.282     2924.207    26.194453 -0.022074954 0.0064028182 -0.0031174143 
  191000     287.2914    19890.766     2924.207    25.217283 0.0057762602 -0.011693417 0.0073421998 
  192000    299.45991    8080.7361     2924.207    21.718307 -0.053107854  0.011984517 0.0019502114 
  193000     263.9239    12783.129     2924.207     19.08636 -0.022967859  0.009856865  0.036837598 
  194000    287.02251    8590.4958     2924.207    22.813828 -0.010281726 -0.018696933  0.016547177 
  195000    276.22177    5840.8828     2924.207    29.070806 -0.0082729232 0.0027928143  0.012347789 
  196000     283.9139    12543.841     2924.207    27.431891 1.7227529e-05 -0.029985655 -0.0013091903 
  197000    272.85477    11905.447     2924.207    25.106357 0.0072987378   -0.0212466  0.030008629 
  198000     279.8533    11456.695     2924.207    26.813956 -0.047711318 0.0026885683 -0.0069993996 
  199000    273.87721    5740.6376     2924.207    25.243189 0.0058613085 0.0046484668 -0.013356491 
  200000    286.38473    13408.846     2924.207    25.205055 -0.019901986 0.0072942497 0.0031759937 
  201000    281.13766     14195.49     2924.207    31.472385 -0.016380341 -0.0073015904 -0.0013656524 
  202000    276.17856    16927.509     2924.207    33.536283 -0.00072970982 -0.016945715 -0.0095735971 
  203000    293.85469    6927.8063     2924.207    32.616482 -0.0037145795 -0.013974764 -0.0030842173 
  204000    282.51275    12534.784     2924.207     30.82159 -0.032368417 -0.030504755 -0.010889292 
  205000     283.0127    11017.146     2924.207    30.331479 0.0011830072 -0.047743412 0.0089744206 
  206000    276.82507    8872.8301     2924.207    28.599287  0.048138061 0.00020160253 -0.0041412576 
  207000    271.05488     15160.22     2924.207    27.540266 -0.0098517567 -0.011560426 -0.0079038626 
  208000     257.6597     19489.16     2924.207    29.856058 -0.030725771 -0.029300485 0.0021662424 
  209000     286.7697    11516.688     2924.207    33.016228 0.0078834496 0.0058132314 -0.025074038 
  210000    254.99305    12027.336     2924.207    33.481636 -0.036727375 -0.0040443537  0.010177494 
  211000    248.53198    15697.332     2924.207    31.635764 0.0063898422  0.016099003 -0.029565382 
  212000    269.29123    12255.753     2924.207    31.008513  0.014402496  0.011133906  -0.00133071 
  213000    245.27454    19261.363     2924.207    30.310562 -0.018627654 -0.010701481 -0.020889718 
  214000    265.50539    10866.521     2924.207    30.704281 -0.030934838  0.048478415  0.016169961 
  215000    256.69357    14379.972     2924.207    30.237295 -0.0063428028   0.02587209  0.012147889 
  216000     258.7444    14966.631     2924.207    29.917342 -0.0017259182  0.029842555 -0.024325899 
  217000    291.72157    3766.5432     2924.207    33.241239  0.032138722 0.0028880012  0.006127455 
  218000    253.80789    16716.854     2924.207    33.757659 -0.000523183 -0.071153684 -0.0030819551 
  219000     264.8454    7822.8402     2924.207    31.207341  0.017900973  -0.02271881 -0.030996683 
  220000    255.80328     13169.44     2924.207    29.432451  0.023416758 -0.0092852991  0.015984715 
  221000    263.66818    15856.702     2924.207    29.450634 -0.017650341  0.011208842 -0.0043685591 
  222000    240.74821    12675.328     2924.207     28.28496 -0.010597875 -0.010073232 -0.021108004 
  223000    271.86879    14322.967     2924.207    28.081768 -0.010849957  0.023695507 -0.022183034 
  224000    278.91531    17628.535     2924.207    29.017596 -0.030280986 -0.028401677 0.0083797561 
  225000    239.93234    7066.7524     2924.207    29.886881 -0.026543905 0.0079647383 0.0051522236 
  226000    277.96077    16971.858     2924.207    31.075206  0.046804246  0.018454034 -0.024638437 
  227000    253.18524    7949.0615     2924.207    30.816135 -0.029120436  0.027372828 -0.0046751546 
  228000    232.58469     16870.74     2924.207    28.117943 0.00090584936 0.0057189773 0.0014453629 
  229000    261.98438    12075.924     2924.207    24.339676  0.021776084 -0.023130726  0.019336184 
  230000    253.24253    10831.164     2924.207    23.641652  0.012038124  -0.01289025 -0.0068726559 
  231000    255.63603    21297.228     2924.207    25.798802   0.01023432 -0.0077822777  -0.01411948 
  232000    259.46795    9457.4162     2924.207    26.293009 -0.0043690127 -0.0070205989 -0.026115654 
  233000    261.42917    8699.0193     2924.207     25.89844 -0.013572721 -0.013501698 0.0044792085 
  234000    265.19892    18903.716     2924.207    25.844556 -0.0095267738 -0.027596264 -0.0004468467 
  235000    247.27833     9116.126     2924.207    22.280843 -0.00041503885 0.0043782782  0.035323496 
  236000    244.58225    18296.535     2924.207    20.628017  -0.03499766  0.011011374 -0.013681896 
  237000    283.50809    17719.135     2924.207    18.183522  0.001053173 -0.010390434 -0.023094065 
  238000    237.82521    13846.994     2924.207    19.924815 -0.016166992 0.0095147686 -0.031166898 
  239000    275.84834    6443.9359     2924.207    23.444353 -0.0017979853  0.029465428 0.00083832952 
  240000    237.81541    18948.161     2924.207    28.579157 -0.0057543974 -0.054800956 0.0059437759 
  241000    251.72492    12211.124     2924.207    30.317856  0.017478828  0.002910594  0.014957767 
  242000    284.86341    7687.7242     2924.207    24.982247  0.054400948 0.0095016323  0.033022392 
  243000    248.50796    24301.559     2924.207    20.150285 -0.013046976 -0.014913511 0.0081965722 
  244000    249.24865     8089.512     2924.207     18.95234 -0.017910759 -0.021392434 -0.052537068 
  245000    267.14285    24074.348     2924.207    23.560088 -0.044419731  0.030439412  -0.01347912 
  246000    258.66474    1882.2844     2924.207    27.968568 -0.026675752 0.0072541165  0.017537403 
  247000    261.58556    17273.479     2924.207    28.831527  0.010772365  0.026219223  0.014299562 
  248000    276.21241      12619.1     2924.207    24.620515  0.015894089  0.056203191  0.011077789 
  249000    267.72325    11597.217     2924.207    22.668737 0.0066666101  0.028944523 0.0049078331 
  250000    231.54699    18030.019     2924.207     26.11766   0.03638324 -0.018576128 -0.049928871 
  251000    253.94078    8706.9771     2924.207     31.01772  0.024773309 -0.016156748 -0.012647631 
  252000    251.59677    19250.838     2924.207    34.252298 -0.010648704 -0.013152969  0.025017215 
  253000    269.26831    9493.7977     2924.207    32.869016 0.0040538726 0.0074187868 -0.0016185962 
  254000    255.17342    16627.026     2924.207    27.707171 0.0027309883 -0.029726784  0.011019208 
  255000    269.61391    7477.7922     2924.207    24.346074 -0.054656777  0.020072606  0.028599128 
  256000    231.72368     14513.35     2924.207     23.25388  0.010943718 -0.027179412 -0.040748288 
  257000    229.34161    15742.733     2924.207    26.066666  0.045016775 -0.00047764281 -0.031999271 
  258000    282.11201    11216.012     2924.207    25.936458  0.004800406 -0.0085833096 -0.0068242185 
  259000    248.41414    15430.884     2924.207    23.296735 -0.025787343  0.011882105   0.02664834 
  260000    280.24648    9990.3719     2924.207     21.14562 -0.028313788 -0.0058767893 -0.020128838 
  261000      241.538    19616.303     2924.207    22.427281 -0.020576242 -0.019157824  0.021365369 
  262000    228.46321    21103.703     2924.207    26.314363 0.00088706184 0.0067542809 -0.041957842 
  263000    272.67541    12200.249     2924.207    27.115324  0.027230718 -0.012095451 -0.039976486 
  264000    244.22416    19493.129     2924.207    26.006662 -0.023691151  0.011791779  0.017399768 
  265000    276.03548    8520.4824     2924.207    24.568307  0.026500108 -0.049575527 -0.0096188975 
  266000    256.22457    14179.517     2924.207    26.190329 -0.048854716  0.024435967 -0.0071976611 
  267000    273.35133    9869.3988     2924.207    30.411626  0.062313462 -0.028545313 0.0041306075 
  268000    220.59077    16799.577     2924.207    30.553329 -0.036744331 -0.0044482831 -0.014304817 
  269000    259.21218    15535.098     2924.207    30.054645  0.001625075 -0.035281786  0.016112229 
  270000    279.34225    16781.313     2924.207    30.624495  0.021360787 -0.010881003 -0.020876338 
  271000    259.67274    13535.282     2924.207    33.035651 -0.0009973508 -0.009307727   0.02481767 
  272000    212.37552    19279.155     2924.207    34.117529  0.018345837 -0.0007930309 -0.0048880504 
  273000    299.18232    10523.883     2924.207    33.770032  0.047524197 -0.0074765437  0.011712937 
  274000     249.0337    18261.978     2924.207    30.042125 0.0052941534 -0.0079176638 -0.005852767 
  275000    237.50429    17339.265     2924.207    26.525423 -0.030178109  0.036094966 -0.031457034 
  276000    256.33493    12634.701     2924.207    27.687494  0.015260023  0.022367695  0.021281382 
  277000    275.22153    8216.2598     2924.207     27.65597  0.052802193 0.0098569573 -0.0011177374 
  278000    235.03852    16440.182     2924.207    24.920149 -0.0089363727  0.039859589  0.026468051 
  279000    245.59856     15603.83     2924.207    24.474771 -0.065650535 0.0057624935 -0.00015843161 
  280000    276.12347    4903.2989     2924.207    23.997589  0.010785989  0.011563361  0.023200336 
  281000    261.91679    13586.478     2924.207    21.894539  0.039154185  0.028002379 0.00072944447 
  282000     247.4402    17335.323     2924.207    23.122672 -0.018354031 -0.003685632  0.014260979 
  283000    268.67525    13829.831     2924.207    25.199262 -0.0010707692 0.0032253224 -0.0030639171 
  284000    257.32058    18015.452     2924.207    25.413587 -0.019061847  0.010338494 -0.0043671819 
  285000    258.60365    10647.231     2924.207    25.402495 -0.029772871  0.019556892 -0.0099368976 
  286000    241.78048    20097.192     2924.207    25.532265 -0.0050836817 0.0055788261  0.030217447 
  287000    281.07177    8392.7488     2924.207    27.933699 0.0034571799 -0.012371805 -0.024797903 
  288000    279.89505    5782.1404     2924.207    28.354939  0.013121983 -0.053171228  0.033665998 
  289000     275.9008    14837.012     2924.207    28.968497 -0.014908013 -0.011244081 -0.029949615 
  290000    229.03334     15613.42     2924.207    27.814452  0.015326484 0.0012120407 -0.026861176 
  291000    282.43713    12514.508     2924.207    27.026262 -0.0010385999 0.0034635106 -0.014123785 
  292000    272.20091    12799.768     2924.207    28.020433  0.014746479  0.011611096  0.011543208 
  293000    237.15268    15225.703     2924.207     29.44604  0.025922522  -0.01058986  0.036966091 
  294000    277.04975    9144.9198     2924.207    30.160391 -0.014411201 0.0024629709   0.02944524 
  295000    228.13223    16489.472     2924.207    28.334152  0.060621187  0.029980435  0.029477921 
  296000    290.90891    3225.5444     2924.207    27.667154 -0.013178001 0.0059045553 -0.023891945 
  297000    239.90206    13850.555     2924.207     30.16814  0.024557528  0.010787125 -0.0059580992 
  298000    257.31383     15795.32     2924.207    33.826222  0.019142259  -0.03559877  0.015719788 
  299000    267.06835    6589.4905     2924.207     34.06695 -0.011110555  0.018545562  0.008434145 
  300000    256.17151    14229.379     2924.207    31.696368 -0.016944647  0.021426863 -0.033784592 
  301000    253.22103    13905.624     2924.207    30.055976  0.014555407 -0.010975714 -0.014969279 
  302000    293.60472    11576.971     2924.207    29.330536 -0.051604715 -0.0027757208  0.013530989 
  303000    229.18313    17022.162     2924.207    32.344094 -0.026074725  0.029877133 0.0065466906 
  304000    257.12114    12320.945     2924.207    34.416823 -0.023102881  0.040972584 -0.0074847778 
  305000    283.20279    7331.7196     2924.207     33.12822  0.011082436 -0.011849115 -0.018353068 
  306000    240.27807     15048.35     2924.207    29.111813 -0.033797417   0.01284067 -0.010380258 
  307000    277.22109    10226.751     2924.207    26.297789   0.01710117 0.0094291969  0.033417758 
  308000    263.19001    9643.8698     2924.207    24.282916 -0.0033117976 -0.029399919 -0.015858532 
  309000    236.29592    14422.872     2924.207    27.842769 -0.022651628 -0.028384517 -0.018006547 
  310000    251.28446    17792.825     2924.207    30.358057  0.013156355 -0.0049588485 -0.0020103139 
  311000    252.15872    14388.689     2924.207    30.191157  0.024663758 0.0099919614 -0.005091498 
  312000    247.47087    21798.708     2924.207    29.778799 0.0087178856 -0.015339419  0.028950337 
  313000    287.88421     5867.273     2924.207    27.939129  -0.02647763 -0.051132446  0.022162481 
  314000    250.34428    13306.229     2924.207    25.709725  0.032633006 -0.0043922724 -0.011815199 
  315000    261.68096    6074.4765     2924.207    25.672199 -0.032945671 -0.0063652294  0.015293957 
  316000    239.55237    17585.693     2924.207    29.230248  0.019597788   0.00932465 0.0072783887 
  317000    258.65209    13483.436     2924.207    29.343995  0.010356088  0.023208682 -0.0084503826 
  318000    252.62328    10373.013     2924.207    27.504781 -0.0058806591 0.0098937487  0.044365237 
  319000    271.67581    13794.016     2924.207     25.53542 -0.018184784 -0.018482319  0.052534817 
  320000    242.87411    8855.9777     2924.207    27.234084  -0.01800259 -0.0081405659 -0.017529552 
  321000    257.12816    15938.613     2924.207    29.232046 0.0096726915 0.0025170204 -0.042239392 
  322000    238.18702     16449.26     2924.207    30.200378  0.012475495 -0.0017847415  0.039004768 
  323000    248.83739    7029.9111     2924.207    31.643367  -0.01844778 -0.036089434  0.041523822 
  324000    277.08961    16368.411     2924.207    30.697941 -0.033193517  0.016920667  0.024912754 
  325000    246.55528    9510.4318     2924.207    31.772347 -0.0069383282 -0.0021729324 -0.030736959 
  326000    240.73549    10842.246     2924.207    33.508695  0.025471266  0.021306733 0.0089542329 
  327000    263.57951    12823.268     2924.207    34.559548 0.0089492316  0.039792515 -0.011695173 
  328000    267.98017    11814.755     2924.207    34.036688 -0.0049798918 -0.0014622904 -0.0076450172 
  329000    254.48241     15276.01     2924.207    33.509148  -0.02620443  0.015100235  0.012177288 
  330000    262.67653    12527.936     2924.207     33.38166 0.0077078433  0.014310898  0.019688911 
  331000    268.86326    13966.716     2924.207    32.291736 -0.036419711  0.029691396 -0.029615784 
  332000    239.94442    14854.348     2924.207    30.909163 -0.00089235374 -0.027323449 -0.018802304 
  333000    278.01478    5239.8288     2924.207    32.448152 0.0083476109 -0.030478583 -2.9861019e-05 
  334000    247.19032     11425.06     2924.207    34.131722 0.00053774384 -0.0039375902 -0.0041496391 
  335000    233.91491    17127.624     2924.207    30.839845 -0.008530962 0.00035618169 -0.0069385273 
  336000     272.6967     2940.351     2924.207    29.133004 -0.0081682091 0.0012670781  0.018082102 
  337000    248.24741    18136.569     2924.207    29.766875 -0.021966784 -0.0054150265 0.0031287787 
  338000    249.32676    13277.836     2924.207    31.748067 -0.023644598 -0.051261481 -0.0048539243 
  339000    253.31442    15668.166     2924.207    35.139562 0.0093179823 -0.0014440639  0.044957732 
  340000    230.08056    9263.2955     2924.207    35.618206 -0.022273336 -0.014621192 -0.0023170924 
  341000    276.74357    7807.3803     2924.207    33.385699 -0.0032269171 -0.0070252263 -0.013749445 
  342000     271.0442    14289.243     2924.207     30.51555  0.012847975 -0.022166429 0.0053238793 
  343000    254.52208    10326.716     2924.207    29.506821 -0.032425371 5.1964054e-05  0.015816956 
  344000    250.53891    16505.246     2924.207    28.657888 -0.0011674835  0.029832047  0.023312563 
  345000    259.91594    14645.134     2924.207    28.079265  0.032398923  0.023931794 0.00095151212 
  346000    248.86344    7308.6822     2924.207    28.032823 -0.017967285 -2.2437171e-05  0.054706514 
  347000    260.52323    16299.737     2924.207    28.297804  0.019826147 -0.026180935 -0.0046594766 
  348000    273.09577    11964.706     2924.207    28.613116 -0.0064660648  0.005963417  0.017543702 
  349000    274.52557    10747.312     2924.207    30.004444 0.0020555375  -0.02923942   0.02427374 
  350000    238.83024    13101.061     2924.207    30.903973 0.0076436851 0.0094070741 -0.015303613 
  351000    279.59077    10956.823     2924.207    32.669245  0.026477924 -0.0018340389 -0.0013699462 
  352000     261.2426    9832.2857     2924.207    31.969036 0.0098941555  0.020151276 2.1604679e-05 
  353000     234.1513     7798.879     2924.207    29.953524 -0.014082803 0.0075397035 -0.0074143367 
  354000    244.92082     16729.97     2924.207    29.529232 -0.028026241 -0.0071354736  -0.01667729 
  355000    261.93046     10492.86     2924.207    24.712754 -0.0063107918 0.0032946245 -0.0025954574 
  356000    269.30706    12122.948     2924.207    23.811532 0.0055141159 -0.013389943 0.0052933983 
  357000    282.61362    4072.9773     2924.207    28.096191 0.0059957948  0.024486115  0.033123493 
  358000    240.72856     18465.27     2924.207    32.033879 -0.019338943  0.004397808   0.03589771 
  359000    242.86646    13923.201     2924.207    30.714782 -0.017479574 -0.00013406396 0.0036237111 
  360000    244.96606    10254.115     2924.207    28.950987 0.0044517132 -0.013360676 -0.0093892512 
  361000    258.27911    16631.206     2924.207    29.340769  0.010343654 -0.012194516 -0.026513062 
  362000    253.61102    10492.379     2924.207    30.351547 -0.0078255446 -0.0075080695 0.0037534647 
  363000    271.21584    10771.776     2924.207    30.158045   0.04553129 -0.028418802 -0.0074740743 
  364000    274.52432    9786.8013     2924.207     28.92114  0.030930521 -0.025388283  -0.02902889 
  365000    246.61608    15568.243     2924.207     25.08919  0.041078808 -0.010251074  -0.03651555 
  366000    250.95548    5313.7572     2924.207    20.794835  0.026248668  0.026820262 -0.027650058 
  367000    259.56891    13640.669     2924.207    21.632629 -0.017280997 -0.0033206847 -0.011057429 
  368000    255.11378    11158.025     2924.207    22.106811 -0.038796474   -0.0275285 -0.022507343 
  369000    268.34889     5942.286     2924.207    25.322879 -0.015436325 -0.013745615 -0.0022931698 
  370000    259.14884    17811.003     2924.207    30.855962 -0.021062994 -0.021572014 -0.028670375 
  371000    261.22468    8282.2563     2924.207    33.037333 -0.034004778 -0.031550154 0.0058306944 
  372000    268.86491    13321.838     2924.207     31.06117 0.0075950371 -0.0040358441 -0.0011306152 
  373000    273.69658    11574.698     2924.207    28.326654 -0.0047427612 -0.036200197  0.027820849 
  374000    248.54454    15437.296     2924.207    25.874116 -0.013316981   0.02025932 0.0075478239 
  375000    266.74197    9890.0282     2924.207     24.53395  0.012364632 -0.014816138 -0.030051774 
  376000    251.47445    12128.309     2924.207    23.418497  0.026371838 -0.049275246  0.011888477 
  377000    261.43806    6303.9911     2924.207    23.671106 -0.010141065 -0.0082946451 -0.021698402 
  378000    244.21796    23935.266     2924.207    23.433768 -0.067709872 -0.0072168496  0.021138087 
  379000    256.13729    12263.516     2924.207    24.977684 0.0077496384  0.030046783  0.012477005 
  380000    275.22105    10210.317     2924.207    24.958048 -0.0065195808 -0.030412129 0.0013750301 
  381000    224.61693     14273.11     2924.207    24.281492 -0.00067986331 -0.0074509271  0.012841221 
  382000    278.66406    10134.141     2924.207    23.384787 -1.8140157e-06  0.047808869  0.013464172 
  383000    239.00558    9652.3482     2924.207    23.204521 0.0046193951 -0.020782946 0.0060080739 
  384000    248.37114    17811.764     2924.207    22.718411  0.033473461 -0.032904299 0.0016771266 
  385000     263.3419     15412.07     2924.207    21.615402 -0.031993121 -0.018735854 0.0079839752 
  386000    259.71026    6123.1672     2924.207     21.21652 0.0045906681  0.023161734 0.0037246899 
  387000    271.01188    16233.878     2924.207    21.872994 -0.019636238  0.023440396 -0.018909533 
  388000    263.25291    8263.7601     2924.207    23.237009  0.010786748 -0.002695114  0.017898537 
  389000    261.96921    18278.277     2924.207    27.731022  0.021674422  0.027468521 -0.0033211778 
  390000    276.33795    9685.5473     2924.207    28.620236  0.022889788  0.016520219 -0.028795631 
  391000    254.25963    8526.9744     2924.207    27.647249 -0.040721329  0.039682297 -0.025224323 
  392000    255.89929    20943.419     2924.207    28.247133  -0.04354935 -0.017051822 0.0075585034 
  393000    247.98625    8258.0599     2924.207     27.42591 0.0011826144  0.031302293 0.0056218029 
  394000     256.4363    11940.828     2924.207    28.214444 -0.033339237 -0.014252551 -0.0040870816 
  395000    239.15917    13450.031     2924.207    29.307899 -0.014463795  0.014158765 -0.0066478908 
  396000    267.55719    2017.9449     2924.207    31.621796  0.027768789 -0.030628413 -0.035268026 
  397000    252.97538    18847.763     2924.207    33.902304 -0.010733758 -0.030872246 -0.014344516 
  398000    256.81162    7344.8428     2924.207     31.89033 -0.014032069  0.013795905 0.0065229591 
  399000    282.08957    8390.4221     2924.207    27.827861 0.0018907749  0.025377617 -0.022040205 
  400000    257.67403    12798.206     2924.207    25.728031 0.0065908154  0.015880611 0.0028370469 
  401000    245.88485     21434.99     2924.207    23.964847 -8.258445e-05   0.01779777   0.00272124 
  402000    256.87526     826.2897     2924.207     24.97487   0.04829175  0.021074935 -0.00094877008 
  403000    263.97353    14533.402     2924.207    29.056586  0.004261654 0.0078135139 -0.020710088 
  404000    236.93995    13565.622     2924.207    33.753188 -0.0079188048  0.037951265 -0.0091297844 
  405000    273.31001    11780.993     2924.207    34.809732  0.022905988  -0.01860456    0.0395597 
  406000    251.33997    9854.8437     2924.207    34.926632  0.018231284 0.0031814301  0.020281375 
  407000    254.45008    10657.852     2924.207    35.676266  0.011258238 -0.014030319 -0.0013657515 
  408000    256.93855     12550.87     2924.207    33.745011 0.0072798014 -0.0040156275 -0.0024776683 
  409000    279.15154    11539.984     2924.207    31.368065 -0.0033279684 -0.022405127 -0.011405763 
  410000    271.03898    2468.5688     2924.207    30.463415  0.019704772 -0.0029780185 -0.0040228919 
  411000    256.40654    15948.037     2924.207     30.30699 -0.00040110517  0.024754548 -0.020332059 
  412000    265.22323    4317.8258     2924.207    29.971731  0.020358927  -0.01990958 0.0016147383 
  413000    276.93814    6100.7241     2924.207     30.50344 -0.033184002 -0.0040016508 -0.0051903959 
  414000    241.99661    14085.298     2924.207    29.419741  0.028811975  0.029357138  0.024930214 
  415000    258.36229    4893.7049     2924.207    29.295187 -0.030015025  0.029800073  0.027453164 
  416000    259.12098    10422.485     2924.207       28.447  0.014185882  0.013761716  0.030754853 
  417000    258.95413    10722.435     2924.207    25.876353  0.038110709 -0.013192588 -0.0080813884 
  418000    270.54339    10354.169     2924.207    27.388128  0.026072699 0.00098536249 -0.0014381899 
  419000    244.36969    13155.649     2924.207    30.746069  0.010233253 -0.010614648  0.013760604 
  420000    275.33356    14595.961     2924.207    33.245115  0.019837536 -0.0079583815 0.0062559899 
  421000    232.39751    11503.623     2924.207    35.062342 -0.0085952192 -0.024580133 -0.0049058903 
  422000    289.17202    10033.887     2924.207    34.235554 -0.0028256294 -0.0056427564 -0.0039407077 
  423000    256.10657    11243.268     2924.207    32.546979 0.0082412578 -0.013976503 -0.00051878475 
  424000    257.64144    9695.7167     2924.207    31.871654  -0.01071161 -0.034581802   0.02277554 
  425000    241.61824    10231.652     2924.207    32.161933  0.033653897  0.012995758 -0.0022134201 
  426000     261.5949    12836.222     2924.207    33.686533  0.022773269 -0.041448384 -0.0074257694 
  427000    253.96864     9737.571     2924.207    34.161577  0.050723183   0.01055899 -0.015066675 
  428000    259.05886    19722.932     2924.207    34.259838 -0.0066217544 -0.0040080404 -0.011102902 
  429000    244.02162    4366.1535     2924.207    32.486891  0.034993777 -0.0099183351 -0.027518872 
  430000    254.11737    13386.954     2924.207    30.255943  -0.02997001  0.016003355 0.00073567151 
  431000     254.0071    5730.6858     2924.207    29.768628 -0.014408372 0.0040993674 -0.025936016 
  432000    269.89335     12169.44     2924.207    30.149995   0.03010873 0.0098887148 -0.0056446467 
  433000    267.85606    4475.4472     2924.207    30.509128 0.0086780069   0.02608907 0.0020286245 
  434000    264.78004    16002.765     2924.207     31.25428 -0.037021963 -0.0062993599   0.01265579 
  435000    254.04867    10585.114     2924.207     32.21148 -0.023396826 -0.025132621  0.037194187 
  436000    255.14689    5206.4504     2924.207    31.091799 -0.043405069 -0.0030520624  0.006229908 
  437000    258.83049    12022.621     2924.207    30.324301 -0.012104354  0.018325922  0.024700683 
  438000    273.69526    7440.2395     2924.207     32.23837 -0.036331304 -0.014049195 -0.044527989 
  439000     258.9198    6515.7993     2924.207    33.873209 -0.026325981 0.0026588594 -0.015216213 
  440000    282.37518    15289.889     2924.207    29.643393 -0.0011518965 0.00012450361 -0.0014420589 
  441000    248.65871    7885.4134     2924.207    21.649215  0.013461638 -0.042403152 0.0083588763 
  442000    259.17788    9854.3678     2924.207    19.431053   0.00604285  0.010529592 -0.010770637 
  443000    261.17497    8211.9557     2924.207    22.743688  -0.01140107 0.0019789031 0.0096832178 
  444000    273.29945    8495.4302     2924.207    28.322105 -0.011054071 0.0016456128 0.0045729256 
  445000    257.10766    20870.577     2924.207    31.140469 0.0044236134  0.027161184 -0.0015016212 
  446000    265.65722   -809.76056     2924.207    27.193736 -0.021477336 0.0014501672 -0.021522074 
  447000    261.52286    13844.871     2924.207    22.111491 0.0087318685  0.029992771 -0.027761206 
  448000    261.29267    7585.8084     2924.207    21.565278 0.00049380191 -0.025526222  0.014742478 
  449000    248.09063    12399.409     2924.207     26.35192   0.02530829 -0.0039223713  -0.04013801 
  450000    248.79148    7284.9823     2924.207     32.13738  0.043718837 -0.033356913 0.0013950467 
  451000     278.2354    11063.992     2924.207    31.307904 0.00047754068 -0.024314928 0.0058359964 
  452000    244.55731    14190.711     2924.207    25.527841 -0.011355502 -0.043591966 -0.018313804 
  453000    255.44027    2963.9704     2924.207    19.353804  0.013967914 -0.017624539 -0.0059712789 
  454000    265.17403    9560.6621     2924.207    15.399475 -0.016187377 0.0079740399 -0.016457586 
  455000    279.06537    8580.5526     2924.207    19.821268  0.025038574 -0.014449259 -0.0046259491 
  456000    262.61943    12596.346     2924.207    26.552998  0.043899757 -0.0066042667   -0.0462817 
  457000    270.49402     2919.046     2924.207    30.639574  0.006716298 -0.019994262 -0.019483092 
  458000    267.12964    7640.4006     2924.207     28.24677 0.0013174866  0.017228721 -0.033068366 
  459000    272.72324    13034.485     2924.207     25.63943  0.013356962 -0.010710098 0.0069927129 
  460000     265.4335    2785.6418     2924.207    23.179734 -0.042396636 -0.0095619141 -0.035456686 
  461000     263.7375    22053.607     2924.207    23.443363 -0.016395986 0.0068057363 -0.009006282 
  462000    256.74944    9142.6153     2924.207    24.707783 -0.048990676  0.004754209  0.013235877 
  463000    268.51212    3081.8836     2924.207    23.990983  0.024267519  0.038052731     0.011715 
  464000    258.09376    13425.965     2924.207    22.892069 -0.014119804  0.015316782 -0.017316429 
  465000    257.84187    8306.9121     2924.207    23.070792 0.0011559966 -0.0016082012 -0.020627059 
  466000    249.77693    9852.7116     2924.207    24.347807 -0.035294919 -0.011149033  -0.01255384 
  467000    264.18186    8899.7258     2924.207    28.226297  0.014639406  0.038270311  0.029733359 
  468000    272.85296    18706.287     2924.207    30.483444 -0.0025945836 -0.016574693 -0.013097476 
  469000    264.07096    7607.7007     2924.207    32.089663   0.01300506 -0.043703126  0.029634024 
  470000    276.86279     7374.364     2924.207    32.419307 0.00075844304 -0.0089517194 -0.0059282082 
  471000    275.66568    13135.291     2924.207    30.313437  0.030507642 -0.024820577 0.0005663738 
  472000    258.93285     7979.287     2924.207    27.417808  0.022348557 0.0099022901 -0.0070431803 
  473000    259.67088    13480.165     2924.207    25.270964  0.034649998  0.032179871  0.012793766 
  474000    277.83477    5588.8628     2924.207     27.49076 -0.020813393 -0.022622639 -0.023801361 
  475000     255.9664    10769.325     2924.207    29.942897  0.032021175 -0.058117365 -0.0075976387 
  476000    269.29529    11282.434     2924.207    31.379658 -0.013383419 -0.0028354899  0.018090514 
  477000    255.94184    7150.4832     2924.207    29.989149  0.022522506 -0.050865477  0.014530907 
  478000    258.62098     7089.718     2924.207    28.594826 0.0098635544 0.0047063425  0.019106847 
  479000    244.78256    11157.702     2924.207    24.109152 -0.011704866 -0.001325315 0.0034282124 
  480000    258.52302     10231.43     2924.207    22.557442 -5.0831154e-05 -0.0080561032  0.020265028 
  481000    257.65216    11816.541     2924.207    23.660818   0.01554785  0.013703471  0.027080997 
  482000    262.50315    6565.2501     2924.207    26.568984  -0.05451894 -0.0012382263  0.019419265 
  483000    269.42004    6965.4202     2924.207    31.154881 -0.0052304061  0.018231836 -0.042708545 
  484000    251.04808    9372.9024     2924.207    33.749098 -0.016371529   0.03732046  0.018423987 
  485000    275.53824    5780.7796     2924.207    33.947023 -0.0068992638 -0.021292198 0.0058036849 
  486000    257.69487    11725.838     2924.207    31.930527 -0.022246633 0.0074794263 -0.0084253923 
  487000    258.42141    7788.8754     2924.207    30.944627 -0.0048945468 -0.013629644 -0.0026201983 
  488000    262.71501    8806.1291     2924.207    32.086612 -0.017466837  0.052576674  0.016533696 
  489000    266.91678    12486.599     2924.207    32.722606 -0.010922294 0.0089472106 0.0013740194 
  490000    264.38108    6369.4521     2924.207    31.457681 -0.0026356725 -0.0075457631 -0.010530697 
  491000    272.65969     8915.675     2924.207    31.451485  0.013438854 -0.0071964467  0.021017789 
  492000    258.60958     9973.866     2924.207    32.656829 -0.0036959742 -0.0050932735 -0.018217329 
  493000    240.37792      12827.9     2924.207    33.624652 -0.00018418347 0.0011259162 -0.014731035 
  494000     275.5133    1647.9476     2924.207    32.306124  -0.02030917 0.0013548183  0.013697379 
  495000    243.91178    16558.796     2924.207    28.071161 0.0046950454 -0.045628753   0.01594237 
  496000    264.09199    4488.0189     2924.207    25.289948 -0.027484994  0.014312214   0.02036432 
  497000     263.6766    8971.0842     2924.207    25.243074 -0.023078171  0.012681594   0.02667476 
  498000    249.88732    13281.851     2924.207    25.342606 -0.024617635  0.018247196  0.012830647 
  499000    269.52676    5428.0053     2924.207    21.496261  0.031256051 -0.015626782   0.01099163 
  500000    246.50146    15679.186     2924.207    20.356225 0.0029639434 -0.022854663 -0.0088223186 
  501000    269.70479    11539.607     2924.207    23.947495 -0.024039538 -0.040037686 -0.037058504 
  502000     234.1775    5620.8071     2924.207    29.295198 -0.0036226836 -0.029565884 -0.0038612951 
  503000    257.62428    8248.4336     2924.207    32.685185 -0.017940241 -0.013625083 0.00085940166 
  504000    251.23984    5957.4624     2924.207    31.356391 -0.023120336 -0.027889862 -0.0041426397 
  505000    271.62435    9112.8851     2924.207    27.009954 -0.043844678 0.0081435575 -0.017368069 
  506000    249.55051    12801.705     2924.207     25.76055 -0.023316367  0.022196134 -0.0048208363 
  507000    269.21463    6566.6107     2924.207    26.702488  -0.05446425 -0.027316159  0.026413492 
  508000    246.17635     14334.57     2924.207    27.670272 -0.028950977 0.0056721284 -0.014977699 
  509000    255.35552    5237.8767     2924.207     25.43712 -0.0099501156  0.018399633 -0.021973234 
  510000    257.27841     8287.465     2924.207     24.42047 -0.048708245 -0.0049822423 -0.022773904 
  511000    242.29712    11687.012     2924.207    25.399148 -0.0019874194   0.00156115 -0.028019543 
  512000    231.60482      7803.45     2924.207    28.017151  0.021711712 -0.0049942581 0.0076137786 
  513000    250.33719    10431.471     2924.207    28.996164 -0.0013801673 -0.025745132   0.02365429 
  514000    260.86004      8720.97     2924.207    27.185782  0.033286027 -0.025832661  0.049942434 
  515000    242.92146    11990.187     2924.207    25.308175 -0.0082044837  -0.01419198 -0.034041352 
  516000    266.39325    12946.946     2924.207    26.506828 -0.0050828009  0.014955501  0.026518179 
  517000    237.16711    9734.6697     2924.207    27.899123 -0.025615843 -0.021515893  0.027203742 
  518000    263.06838    7653.5319     2924.207    28.790015 0.0059325316 -0.0012629139 -0.023069216 
  519000    235.35382    18565.831     2924.207    30.884261 -0.017293161 -0.032395783 0.0084753871 
  520000    261.33935    4293.2588     2924.207    34.021281   0.00424975 -0.014015699 -0.028829125 
  521000    246.26533    8941.4757     2924.207    35.115521   0.01669133  -0.05570945 -0.016151374 
  522000    249.89804    16793.289     2924.207    35.384336  0.036451184 -0.020583134 -0.038500972 
  523000     259.0095    4695.9448     2924.207    34.131317  0.011142614  0.038478938  0.030164412 
  524000     257.7119    4066.0939     2924.207    32.551472 -0.020366223 -0.023610942 0.0025361854 
  525000    237.70203    21073.774     2924.207    31.384873 -0.0018205261  0.010142277  0.065445743 
  526000    268.12617    2472.8091     2924.207    31.385616 -0.038237588 0.0019749613  0.030158131 
  527000    271.48351     9589.676     2924.207    30.334284 -0.014429452 0.0096792904  0.035209201 
  528000     258.6791    5821.6774     2924.207    26.261612 -0.012621291 0.00046473673 -0.021637769 
  529000    264.32961     15543.22     2924.207    22.307938   0.02129674  0.014442027 -0.00067681508 
  530000    246.71093     8760.929     2924.207    20.285429 -0.0085835919 0.00057892618  0.034105837 
  531000    248.52383    10458.922     2924.207    20.904085 -0.033007518   0.02074503  0.003750109 
  532000    258.09932    14281.639     2924.207    24.189763 -0.0072279106  0.013979842 0.0040834158 
  533000    259.40556    12519.731     2924.207    28.918274 -0.0074336336  0.031283908  0.033437468 
  534000     243.7517    7787.9007     2924.207    32.219333 -7.18016e-05  0.028078662 -0.0087529817 
  535000    247.79409    10678.491     2924.207    31.212644  0.020808056 -0.027586089 -0.029000537 
  536000    239.85021    8228.6079     2924.207    26.955573 -0.011702685  0.004528669 0.0029123417 
  537000    249.50451    14606.362     2924.207    22.079069 -0.016784629  0.007740988 -0.0077459148 
  538000    253.78434    8200.5411     2924.207    23.316527  0.011530273 -0.0058828054 -0.025298568 
  539000    270.95856    11965.701     2924.207    30.722332 -0.037936399 -0.013033811 0.0083787813 
  540000    258.98029    9492.2076     2924.207    34.908332  0.013218825 -0.0075655921 0.0073507288 
  541000    251.19428    10134.703     2924.207    31.931333  0.020439298 -0.0060159177 0.0016964964 
  542000    252.05538    14012.379     2924.207    26.114976  0.012465333  0.034748274  0.025942474 
  543000    240.70454    6131.1031     2924.207    24.430853  0.018167213 -0.012390763 0.00043912364 
  544000    255.36195    9039.6291     2924.207     28.91636   0.02001226 -0.017857097 0.00045150135 
  545000    260.73021    13106.054     2924.207    32.076217  0.023709619 -0.0072127235 -0.028517031 
  546000    254.84213    4581.8521     2924.207    32.413803 0.0097115091  0.021450677  0.023944762 
  547000    245.11139    4838.8665     2924.207    29.772285 -0.017088226  0.035077865  0.034646831 
  548000    252.43318     16354.16     2924.207    27.226128  0.035108038 -0.026715387 -0.0071105217 
  549000    250.92178    10065.162     2924.207    29.538893  0.015982909  -0.03180534 -7.8798827e-05 
  550000    243.63703    6328.1828     2924.207    34.043581 0.00053408103 -0.010820562  0.011129241 
  551000    250.55824    13553.449     2924.207     35.31837 -0.0014311517  0.029502815  0.022625368 
  552000    269.48305     7255.893     2924.207     30.68713 -0.012962334 -0.026284157  0.010154066 
  553000    253.73751    4177.6148     2924.207     24.64339 -0.038652954  0.012106679  0.024719781 
  554000    241.72189    17947.053     2924.207    23.687477  -0.02706581 0.0021426636 -0.031221826 
  555000    244.77939    7342.0547     2924.207    26.584015 -0.012727391 -0.052665146 -0.011786927 
  556000    261.31743     5955.196     2924.207    28.370811 -0.023366059 -0.051623174  0.049957338 
  557000     262.3583    14485.417     2924.207     30.30469 -0.011152952 0.0090447941  0.011341979 
  558000    235.83524    12720.971     2924.207    30.882274 -0.016774252 0.0028749458 -0.0074630819 
  559000    255.60178     13199.62     2924.207    30.245846  0.011609116  0.021860986 0.0022958062 
  560000    252.75661    11311.832     2924.207     28.17791 -0.0048529671 0.0057380011 -0.013115315 
  561000    242.37847    13538.988     2924.207    28.112581 -0.023933986 -0.0081234965 0.0010292801 
  562000     256.4195    4459.4878     2924.207    30.702767 -0.0084523716 -0.0034860862  0.011408327 
  563000    255.27293    12584.722     2924.207    33.162369  0.032657535 -0.0054057065 -0.015069135 
  564000    242.65349    5236.1131     2924.207    34.228763 -0.013146579 -0.0094686216 0.0053406004 
  565000    273.67865    10416.894     2924.207    33.784422  0.027937599  0.049535012  0.019687699 
  566000    263.97939    10852.182     2924.207    29.254464 -0.016531636 -0.016305333 -0.0068273888 
  567000    240.79079    10069.896     2924.207    25.486045  0.031243047 0.0038313551 0.0005076924 
  568000    248.90419    13705.077     2924.207    23.455639 -0.0061511446 -0.0070302989  0.030491914 
  569000    267.59461    17581.163     2924.207    24.688781 -0.011205571 -0.027642529 0.0037891999 
  570000    255.63275    2995.9372     2924.207    25.133156 -0.0081599262  0.026667182 -0.0046802977 
  571000    255.40154    14643.209     2924.207     22.23877  0.015980959 -0.006897468  0.027764381 
  572000    257.56792    9413.8992     2924.207    17.890678 -0.026280132 -0.018964649 -0.025267635 
  573000    266.65444   -3837.4822     2924.207    14.869317  0.030568347  0.029658271  0.015645257 
  574000    248.19558    21496.905     2924.207    16.571522 -0.024741141 -0.0072697682  0.025563734 
  575000     263.9339    6476.3295     2924.207    20.504397  0.053423677 -0.00068923942  0.032703567 
  576000    245.93817    11844.267     2924.207    24.239061 -0.049626022 0.0084194858 -0.019338718 
  577000    263.29229    14118.829     2924.207    25.278819  -0.04063083 0.0011068963 -0.047521491 
  578000    241.12681    9223.7429     2924.207    24.413137 -0.025149076 -0.0095205317 -0.021181922 
  579000    236.38238    9549.8974     2924.207     21.41683   0.01414514  0.026097599  0.016013959 
  580000    257.88276    6745.9307     2924.207    17.991938 -0.0048924938 -0.023426922 -0.0013074626 
  581000    262.15836    11193.934     2924.207    15.577229 -0.0052569493 0.0098678837 -0.0045681413 
  582000    262.34897    12058.451     2924.207    15.476909  0.017348831  0.023004826 -0.0099462808 
  583000    245.95325    14695.077     2924.207    18.935412  0.020125256 -0.027720978  0.034221066 
  584000     265.7604    7959.7104     2924.207    21.642523  0.025185195 0.0036855314 -0.0018542442 
  585000    265.61074    12860.741     2924.207    24.228944 0.0031607706 -0.00031243508 -0.037619333 
  586000    252.24515    9648.2175     2924.207    24.556576  0.012313022   0.00732234 -0.010264312 
  587000    253.81792    10045.258     2924.207    24.629009  0.053519293 -0.0021753203 0.0013370071 
  588000    249.08637    5954.4875     2924.207    24.975188 1.9618477e-05  0.014505002  0.020879025 
  589000    257.62162    10936.084     2924.207    25.366115 -0.016758132 -0.0062651385  0.019494221 
  590000    269.82807     10645.46     2924.207    24.725478 -0.0090116802  0.025543596 -0.0048626782 
  591000    270.96994    13812.633     2924.207    24.143595   0.01355178 -0.0044459701 -0.019292785 
  592000    268.00237    2526.0322     2924.207    26.301292  0.034958227 -0.001772737 -0.035272888 
  593000    256.72757    6773.4702     2924.207    27.366565  0.035187239 -0.021025766 -0.022299828 
  594000    254.51286    10654.128     2924.207    27.000022  0.020715959   0.03441598 0.0080596213 
  595000    261.78921    8534.5797     2924.207    25.987795 -0.044556341 0.0052469007 -0.0052732263 
  596000    270.57575    7794.6111     2924.207    25.662517 -0.022669482 -0.0099723844  0.027191375 
  597000    273.00263     12414.89     2924.207    25.629365 -0.0074777799 -0.0037425763  -0.01536439 
  598000    263.27458    5900.9058     2924.207    22.601096 0.0019871392 -0.0061383587 -0.041352642 
  599000    258.91905    9075.0598     2924.207    17.374136  0.038806777 -0.024903206  0.016049561 
  600000    259.12009    7791.2307     2924.207    17.707287 -0.015464526  -0.02536656  0.011834127 
  601000    237.27777    11618.606     2924.207    23.575549  -0.04883368   0.03413314 0.0043585112 
  602000    265.28602    11183.943     2924.207    30.913987 -0.020984535   0.01632143 -0.004978092 
  603000    248.60226    7740.3299     2924.207    34.897574 -0.050491619  0.038735759  0.012808005 
  604000     276.3786    12992.788     2924.207    33.683841 0.0085273992  0.031978134 -0.019365166 
  605000    251.19987     6724.305     2924.207     27.38732  0.020145127 0.0042057302 -0.0019138914 
  606000     251.5382    14934.427     2924.207     21.79147 0.0047315478 -0.016505608 0.0097044848 
  607000    275.97069    2110.6376     2924.207    18.863697 0.0052672717 0.0016010306 -0.0092742647 
  608000    255.34377    12163.832     2924.207    18.589782 -0.019615954 0.0030948784  0.024210345 
  609000    251.19714    8570.0351     2924.207    21.283554 -0.010216372 -0.043906466  0.010724395 
  610000    254.76523    6274.4231     2924.207    26.261966 -0.0048949393 0.0099062186 -0.014980829 
  611000     266.9176    12459.787     2924.207    29.671328  0.014087441 -0.016354885 -0.0043059217 
  612000    246.76688    14759.644     2924.207    29.164806 -0.0007713301 -0.0054782741  0.004005743 
  613000    251.30405    6585.2531     2924.207     28.66064 0.0029505982 -0.022951082 -0.0087603869 
  614000    257.65031    3079.1898     2924.207    28.361712  0.018252978 -0.0058157561  0.014414953 
  615000    260.08641    12460.895     2924.207     27.91901  0.033973235  0.018567176 -0.00063642214 
  616000    252.70144    8818.8375     2924.207    27.696308 -0.007469987  0.031382274 -0.032007595 
  617000    247.24368    1833.7889     2924.207    27.332317 -0.022350003  0.036828878 0.0044891137 
  618000    264.09739    9188.2457     2924.207    28.057922 -0.028942882 -0.038551625 0.0055323667 
  619000    239.96888    6807.6446     2924.207    31.082508 0.0038978912 -0.00033183729 -0.010746148 
  620000    244.73449    11949.254     2924.207    31.274093  0.011800232 -0.027798341 -0.0075009319 
  621000    260.32316    9109.4964     2924.207    29.088683 -0.045201306  0.026666392 -0.021604665 
  622000    249.58581    11670.212     2924.207    28.850534 0.0064830454 -0.013869085 -0.0052680605 
  623000    258.20286    8528.5206     2924.207    31.695354 -0.009244912  0.011152382 -0.0061955264 
  624000    265.44306    5437.0435     2924.207    34.725654   0.01122082 0.0039679251  0.018992782 
  625000    268.02319    3425.1421     2924.207    33.268553  0.024303513  0.018998908  0.034204463 
  626000    245.85994    13569.317     2924.207    27.031462  0.046948772  0.018609911  0.017217697 
  627000    251.26536    12615.272     2924.207    21.888611 0.0033044733  0.024943483  0.022181016 
  628000    271.83506    6945.7839     2924.207     21.64275 -0.012047968 -0.0060646955  0.046324047 
  629000    271.94113    11647.244     2924.207    25.713362  0.025934199 -0.018061879 -0.019331086 
  630000    243.16571    8670.5278     2924.207    30.457013 -0.0012574419  0.028748426 -0.0019870525 
  631000     292.6719    755.88839     2924.207    32.398925 -0.032610557  0.025652431 -0.010875789 
  632000    253.12332    14304.123     2924.207     30.77853  0.016371527  0.033193966  0.034836186 
  633000    263.03619    8004.5965     2924.207    25.716666   0.00301914  0.011875978  0.014562596 
  634000    254.09856   -1068.7466     2924.207    22.276834 -0.0051104637  -0.01301405   0.01845023 
  635000    265.57572    17638.143     2924.207    23.381542 -0.0045297403 -0.00024194377  0.013237964 
  636000    249.80326    5851.9128     2924.207    27.012457 0.0097689143 -0.017042842 -0.0019372351 
  637000    267.15338    9764.9069     2924.207    29.991287 -0.016971992 0.0082993887  -0.02083603 
  638000    259.50636     9836.578     2924.207    33.734462  0.042048783 0.0047426611 -0.0042771214 
  639000    251.53634    13080.362     2924.207     35.71826  0.012675038  -0.01524872 -0.034611101 
  640000    235.10972    6630.9456     2924.207    35.474443 -0.0047612493 0.0092519564 -0.016520299 
  641000    274.03691    10617.326     2924.207    34.315436 -0.016348554  -0.01424873 -0.00032459046 
  642000    264.67634    14689.665     2924.207    30.323803 0.0080913908 -0.010914987 -0.003176757 
  643000    242.57389    4888.5988     2924.207    24.802701 -0.0065874862 0.0023155456  0.019577781 
  644000    276.31656    12290.042     2924.207    22.969727  0.011323527 -0.038229797  0.024968351 
  645000    267.02583    4566.4929     2924.207    25.908569 0.0066447461  0.011018979 0.0087049296 
  646000    260.51368    5867.3749     2924.207    31.288932  0.020059528 -0.059202735 -0.034612361 
  647000    256.77418    8806.6121     2924.207    33.114204  -0.01095147 -0.032711207 -0.0064132242 
  648000    251.29282    12206.418     2924.207    28.598241 -0.0069905533 0.0014835316 0.0011177198 
  649000    260.42635    6765.5324     2924.207    20.741636  0.021800151  0.002399413  -0.02423033 
  650000    256.08012    8732.2828     2924.207    15.559877 -0.0045280342 -0.0033779929 -0.030969843 
  651000    272.42045    7445.2545     2924.207    13.296589  0.005600597 -0.032392605 0.0091768934 
  652000    261.88164    6464.9729     2924.207    14.886382   0.00975254 -0.056323289 -0.001444844 
  653000     251.0661    9267.7608     2924.207    16.336902  0.012367758  0.017199147  0.014252043 
  654000    250.53336    15073.824     2924.207    18.551529   0.01088977 -0.00084862948 -0.037727006 
  655000    256.10282    8442.7187     2924.207    21.934713  0.027348109 -0.012989293 -0.024524194 
  656000    255.19926     4027.312     2924.207    22.869266 -0.0082232798  0.015773227 0.0073163395 
  657000    244.66376   -146.93901     2924.207    23.038329 -0.011219166 -0.0059396832  0.018761697 
  658000    253.23489    18153.831     2924.207    22.968297  -0.02822803  0.016774718  0.016345015 
  659000    272.03733    10891.855     2924.207    23.724497 0.0049438106 -0.0065978821 -0.020710276 
  660000    254.54608    6660.9694     2924.207    23.654245  0.018257861  0.011479884  0.014122653 
  661000    253.00672    19154.766     2924.207      24.0131 0.0013669752 -0.0040276788 -0.014822406 
  662000    258.03885    5124.8424     2924.207    24.765559 0.0058717516 -0.021620467 -0.005765701 
  663000    260.01695    4918.0439     2924.207    27.226963 0.0079947741 0.0033814171 0.0076013135 
  664000    277.17708    13362.773     2924.207    29.018347 -0.011926935  -0.00773661 -0.0061593289 
  665000    246.33041    10263.584     2924.207    29.568851 -0.007535387 -0.037522026  0.020062089 
  666000     257.4146    6604.9749     2924.207    31.232174 0.0050524331 -0.014026906  0.028638994 
  667000    241.82094    10148.497     2924.207    31.411166 0.0083361815 0.0037490433   0.01092178 
  668000    248.20393    4317.2736     2924.207    29.009463  0.034978846 -0.0053086066  0.029919811 
  669000    261.52399    6403.5363     2924.207    25.428023 -0.0060136812  0.018576075 -0.010668774 
  670000    251.18919    12993.134     2924.207    23.258501 -0.0097860855 -0.0022698216  0.010026195 
  671000    238.89985    11087.141     2924.207     22.22508  0.043392169 -0.0049967316 0.0055451954 
  672000    248.98647    5553.4783     2924.207    22.724194 -0.014880167  0.028290499  0.019518428 
  673000    264.50295    14930.431     2924.207    22.710284 -0.025697587 -0.022098912 -0.067046848 
  674000    260.12166    6894.6174     2924.207    22.925303 0.0070764366 -0.0013804489 -0.010710418 
  675000    247.62465    8034.6961     2924.207    23.915308 -0.038912536  0.019246965 -0.018529489 
  676000    250.27242    13157.494     2924.207     24.85644 -0.012018701  0.012208661 -0.050643113 
  677000    259.27491    5788.1377     2924.207     22.91082 -0.0071235371 -0.014179242 -0.015650115 
  678000    277.65072    5752.1805     2924.207    21.298155 -0.00078334047 -0.020157107 -0.030649414 
  679000    253.76207     17722.56     2924.207    21.472891 -0.0025612033  0.017056665 -0.030909922 
  680000    247.41177     5953.028     2924.207    25.344333 -0.0092366768 -0.0090948506 -0.040638019 
  681000    241.25092    6789.8396     2924.207    29.743344  0.031991006  0.023102858 -0.0059526946 
  682000    259.05653    10419.005     2924.207    33.069482 -0.0056764106 0.0017228293 0.0049770358 
  683000    237.88952    11107.291     2924.207    32.927246  0.029284825  0.022162542 -0.027980543 
  684000    256.76425    9580.9794     2924.207    31.114535 -0.0077966877 -0.0077757909 -0.0038535419 
  685000    247.43556    8427.5533     2924.207    29.244079 -0.027525903  0.021698329 -0.0028431177 
  686000    264.95123    13084.441     2924.207    27.739176 -0.012274428  0.020610204  0.022251405 
  687000    246.04679    4545.7327     2924.207    25.822445 -0.016706272 -0.0060643625  0.012281561 
  688000    257.35856     11648.89     2924.207    23.888099  -0.02731021 -0.023416643 -5.2374347e-05 
  689000     248.9497    6182.6895     2924.207    24.994553 -0.018266582  0.008629286  -0.02087699 
  690000    245.26037    5422.1591     2924.207    28.277935  0.031509981 0.0077357352 0.0097068488 
  691000    274.83277    14300.865     2924.207      29.9042 0.0021196855  0.016685035 -0.0074848229 
  692000    258.43529   -2906.0118     2924.207    28.870506  0.036205997 -0.0097455251  0.013229382 
  693000    257.17942    11221.078     2924.207    27.357666  0.051451905 -0.020469714 -0.0052618965 
  694000    243.94631    14949.896     2924.207    28.050536  0.004795759  0.016162117 0.0093053453 
  695000    264.38536    7549.9368     2924.207    31.251525 -0.024138062 0.0011209016 -0.014722563 
  696000    265.59826    6530.9474     2924.207    31.564672  0.016475935 -0.00040131886   0.00285503 
  697000    248.40311      11335.6     2924.207    31.217393  0.021593591  0.024555581  -0.01209163 
  698000    257.35581    8148.5972     2924.207    30.555951 -0.015180253 0.00053266299 0.0042919276 
  699000     273.1577    8049.6603     2924.207    28.172474   0.05475644  0.046380869 0.0068396074 
  700000    264.69031    14089.168     2924.207    27.159109  0.020219174 -0.041066912 -0.0076789506 
  701000    257.75998    2608.8515     2924.207    26.718264  0.025615935   0.02050823 -0.012212128 
  702000    252.57049    11421.794     2924.207    26.827187  0.002020866 0.0077803304 -4.0101592e-06 
  703000    231.58017    6525.4959     2924.207    26.987056  0.023606153 0.0055095097 -0.010200158 
  704000    258.63169    8863.0338     2924.207    27.226645  0.018877034  0.010911442  0.022955507 
  705000    257.72224    5048.5711     2924.207    27.041046  0.047572414  0.029404373  -0.00304797 
  706000    261.66246    16220.303     2924.207    25.656587  0.036706678  0.025079741 0.0087797575 
  707000    265.34631    1047.0032     2924.207    26.089394  0.023537849 0.0027214228 -0.0098256424 
  708000    263.75263    7136.9572     2924.207    28.375282 -0.0027959535 0.0052359586 -0.019368438 
  709000    263.84907    15138.648     2924.207     29.12096  0.032761609 -0.023903916  0.010159474 
  710000    262.55372   -1013.3751     2924.207    29.515239  0.003110576 0.00027001615 -0.031317001 
  711000    266.10085    11664.072     2924.207    29.207602 -0.013102859 0.0089603555 -0.0060864794 
  712000    257.07283    3702.4898     2924.207    28.707562 -0.0012998422 -0.047298804 -0.0015149566 
  713000    255.55335    4603.8935     2924.207    27.140303  0.015053108 -0.015725422  0.043674448 
  714000    257.93583    17535.776     2924.207     24.02372  0.021825283  0.036296909 0.0082257944 
  715000    257.88237    3868.1234     2924.207    22.822822 0.0069725949 -0.013328859  0.021254118 
  716000    243.68027    19565.962     2924.207    22.089964  0.017004488  0.013061192  0.020213236 
  717000    240.94723    6646.7973     2924.207    23.464237  0.018570521  0.030450401  0.037897267 
  718000    252.50634    6529.1481     2924.207    25.145179  0.029046382  0.013773351  0.040210063 
  719000    246.75412    8836.6758     2924.207    28.331085 0.0063321645 0.0024924363 -0.0048525174 
  720000    251.53668    11629.504     2924.207    32.420675  0.013790299  0.022742411  0.016683895 
  721000    252.50463    9732.4522     2924.207    34.944589 -0.0040278536  0.032312756  0.022822707 
  722000    264.38987    6703.0632     2924.207    35.320151  0.028307265   0.01069063   0.01930463 
  723000    267.89687     11418.41     2924.207    33.543396  0.028131912 -0.0066473984   0.01199396 
  724000     246.7859    13592.458     2924.207    29.254643  0.020867888 -0.042958096  0.038452432 
  725000    242.92338    8128.8531     2924.207    24.866454 0.0013412069  0.024881813  0.029274541 
  726000    254.46106    8863.2225     2924.207    22.194272 -0.0010457771  0.026392515 0.0090058971 
  727000    243.39312     7381.205     2924.207    20.336965 -0.008172969  0.013865222  0.023994975 
  728000     270.9601    2149.6778     2924.207    21.001101  0.043824737  0.030240514 0.0026603486 
  729000    263.00789    12752.154     2924.207    23.127135 -0.005988733 -0.0085607376  0.019114149 
  730000    253.91399    11376.359     2924.207    25.109029 -0.0091505545 -0.0043369495 -0.011908236 
  731000    256.00012    9179.0573     2924.207    25.531835 -0.037841736 -0.020956693 0.0033035983 
  732000    253.18876    9633.1437     2924.207    23.662701 -0.020888348 0.0034632213 -0.020969036 
  733000    248.30088    6909.5388     2924.207    22.861984 -0.0088671738 -0.031246207  0.026776448 
  734000    256.10968    18186.524     2924.207    24.501435 -0.00036246219 -3.1687539e-05 0.0055160704 
  735000    265.23696    6941.9546     2924.207    27.873375  0.010257725 -0.010715175  0.033637093 
  736000     258.0758    5992.7286     2924.207    29.266052 -0.010992652 -0.0058806668 -0.025698249 
  737000    266.56627    13239.234     2924.207    29.239512  0.025231132  0.008254943 0.0073950129 
  738000    243.51516    12194.714     2924.207    30.547478 -0.015930558  0.059508495  0.010805774 
  739000    245.92244    5802.2756     2924.207    30.458977 -0.0047618756  -0.01335161 0.0048967929 
  740000    255.18784    3868.3688     2924.207    28.610125 -0.0008134608  0.031072204  0.025487219 
  741000    274.15229    12624.212     2924.207    26.923048 0.0011100302  0.015690038 0.0055237069 
  742000    236.19657    9821.3724     2924.207    28.363137 -0.0026348214 0.0012104176    0.0092227 
  743000    249.90875    13853.099     2924.207    30.150932 -0.013386044   0.03474344 0.0088873911 
  744000    248.16527    6212.2943     2924.207    31.824399   0.03097951 -0.00013926116  0.024861456 
  745000    263.24204    1266.5264     2924.207    32.360984 0.0050594681 0.0012062572 -0.0085237477 
  746000    252.10784    12671.997     2924.207    31.558418  0.022166427  0.030263445 -0.025852737 
  747000    254.42408    7888.8987     2924.207    32.382755  0.014827617  0.024631769 -0.056232718 
  748000    251.44131    8788.3116     2924.207     33.74963  0.008027188 0.0034769909 -0.028992608 
  749000    243.74936    19813.908     2924.207    35.396226 -0.026653487  0.017019732 0.00042976657 
  750000      272.524    3832.3899     2924.207    33.705453 -0.0056472376 -0.018922822  0.017981091 
  751000    240.70735    8276.1201     2924.207    30.310238  0.029178644  0.033536115  -0.03075021 
  752000    267.21074    12618.775     2924.207    27.280313  0.018173181 -0.0060341505  0.064142742 
  753000    249.76771    10958.766     2924.207    24.297453 -0.014890012 0.00067181962 -0.010477195 
  754000    262.02564    10497.103     2924.207    21.968965 -0.021614032  0.017974154 -0.015153485 
  755000    246.30104     12424.42     2924.207    18.627102 -0.017049148 0.0044780068  0.035656137 
  756000    247.93892    8137.6613     2924.207    17.200158 0.00040366851  0.022736723  0.021678613 
  757000    260.94251    9797.0673     2924.207    20.390515 -0.025960131 -0.022622399 -0.015734842 
  758000    259.09599    7167.7153     2924.207    25.202005 -0.012196984  0.025668442  0.014584383 
  759000    263.94225    14033.682     2924.207    29.646255  0.011008576   0.03453128 0.0037681071 
  760000    253.63783    10538.846     2924.207    32.360118  0.011734871 -0.011994649 -0.015739639 
  761000    250.63271    7626.2424     2924.207    31.199754 -0.007752228  0.032006499 0.0074121572 
  762000    253.18198    5765.7552     2924.207    29.783494 -0.024496488 -0.019047759  0.016831418 
  763000    264.97034     13153.92     2924.207    29.256638  0.001207797 -0.013039955  0.031073004 
  764000    253.24667    4551.6579     2924.207    29.050676 -0.0079778664  0.038387909  0.016707701 
  765000    251.06483    14241.458     2924.207    28.063433 -0.0066689118  0.012699981 0.0080935653 
  766000    274.31681    11180.968     2924.207    28.318825 -0.021956956 -0.015155057 -0.011202851 
  767000    251.34018    6844.0262     2924.207    26.852004  0.021605621 -0.010939736 -0.0031394713 
  768000    244.80165    12247.619     2924.207    24.640921  0.008018102 -0.023608489  -0.01016727 
  769000    255.96303    3781.9716     2924.207    24.923125 0.0048463025  0.015295107  0.034544561 
  770000    239.93325    10933.495     2924.207    24.742634 -0.020395006 -0.013711273  0.046026408 
  771000    248.12454    11318.419     2924.207    22.395752  0.010086476  0.010639004  0.023327758 
  772000    250.48649    12883.819     2924.207    20.064139  0.018171183 -0.0019064837 -0.0037270734 
  773000    253.58317   -1375.9169     2924.207    20.091875  0.019907523 -0.023949804 -0.013708869 
  774000    266.08418    11066.164     2924.207    20.932583 -0.019104169 0.0082156057 -0.007597951 
  775000      256.936    9259.2775     2924.207    22.948011 -0.0026562624 0.0084997234 -0.018123902 
  776000    240.52885    1390.6208     2924.207    24.839138 -0.015832794 -0.031209439  0.040551118 
  777000    246.65728    8134.7382     2924.207    25.827815 -0.0031946548 -0.0074153678 0.0060412031 
  778000    245.42701    9678.3358     2924.207      26.2255 -0.012643633  0.015599931 -0.011932392 
  779000    263.26858    7570.9939     2924.207    23.418222 -0.025471521  0.057875843 -0.041538189 
  780000    252.23676    10963.886     2924.207    21.101341 -0.015791028 0.0056510546  0.018942481 
  781000    244.61339    9105.3579     2924.207    21.036624  -0.01455338 -0.00052627451 0.0061998274 
  782000    250.50713    9694.0964     2924.207    20.676671 -0.017291726 -0.009825873 0.0024656415 
  783000    242.90709    8107.4685     2924.207    21.302982 0.0051670995 0.0011253118 1.9865815e-05 
  784000    259.14889    9429.9408     2924.207    22.106145 -0.038335985 -0.013395785  0.013553165 
  785000    263.77108    2562.3585     2924.207     23.00205 0.0080026365 -0.016551182 -0.017144691 
  786000    252.48057    6798.4461     2924.207    22.006873  0.041361846  0.017713388 -0.025076807 
  787000    265.29167    9649.2468     2924.207     20.28474 0.0032498944  0.013797042  0.016349718 
  788000    267.90118    8048.4053     2924.207     20.27682  0.045191253   0.02630151 -0.013406507 
  789000    252.92256    3554.5903     2924.207    22.931564 0.0076242388  0.021556511 -0.025702751 
  790000    241.39642    14420.682     2924.207     26.75692 -0.005422414 0.0040583999  0.011020943 
  791000    264.33487    1697.2372     2924.207    28.202323 0.0038154453 -0.028506927 -0.017986629 
  792000    234.48138    17311.733     2924.207    29.100173  0.017856468 -0.021204053 0.0042331376 
  793000    256.83325    9573.0682     2924.207    28.776732  0.013533742  0.011438149  0.015969266 
  794000    248.23047    5655.0008     2924.207    29.378317 -0.023160767 -0.006075064 -0.035391455 
  795000    235.18749    13898.399     2924.207    29.896441 -0.025152282 -0.013537514  0.012239056 
  796000    243.41236    5807.4968     2924.207    29.650212 -0.010428139 -0.015298753 0.0035978835 
  797000    269.14678    9877.6987     2924.207    28.690251 -0.025780439 0.0079507307 -0.0060256487 
  798000    239.48141    12324.685     2924.207    29.243942 0.0010077549 -0.0080690109 -0.0015728745 
  799000    242.93606    8604.6826     2924.207    30.665713 -0.018641752 -0.015563253 -0.035816861 
  800000    257.67892    6524.3343     2924.207     31.61492 -0.011457541 -0.019110912 -0.0090925989 
  801000     276.2466    5206.4202     2924.207    33.544044 -0.0042136561 -0.00022585582 -0.024583466 
  802000    254.50204     11782.96     2924.207    33.775047 -0.058836813 0.0010608675 -0.037347622 
  803000    253.38322    7348.1406     2924.207    29.968555 -0.043848899 -0.010705158 -0.019273468 
  804000    244.37741    14573.471     2924.207    25.708833  -0.01471585 -0.0025088292 -0.043963205 
  805000    245.20225    3144.7387     2924.207    23.351701 -0.00056281444 -0.0060542711 0.0095826327 
  806000    261.96187    9224.0957     2924.207    22.484323 -0.012006622 0.0053508512 -0.014222496 
  807000    260.65046    13503.124     2924.207    23.125683  0.037988266 -0.028417232   0.04177466 
  808000    260.69731    8709.9799     2924.207    24.591362  0.033543349 0.0071017222 0.0021444682 
  809000    262.39731    5655.0798     2924.207    25.282126 -0.012731729 -0.040057627 0.0062906022 
  810000    265.45939    10978.903     2924.207    27.276096 -0.034204835  0.031796856 -0.010590106 
  811000    262.30077      4929.93     2924.207    28.471362  0.035524549  0.039136022  0.009159317 
  812000    253.56696     13629.39     2924.207    28.628644 -0.0062784396   0.01677941 -0.0075786668 
  813000    253.84826    824.96105     2924.207    27.666542 -0.0036666377 -0.020795296 -0.014761087 
  814000    267.50649    14256.614     2924.207    25.892719 -0.011388915 0.00052257932 0.0035975472 
  815000    256.88105    9113.2069     2924.207    22.811328  0.013840581  0.041005758 -0.019347135 
  816000    245.69619    1938.7193     2924.207    20.856256 0.0091594262  0.017164475  0.020837605 
  817000    257.35032    13355.888     2924.207    20.504631 -0.0033951373  0.026045072 -0.00093756758 
  818000    250.97142    2818.5509     2924.207    20.602799 -0.024722186 -0.0017900829  0.028988361 
  819000    236.83393    11160.998     2924.207    22.736202  -0.01024235 -0.0026386161 -0.0060951192 
  820000    258.10074    8810.7281     2924.207    25.705213 -0.0037397554  0.024591668 -0.0086914748 
  821000    265.60964     1356.969     2924.207    28.585185  0.035752719  0.014361748 0.0010064652 
  822000    259.79687    15646.228     2924.207    29.017872  0.019596391 -0.0084962843 -0.0027611296 
  823000    250.37028    7354.7304     2924.207    29.435704 -0.011358702 -0.047394474  0.017361703 
  824000    246.81637    6452.5936     2924.207    29.244454 0.0071694154 -0.0074703768  0.029160509 
  825000    252.71292    13056.471     2924.207    29.878152  0.015648179 0.0036950203 -0.024743973 
  826000    257.39712    11760.615     2924.207    29.869092  0.034619592 -0.022175791  0.020589172 
  827000    272.71307    6068.6116     2924.207     28.62852  0.022872872 -0.043061484 -0.0098022613 
  828000    251.22425    4188.6334     2924.207    27.726913 0.0010441754 -0.083581136 0.00029684723 
  829000    255.35825    12494.877     2924.207    28.652877 0.0097827827  -0.01804394 -0.018403846 
  830000    258.71517    3046.2395     2924.207    29.142723  -0.04781155  0.012376886  0.042844162 
  831000    257.71342    11667.628     2924.207    29.880361 -0.026820489  -0.01787076 -0.0003571582 
  832000    249.75243    9157.5868     2924.207     29.51585 -0.012248896    0.0175001  0.031333631 
  833000    253.06377    2309.3646     2924.207    26.643276 -0.012665438  0.010501608 -0.010414757 
  834000    248.38644     14253.26     2924.207    23.452899 0.00066505797 -0.032782826 -0.0038793199 
  835000    256.85789   -1258.7421     2924.207    24.183727 -0.030891298 -0.024804467 0.0069591421 
  836000    251.12883    7467.7263     2924.207    27.278345  0.005690198  0.025644877  -0.01898914 
  837000    251.54835    11813.765     2924.207    28.938766 -0.0030700864 -0.0040693305  0.022155569 
  838000    260.04555      4871.39     2924.207    29.226107 -0.030678925 -0.028370101  0.018880135 
  839000    248.92532    1981.4717     2924.207     28.39885 -0.021011793 -0.020537472 0.00038188679 
  840000    266.37345     13641.89     2924.207    26.315058  0.010434089 -0.033535998 -0.018876239 
  841000    248.44132    5312.8804     2924.207     24.63154 -0.023120703  -0.00242295  -0.01049086 
  842000    243.56857    8950.4047     2924.207    24.468154 -0.0081239161   0.02400606 0.0040337844 
  843000    256.32145    9775.9678     2924.207    24.368522  0.027062842 -0.025145029 0.0035390114 
  844000    242.86221     6720.256     2924.207    23.725995 -0.017258997 -0.0052416357 -0.023709171 
  845000    242.47751    7862.0359     2924.207    23.094019 -0.050541951  0.001281953  0.010964908 
  846000    245.07358    12183.581     2924.207    25.091117 -0.00021725837 0.00015105907 -0.0054445076 
  847000    247.72164    6499.7618     2924.207     28.04512  0.001264466 -0.0062707382 -0.049724018 
  848000    257.90369    8608.7218     2924.207    29.884586 -0.013923088 -0.026638724 0.0021329675 
  849000    249.53005    10996.641     2924.207    30.950094 0.0031073781  0.013328264  0.011408583 
  850000     251.2823    6569.4784     2924.207    29.232476 -0.022628088  0.020131457 -0.066230513 
  851000    248.24129    5447.6482     2924.207    25.519469 -0.016823392  0.002798742 -0.032606311 
  852000    248.43908    9648.5451     2924.207    23.211565 -0.029803648   -0.0170867  0.010495112 
  853000    253.22199    5796.0801     2924.207     23.63708 -0.038731738 -0.0031938941 -0.017931907 
  854000    265.40604    904.09818     2924.207    25.488025 -0.044455504 0.0027338467 -0.0020492717 
  855000    254.74942    12593.079     2924.207    27.700064 -0.051726611  0.021374037  0.017109575 
  856000     240.6068    5672.4066     2924.207    29.532967 -0.003344319  0.028802277 -0.020521309 
  857000    271.24409    10888.076     2924.207    30.988973 -0.016905735 0.0048696681 0.0060774042 
  858000    263.58547    8184.6212     2924.207    33.088755 -0.022495542 0.0039339309  0.041080425 
  859000    257.84369    6238.0096     2924.207    32.938427  0.013962722 -0.011894385  0.025477663 
  860000    249.84207    8376.8353     2924.207    31.449058  0.027928455  -0.02091727 0.00020558659 
  861000    239.39212    7021.2239     2924.207    29.517633 -0.036368228 -0.014260259 -0.033648839 
  862000    277.08049    5589.6717     2924.207    27.878157  -0.01212396  0.030327188 -0.004810532 
  863000    265.08818     7219.209     2924.207    26.912638 -0.023148261 -0.0028146652   0.02274712 
  864000    255.64525    12491.692     2924.207    26.809309 -0.0031930488  0.017518655 -0.023301821 
  865000     243.6185    3115.7125     2924.207    28.944968  0.016211211 -0.018697248 -0.011764749 
  866000    260.58444    10019.309     2924.207    31.607214 0.0091318226  0.042576399 -0.032934861 
  867000    258.93892    7219.4017     2924.207    33.924156  -0.02394889 0.0079642264  0.029611457 
  868000    246.68251    6509.8963     2924.207    34.039099 0.0091888443 0.0066568322 -0.020052782 
  869000    253.69605    11561.087     2924.207    33.907595 -0.012304141 -0.044903932   0.01719825 
  870000      237.896    1769.8482     2924.207    33.963298 -0.030745794 0.00097935428 0.0027959629 
  871000     245.9523    15210.265     2924.207    31.800452  0.038197531 -0.0032372338 0.0017602975 
  872000    246.37501    5757.6533     2924.207    29.157463 -0.042473957  0.034078825 -0.0076277976 
  873000    236.03632     16108.02     2924.207    27.446335 0.0081507045 -0.018361883 -0.048210722 
  874000    244.64714    8809.8397     2924.207    28.655695    0.0179317   0.01724121 -0.026453676 
  875000    250.47199    122.14806     2924.207    31.560832  0.014458013 -0.010796535 0.0014522418 
  876000    246.81207    16235.871     2924.207    32.952735 -0.0011707252 -0.0086266719 -0.0048703879 
  877000    243.29566     7312.317     2924.207    32.989329  0.028925723 -0.00095568032 0.0049278683 
  878000    258.41966    9474.3254     2924.207     31.70185  0.033530718  0.013081598 0.0072540634 
  879000    248.34969    10406.664     2924.207    29.221558  0.006245271  0.034750644 -0.014288602 
  880000     263.9813    5762.9122     2924.207    27.327966 0.0031195638  0.016239048 -0.012626401 
  881000     268.6633    7182.7963     2924.207    25.663538 -0.0097014462  0.011100952 -0.020451198 
  882000    255.89657    6580.9709     2924.207    22.842166  0.050693406 -0.033032286 -0.0031920331 
  883000      261.734     4308.042     2924.207    21.073762 -0.0059304739  0.032016107 -0.013100155 
  884000    258.73427    12217.954     2924.207     18.78401  0.017536076 -0.033201242 0.0086852094 
  885000    270.37404    4229.8202     2924.207    17.400003 -0.0034750414 -0.019294477  0.010548071 
  886000    243.75082    7492.1845     2924.207    19.270518 0.0058726589 -0.016997161 -0.0068153832 
  887000    248.91431    15282.046     2924.207    23.509589 -0.0013699253  -0.04653345 -0.017307343 
  888000    242.22418    8630.0871     2924.207     28.45473 0.0096470037  0.018991197 -0.0052002375 
  889000    254.61531    3931.7868     2924.207    30.778369 -0.013177579 -0.015785322 -0.016433133 
  890000    243.39761      10402.9     2924.207    30.525491   0.01827374 -0.035004326 0.0091594441 
  891000    244.75464    9768.6088     2924.207     29.23245 -0.0089684596 -0.037060492  0.025520634 
  892000    249.42378    9569.3525     2924.207    27.499978 0.0045084812 -0.017733442 -0.031760858 
  893000     247.1849    5938.0858     2924.207    26.325317  0.013232505  0.032654719  0.012901485 
  894000    246.12642    3106.7072     2924.207    28.384253 0.0065309118 -0.015070714 0.0084083775 
  895000    244.46587    12722.319     2924.207    30.559919 0.0054153888 -0.017659804 -0.025905223 
  896000    250.56788    294.27746     2924.207    32.823421 -0.006257793 -0.030626289 -0.055010962 
  897000    246.26383    9377.7204     2924.207    34.028172 -0.0082279987 -0.0048490817 -0.0020938755 
  898000    263.87921    12664.308     2924.207    32.388233 -0.0054879222 -0.0049599718   0.02511908 
  899000     256.7421    -534.1741     2924.207    29.539204 -0.014261793  0.034082012 0.0092457888 
  900000    253.76251    16657.232     2924.207    26.678755 0.00059814704 -0.018027389 0.0019612473 
  901000    261.17351    6161.4475     2924.207    26.084099  -0.01109563  0.021958951 0.0030915913 
  902000    254.19916    3805.8192     2924.207    24.761142 -0.011272065 -0.010785266  0.034640497 
  903000     264.8494    14810.182     2924.207    24.385386 -0.0075966095  0.010402391 -0.005177864 
  904000    252.51734    6477.7941     2924.207    25.058335 -0.019985606 -0.011292955 0.0056800763 
  905000    257.77563    4571.3171     2924.207    28.012431 0.0045324524  0.023592042 -0.017229649 
  906000    243.27905    11410.237     2924.207    30.494186 -0.016963021 -0.0030603653 -0.0082445408 
  907000    245.21464    4142.5166     2924.207    32.484792 -0.021186403 -0.011878999 -0.011084299 
  908000    254.26275    7697.2428     2924.207     33.51835 -0.031108067 0.0051357322 0.0050334159 
  909000    241.91526    9171.7841     2924.207    32.520705 -0.024037343 -0.027660341  0.015499218 
  910000    254.45187    1218.3692     2924.207    30.494821 -0.010417495  0.015641964 0.0057744933 
  911000    253.42913    3452.6588     2924.207    29.894521 -0.014745778  -0.01105311 -0.0066251916 
  912000    254.72981    20627.434     2924.207    30.394767 0.0058309813 -0.0018065222 -0.012473056 
  913000    245.13451     5673.538     2924.207    31.902914  0.062344209 -0.0068395053 -0.035639368 
  914000     259.9197    4206.7652     2924.207    32.702566  0.046262201  0.023193598  0.032548777 
  915000    259.54185    8718.3324     2924.207    32.664926  0.017520444 -0.026924835 0.0048931535 
  916000      261.804    18318.291     2924.207     34.50931  0.012650673  -0.01081216 -0.015146031 
  917000    237.93784    5816.0942     2924.207    35.449614  0.044085798 -0.036663603 -0.015613183 
  918000    239.31717    2501.0162     2924.207    34.827691  0.025146671 -0.035721253 -0.039931492 
  919000     243.2762    10336.045     2924.207    33.590024 -0.045457232 -0.0046472987 -0.027143331 
  920000    261.71365    13201.772     2924.207    30.797896  0.021371696  0.017351504 -0.029478537 
  921000    235.36671     7069.879     2924.207    28.887837 -0.018662897 0.0084513857 -0.029329915 
  922000    238.30863   -1234.5255     2924.207    26.120344 -0.0075270538  0.024114059  0.028035448 
  923000    258.57847    16579.249     2924.207    21.920315 -0.056256669  0.008537515  -0.01177762 
  924000     270.2673    8752.5307     2924.207    21.508006 -0.015588217 0.00099961814 -0.0088532011 
  925000    240.99362    7027.6077     2924.207    24.384934  0.007828297 0.0034621908  0.029927756 
  926000    235.99539    4137.6266     2924.207    24.354237   0.01343658  0.028089565 0.0088666556 
  927000    242.74115    7341.6493     2924.207     21.50035 -0.028599194 -0.032107341   0.03056145 
  928000    250.39952    6757.7443     2924.207    19.530678 -0.027040115 0.0060313941 -0.009330018 
  929000    241.05981    14868.152     2924.207     20.28534  0.028722841  -0.01456441  0.019850423 
  930000    249.90546    7243.7544     2924.207    21.191384 -0.049579867 -0.0085148529   0.02272192 
  931000    245.94908    6628.6547     2924.207    21.535526  -0.02523286 -0.036053972 -0.021978253 
  932000      244.953    9205.5228     2924.207    20.256889  0.039247555 0.0057871131 -0.021162094 
  933000    238.93178    8156.2221     2924.207    19.843186 -0.013760461 0.0067134006 -0.036645132 
  934000    239.19353    9417.7561     2924.207    21.006248 -0.0010551262 -0.034177074  0.011893387 
  935000     251.0253    4884.1964     2924.207    21.447291 -0.0049446307 -0.0026310064  0.028005538 
  936000    245.98555    9084.6766     2924.207    23.046155 -0.037139476 -0.0043821199 0.0046402372 
  937000    265.95534    8082.9939     2924.207    24.146818 -0.020184846 -0.0090935747 -0.015245278 
  938000    239.61125    717.26455     2924.207    26.658693 -0.011901047 -0.011176741 0.0066931807 
  939000    249.29523    15083.102     2924.207    28.491879 0.0072699732 -0.022077688 -0.0033857672 
  940000    226.43191    8676.3059     2924.207    30.453705  0.036539978 -0.023433986 -0.0043048394 
  941000    253.75437   -839.72566     2924.207    30.862824  0.025592789 -0.0036114606  0.010582741 
  942000    242.36188    15929.945     2924.207    31.196578 -0.030189872 -0.019657188 -0.019724064 
  943000    254.38973    8707.4908     2924.207    28.597084  0.021952132 0.0090069927 0.0082497269 
  944000    252.90801    3094.3199     2924.207     22.44948 -0.027584362  0.036862814 -0.0048236497 
  945000    242.09928    12754.892     2924.207    18.149279  -0.04692226 -0.0058698598 0.0029135007 
  946000    245.54193    10374.539     2924.207    19.242911 -0.0033231554 -0.035753611  0.028098461 
  947000    238.00163    8207.5306     2924.207    22.154854 -0.0091865723 -0.020523143 -0.036456741 
  948000    232.74025    9850.7079     2924.207    24.318248 -0.0044539646 -0.017200508  0.052516248 
  949000    256.14316    11126.985     2924.207    25.487238  0.041079877  0.045571709  0.019088502 
  950000    250.31482    1852.1393     2924.207    24.793366  0.032626042 0.0084521737   0.04950072 
  951000    270.00427    1257.5913     2924.207    20.201196  0.022460056  0.016871001  0.025436873 
  952000    273.72911    12221.297     2924.207    17.887448 0.0053013158  0.021708179 -0.013903867 
  953000    236.88165    2334.7855     2924.207     19.62958 -0.0098264711  0.028457183 -0.0017092807 
  954000    267.53504    8532.0626     2924.207    22.515573 0.0011133285  0.040624203  0.019172034 
  955000    254.41384    10791.081     2924.207    24.726319 -0.015796003 -0.032665072  -0.01183454 
  956000    261.49284    2161.4549     2924.207    25.156315 -0.0091469643 -0.020184342  0.027111763 
  957000     253.8223     9863.199     2924.207      23.2877 -0.0044280836 -0.0080094518 -0.034822328 
  958000    238.17478    11411.377     2924.207    23.555196 -0.054373311 -0.016060814   -0.0533586 
  959000    245.26778    8690.1284     2924.207    23.952464 -0.014967585 0.0072450576 0.0030418425 
  960000    242.01009    11973.172     2924.207    24.245478 0.00047376202 -0.005119704 -0.005928022 
  961000    258.03134    8963.4765     2924.207    24.315848 0.0080430036 -0.015537712  0.030246901 
  962000    258.35706    5750.2633     2924.207    22.860009 0.0033401089 0.0042388348 -0.015015756 
  963000    252.58847    7263.1076     2924.207    21.088534 0.0039689228 -0.010598619 -0.033141543 
  964000    250.94539     8468.267     2924.207    19.163691  -0.01378095  0.042528771  0.012509855 
  965000    250.41605    6711.9562     2924.207    22.041301 -0.054689831 0.0039658988 0.0039789365 
  966000    236.32761    12599.463     2924.207    22.331741  0.010866724 -0.040505222 -0.0086881178 
  967000    245.05703    4859.1214     2924.207    19.925065 0.0019172248 -0.046506482 0.0022103037 
  968000    250.72695    1440.5139     2924.207    20.595619 0.0040271239 -0.0052066228 -0.026566724 
  969000    250.08031    11740.168     2924.207    25.134071  0.005188679  0.010686108 -0.051494399 
  970000    257.75899    7206.5431     2924.207     27.73096 -0.0017652807 0.0040805458 -0.0074643019 
  971000    237.04644    3627.4789     2924.207    28.445954 -0.013059545   0.01262003  0.020759637 
  972000    233.41141    10675.426     2924.207    28.833144  -0.02784527 -0.026681708  0.029973284 
  973000    245.36839    12826.363     2924.207    28.627006 -0.0023914335  0.019278559 0.0067112602 
  974000    246.16354    8252.1312     2924.207    28.334903 -0.0066289372 -0.011569287  0.032432381 
  975000       252.23    7697.4955     2924.207    29.294835 -0.011783277  0.012199807 -0.021862401 
  976000    266.55966    14134.283     2924.207     31.27978 -0.025736332 -0.024840455 -0.0029084057 
  977000    250.64985    11130.273     2924.207    32.058395 -0.044297892 -0.011523114 -0.016037792 
  978000    263.85885    970.15703     2924.207    31.245797 0.0020282109 0.0069411666 -0.017984684 
  979000    253.79416    17433.645     2924.207    31.731956  0.026915261 -0.0031867496 -0.015239424 
  980000     248.3714    7456.8288     2924.207    31.579332 0.0076588214  0.031670359 -0.013668552 
  981000    257.23442    2392.6805     2924.207    32.545392 0.0034205682  0.013746932  0.020883729 
  982000    237.75718    10190.766     2924.207    32.741102  0.025786841 -0.021839772 0.0060218193 
  983000    232.62396    7786.5485     2924.207    32.603034 -0.0033682566   0.02992424 -0.0030230498 
  984000    243.83302    4840.5812     2924.207      30.1681  0.010386012 -0.0081192325 0.0077214479 
  985000     249.1018    12717.239     2924.207    27.962148 -0.017026677 0.0046990088 0.00027952123 
  986000     240.0356    8364.0753     2924.207    26.352823  0.011363876  0.011988276 0.0050166826 
  987000    237.24618    5488.4193     2924.207    26.567883 -0.0087749259 -0.0057538243 0.00020531573 
  988000    251.89657    8860.3882     2924.207    27.535089 0.0094375018 0.0014568629  0.010280305 
  989000    257.38968    11374.108     2924.207    26.767838  0.016341834  0.022081679 -0.017030695 
  990000    243.20857    16023.497     2924.207     25.18107 -0.038757211 -0.014822154 0.0026171852 
  991000    261.14186    3415.7358     2924.207    26.406369 -0.0049479693  0.015207655  0.010311237 
  992000    261.84557    9233.7241     2924.207    26.953202  0.019388521  0.028314033 -0.039069352 
  993000    245.14745    11353.451     2924.207    26.116183  0.032767327  0.046893559 -0.016207211 
  994000    231.60818    7026.9956     2924.207    27.574998 -0.00074715888 -0.00087227823  -0.02412501 
  995000    264.99003    5668.3319     2924.207    26.666562  0.037773486  0.051794278 -0.017298737 
  996000    246.61959    13487.345     2924.207    23.929104 -0.029645845 -0.0074313712 -0.010405758 
  997000    235.31086    7231.5409     2924.207    22.223916 -0.023456339    0.0271715 -0.0035312245 
  998000    252.79021    7553.8897     2924.207    22.677441 -0.037941266 0.0077596577 -0.014828507 
  999000     261.2352    10123.564     2924.207    24.281548  0.016253064  0.016956011  0.020452636 
 1000000    246.89886   -3113.5716     2924.207    24.601437 -0.0084843502 -0.039548244 -0.017656977 
Loop time of 6805.55 on 2 procs for 1000000 steps with 240 atoms

Pair  time (%) = 6434.77 (94.5519)
Bond  time (%) = 0.280043 (0.00411492)
Neigh time (%) = 24.8458 (0.365081)
Comm  time (%) = 246.879 (3.62762)
Outpt time (%) = 0.449392 (0.00660333)
Other time (%) = 98.3202 (1.44471)

Nlocal:    120 ave 120 max 120 min
Histogram: 2 0 0 0 0 0 0 0 0 0
Nghost:    5041.5 ave 5055 max 5028 min
Histogram: 1 0 0 0 0 0 0 0 0 1
Neighs:    45594.5 ave 45609 max 45580 min
Histogram: 1 0 0 0 0 0 0 0 0 1
FullNghs:  91189 ave 91260 max 91118 min
Histogram: 1 0 0 0 0 0 0 0 0 1

Total # of neighbors = 182378
Ave neighs/atom = 759.908
Ave special neighs/atom = 0
Neighbor list builds = 5701
Dangerous builds = 0
#	run			10000
	unfix			1
	uncompute		myKE
	uncompute		myPE
	uncompute		myStress
	uncompute		flux
	uncompute		myDis
	unfix			JJ

	next seed
	next iseed
jump lmp.in.gk loop_seed
variable iseed loop 10
variable seed index 11111 22222 33333 44444 55555 66666 77777 88888 99999 11110
clear
###########################################################################
#x0
###########################################################################
units 			metal
atom_style		full
read_data		fort.26.nonbonded
  0 = max bonds/atom
  0 = max angles/atom
  0 = max dihedrals/atom
  triclinic box = (0 0 0) to (14.3 14.3 14.3) with tilt (0 0 0)
  1 by 1 by 2 MPI processor grid
  240 atoms
  0 bonds
  0 angles
  0 dihedrals
  0 = max # of 1-2 neighbors
  0 = max # of 1-3 neighbors
  0 = max # of 1-4 neighbors
  1 = max # of special neighbors
group         		C type = 1
60 atoms in group C
###########################################################################
#OLPS
###########################################################################

################################################################################
#### Pair potentials
################################################################################
pair_style hybrid/overlay tersoff lj/cut 12.0
pair_coeff * * tersoff C.4.tersoff 1 2 3 4
pair_coeff 1 2 lj/cut 0.0007000000 3.5500000000
pair_coeff 1 3 lj/cut 0.0007000000 3.5500000000
pair_coeff 1 4 lj/cut 0.0007000000 3.5500000000
pair_coeff 2 3 lj/cut 0.0007000000 3.5500000000
pair_coeff 2 4 lj/cut 0.0007000000 3.5500000000
pair_coeff 3 4 lj/cut 0.0007000000 3.5500000000
special_bonds lj 0.0 0.0 0.0 coul 0.0 0.0 0.0

#pair_style tersoff
#pair_coeff * * C.4.tersoff 1 2 3 4

#pair_style lj/cut 12.0
#pair_coeff 1 1 0.0700000000 3.5500000000
#special_bonds lj 0.0 0.0 0.0 coul 0.0 0.0 0.0
###########################################################################

#--------------------------------------------------------------------------
#variables
#--------------------------------------------------------------------------
variable   	dt 		equal 0.001
#--------------------------------------------------------------------------
#kappa parameters
#--------------------------------------------------------------------------
variable    	p 		equal 100000 	# correlation length
variable    	s 		equal 10  	# sample interval
variable    	d 		equal $p*$s 	# dump interval
variable    	d 		equal 100000*$s 	
variable    	d 		equal 100000*10 	

#--------------------------------------------------------------------------
variable 	T_run 		equal 300
#--------------------------------------------------------------------------

log 	log_heat_${iseed}.lammps
log 	log_heat_3.lammps
