	reset_timestep  	0
	fix 			1 all nve
	compute   		myKE all ke/atom
	compute   		myPE all pe/atom
	compute   		myStress all stress/atom virial
	compute   		flux all heat/flux myKE myPE myStress
	variable  		Jx equal c_flux[1]/vol
	variable  		Jy equal c_flux[2]/vol
	variable  		Jz equal c_flux[3]/vol
	fix       		JJ all ave/correlate $s $p $d c_flux[1] c_flux[2] c_flux[3] type auto file J0Jt_${iseed}.dat ave running
	fix       		JJ all ave/correlate 10 $p $d c_flux[1] c_flux[2] c_flux[3] type auto file J0Jt_${iseed}.dat ave running
	fix       		JJ all ave/correlate 10 100000 $d c_flux[1] c_flux[2] c_flux[3] type auto file J0Jt_${iseed}.dat ave running
	fix       		JJ all ave/correlate 10 100000 1000000 c_flux[1] c_flux[2] c_flux[3] type auto file J0Jt_${iseed}.dat ave running
	fix       		JJ all ave/correlate 10 100000 1000000 c_flux[1] c_flux[2] c_flux[3] type auto file J0Jt_7.dat ave running
	compute 		myDis all msd
	thermo_style 		custom step temp press vol c_myDis[4] v_Jx v_Jy v_Jz
	thermo			1000
	timestep		${dt}
	timestep		0.0010000000000000000208
	run			1000000
Memory usage per processor = 7.28915 Mbytes
Step Temp Press Volume myDis[4] Jx Jy Jz 
       0    283.19056    18312.233     2924.207 2.6529994e-30 -0.029611055 0.0038732846 -0.016936759 
    1000    272.28672    3644.7383     2924.207    8.2733562  0.026730291 -0.033973959 0.0039522157 
    2000    262.43828    25790.984     2924.207     21.72255  0.026825476 0.0003831739 -0.0086433766 
    3000    273.35769    6440.1121     2924.207    30.505854  0.026990754 0.0021485101 -0.013933744 
    4000    267.32212    15198.917     2924.207    31.084181 0.0086909749 0.0062193777 -0.021873249 
    5000    309.72324    6823.6355     2924.207     25.14015  0.020546329 -0.012707862 -0.032063077 
    6000    285.22611    6904.4329     2924.207    20.910377  0.024592779  0.021338892 -0.021066071 
    7000    261.60761    16310.518     2924.207     22.34306 -0.039796319  0.045977354   0.01293619 
    8000    269.96916    12981.461     2924.207    23.468678 -0.017845692  0.004121964  0.014587424 
    9000    304.98041    12534.731     2924.207     27.05949 -0.0090465627 0.0019254049 -0.052675392 
   10000    257.94838    12545.338     2924.207    26.677761  0.019063551 0.0059256616 -0.032233057 
   11000    283.64436    15470.403     2924.207    24.631702  0.015472821  0.025646561 -0.010748746 
   12000    298.38377    14952.758     2924.207    26.378327  0.023633563 -0.019690284  0.017250763 
   13000    280.19758    16587.111     2924.207    29.663656 -0.044577718 -0.015389178  0.032563613 
   14000    295.63095    6730.9396     2924.207    27.566719 -0.019795988 -0.0062113253 0.0057811202 
   15000    302.87664    10573.633     2924.207    23.950399 -0.0037911139 -0.0019153447 -0.018850258 
   16000     269.0982    12977.498     2924.207    25.003896 -0.024376788 0.0048024503 -0.014494914 
   17000    263.12095    16383.068     2924.207    29.098437  0.029990927 0.0068536077 0.0018590422 
   18000    303.34233    7302.5976     2924.207    31.296179 0.0095425525 -0.0031324152 0.0040105327 
   19000    278.54408     19391.27     2924.207    30.985409  0.021050569 -0.0092032309  0.012695786 
   20000    243.59212    15786.979     2924.207     31.02823 0.0087310117 -0.024864612   0.02619895 
   21000    290.50845    11692.246     2924.207    33.198517 -0.039146453 0.0017260935 -0.00046471991 
   22000    296.42624    15398.626     2924.207    31.548037 -0.0033526479 -0.013946146 -0.0015560001 
   23000    256.01683    4325.6775     2924.207    29.528441 -0.039658865  0.019743622 -0.007640301 
   24000    289.44182    15909.525     2924.207    27.520406 -0.0089423044   0.02588834 0.0084766377 
   25000    265.54787    15981.741     2924.207    26.668738 -0.035331038 -0.0062778189 -0.022002667 
   26000    288.26847    12674.494     2924.207    26.961416 -0.014252531 -0.041837197 -0.032144008 
   27000    303.36428    9702.3702     2924.207    27.840304  0.014173617 -0.011113555 -0.063091861 
   28000    278.25654    12627.268     2924.207    28.535483 -0.012940984 -0.0017633054 -0.041130207 
   29000    290.43483    11489.511     2924.207    30.083481  0.048070189  0.038223103  0.016434944 
   30000    253.06866    21028.723     2924.207     31.83306    0.0031804 -0.029338653 -0.029270428 
   31000    291.51622    10974.518     2924.207    30.497726   0.00852232 -0.014401317  0.015666591 
   32000    252.81828    12602.224     2924.207    27.682061 0.0043457377 0.0026669882  0.043080103 
   33000    290.73407    8948.3774     2924.207    26.647086 -0.018359735 0.0035869657 0.0091937104 
   34000    279.56653    9397.7841     2924.207    28.383313 -0.042118413 -0.0043906027 0.0062499703 
   35000    286.07267    15560.193     2924.207    32.831204 -0.049778228  0.022656229 -0.014794931 
   36000    260.18568     15298.02     2924.207    32.274903 -0.021553086  0.015302123  0.021059156 
   37000     282.4028     2744.437     2924.207    27.253744 0.0024797373  0.006724802  0.026045359 
   38000    274.45626     14217.85     2924.207     24.11102  0.022829767  0.031499451  0.019878299 
   39000    284.50159    5083.2989     2924.207    26.322583 -0.010053875  0.023817553 0.00097112913 
   40000    263.91084    19641.238     2924.207    30.891067  0.041198659  0.010274756 0.0046566273 
   41000    263.85837    14527.983     2924.207    31.105985  0.015600408  0.012515558 -0.021071357 
   42000    281.97709    10167.584     2924.207    23.262506 -0.022030012 -0.016938462 -0.020503222 
   43000    269.45679     13019.17     2924.207    13.533762 -0.041858697 -0.00097867781 0.0019117333 
   44000    277.89134    7580.1181     2924.207    12.239735 -0.029584166 -0.022105564 -0.011584965 
   45000    279.19958    16015.874     2924.207    22.323915 -0.0032036588 -0.022923304 -0.022474254 
   46000    261.92281    21274.861     2924.207    31.386921  0.014627024 -0.016347465 0.0026694547 
   47000    275.61104    1518.5946     2924.207    28.742257  0.049437998 0.0092738302 -0.037311161 
   48000    280.58419    17455.228     2924.207    23.579121 -0.008903673 -0.012566624 -0.025263896 
   49000    287.15149    10403.108     2924.207    27.111191  0.004948543  0.012376337 -0.051086781 
   50000    285.89368    4711.3273     2924.207    28.764587 -0.0016586139 0.0047957421 -0.016718703 
   51000    294.11124    17596.911     2924.207    19.831918  0.032324842  0.032480053 -0.013568803 
   52000    283.34926    5050.7862     2924.207     22.31934  0.022364198 -0.0032030636 -0.0098193488 
   53000    264.16016    22173.852     2924.207    30.999838 0.0041368372 -0.0049999928 -0.037446955 
   54000    293.90685    1362.8007     2924.207    29.643783  -0.02236681 -0.013648326  0.037564449 
   55000     264.1432    15548.979     2924.207     28.08036 -0.013385694 -0.013867678 0.0069761199 
   56000    288.98582     11030.36     2924.207    33.161149 -0.0084212998 -0.024053016  0.015963979 
   57000    269.23572    3701.4884     2924.207    32.253966  -0.04028428 0.0026948738  0.019632033 
   58000    282.16636    18821.488     2924.207    25.517077 -0.019902543  0.016853222 0.00020485283 
   59000    282.74762    10475.676     2924.207    27.082884  0.016344059  0.020521188 -0.014714981 
   60000    273.34193    16098.525     2924.207     31.26121 -0.016216881 -0.029267175  0.033822518 
   61000     286.5694    6371.6647     2924.207    30.560603  0.011668785 -6.6551551e-05 -0.038693732 
   62000    279.08234    8697.5082     2924.207    25.599999 -0.0021084779  0.007689561 -0.028884084 
   63000    285.03346    12543.612     2924.207    23.976968 -0.012334773  0.038082594 -0.0018531515 
   64000    260.79112    2910.9152     2924.207    28.946362  0.016352067 0.0063994677  0.035113031 
   65000    247.76271    24036.455     2924.207    32.437183 0.0008056218 0.00034531325 -0.020053243 
   66000    290.21871    5881.3108     2924.207    30.091743  0.044605924  0.029927401 -0.0054989887 
   67000    262.20948    19340.125     2924.207    28.593001  0.036899019  0.024024841 -0.0025603576 
   68000    284.26824    8700.7057     2924.207     27.22275 -0.0053214871 -0.017671091 -0.038180112 
   69000    261.01943    12507.668     2924.207     29.11234  0.017235968  0.010549877  0.042738526 
   70000    263.59191    11403.409     2924.207    32.505833 0.0048322795 -0.015318223 -0.0078747662 
   71000    287.71934      15477.8     2924.207    32.503503 -0.021235282  0.011073334 0.0075295651 
   72000    253.52999    17650.087     2924.207    28.672636 -0.039288637  0.028874981  0.020505114 
   73000    286.33977    16339.972     2924.207    26.629589  0.034052832 -0.0055136632 -0.0068328181 
   74000    278.10968    10765.104     2924.207    29.355636 -0.022336111 0.0069441163  0.015003572 
   75000    274.44487    10371.158     2924.207    33.054373  0.015245273 -0.00034596303  0.022773704 
   76000    268.07764    8595.7153     2924.207    32.078232 -0.023161328   0.03798411 -0.027947801 
   77000    255.93738    14503.482     2924.207    29.803288  0.001328935  0.056025085 0.0021337712 
   78000    282.53449    8407.6415     2924.207    28.381276 0.0065811281  0.013796287 0.0070828383 
   79000    253.55467    11251.423     2924.207    28.399554 -0.030446974  0.047929005 -0.016442744 
   80000     246.7797    19996.579     2924.207    30.208956 -0.012053368  -0.02758562 -0.026674438 
   81000    280.84387    6393.7716     2924.207    27.729309  0.013354221 0.0019689543  0.032173768 
   82000    280.18468    14311.051     2924.207    23.459983  0.039870844  -0.01823372  0.006049233 
   83000    263.07262    8176.6028     2924.207    25.451654  0.024843185 0.0020534019 -0.027262493 
   84000    275.63486     9894.161     2924.207    27.797577 -0.014441237  0.019173357  0.021843274 
   85000    284.96232      17747.7     2924.207    23.989507 -0.0097389675  0.041775672  0.004265851 
   86000    247.58549    16909.093     2924.207     24.18104  -0.02616836  0.023872355  0.010378952 
   87000    283.83484    10292.584     2924.207     26.88955 -0.047999148  0.014620067  0.026042074 
   88000    259.35544    12399.051     2924.207    27.740438 -0.0088897715   0.02099434 -0.016495063 
   89000    264.26223    10236.425     2924.207    24.379594 -0.014449614 -0.034510789  0.011521353 
   90000    276.84817     16191.26     2924.207     23.00461 0.0054350352 -0.0080410451 -0.0093046258 
   91000    277.22554    7529.1945     2924.207    25.488601  0.019784646  0.057447905 -0.0085367923 
   92000    294.71572    9554.3266     2924.207    29.213564 -0.010123342  0.019593662 -0.019157487 
   93000    250.60051    14471.669     2924.207     33.56702 -0.032919527 -0.0070073204 -0.0079688028 
   94000    277.53481    12967.922     2924.207    33.375299 0.0029693173 0.0078226777 0.0067877159 
   95000    271.24828    12196.835     2924.207    30.560917 -0.018432872 0.0089150585 -0.0097194199 
   96000    255.26888     17713.02     2924.207    25.698949 -0.0033462538  -0.01135672 -0.0030257186 
   97000    275.13669    10389.747     2924.207    21.112107 0.0015601059   0.01276873 -0.0056421799 
   98000    249.66275    14720.505     2924.207    21.757837  -0.04424978    0.0273377  0.017888135 
   99000    267.46498    6947.1639     2924.207    25.292136 -0.028998987  0.038117752 -0.0044036436 
  100000    271.02579    22143.972     2924.207     24.83703 -0.020257128 -0.011110362 -0.0097203514 
  101000    280.97177    6408.6888     2924.207    26.328808 0.0029234197  0.019922328  0.008628575 
  102000    274.22856    13348.177     2924.207    29.064238 -0.010812233  0.033916225  0.030652548 
  103000    282.61069    17199.737     2924.207    31.181523 0.0097349756  0.015672284  0.016996641 
  104000    270.18983    9415.2656     2924.207    32.798077 -0.0077247556 -0.010589026 0.0012755839 
  105000    280.46453    6839.5948     2924.207    31.294581  -0.01069111   0.01958061 -0.010840385 
  106000    284.86577     14542.57     2924.207     30.64986 0.0045279578 -0.0061908608 -0.0095572079 
  107000     262.7877    7667.2033     2924.207     30.22915  0.018702423 -0.0052733741 -0.0055988301 
  108000    293.28711    17437.001     2924.207     29.79368 -0.0014198961 -0.0058086207  0.029466628 
  109000    250.80308    14091.416     2924.207    30.193386  0.031327556  0.016783208 -0.035054777 
  110000    276.82914    8357.9915     2924.207    30.915872  0.022262593  0.038435681 -0.017138301 
  111000    279.13158    18324.582     2924.207    31.278395  0.039322993 0.0098766911 -0.032280073 
  112000    263.20075    14417.258     2924.207    31.131773 0.0018485989  0.031454167 -0.0074533394 
  113000    255.13819    14174.908     2924.207    28.252678 0.0058050716 -0.0049506904  0.048283805 
  114000    267.05358    14843.978     2924.207     22.79397  0.012466811 -0.019989434 0.0014537632 
  115000     283.9814    14166.413     2924.207    18.688999 -0.015198435 0.0061427536 -0.022531327 
  116000    267.52032     10561.49     2924.207     20.60925 -0.020225562 -0.003051957 -0.023688626 
  117000    265.85423    7285.7331     2924.207    22.754147 -0.0019398272 -0.032374679 -0.0098782881 
  118000    267.82059    8980.4488     2924.207    22.483984  0.001009703 0.0068484214 -0.018067144 
  119000    269.02065    16951.464     2924.207    20.783377 -0.022308716 -0.018223128 -0.036106583 
  120000    277.45305    6133.7144     2924.207    20.025459  0.015661939 0.0062239997 -0.008053743 
  121000    255.23627    19419.905     2924.207    20.787567 -0.002188025 -0.037180381 -0.0039409764 
  122000    265.76846    13311.962     2924.207    25.965437  0.013787855 0.00032120495 -0.034707553 
  123000     262.5801    11464.697     2924.207    30.978586 -0.0027220386  0.034429178 -0.025561226 
  124000    265.26263    16147.868     2924.207    32.393529 0.0040115978  0.013098877   0.01449813 
  125000    252.75851    8062.5716     2924.207    34.708275 -0.00071122769 -0.0037828572   0.01451703 
  126000    263.41124    11282.339     2924.207    35.739034  0.012659278  0.013235071 -0.0043299256 
  127000    267.26132    12203.634     2924.207    35.425411 -0.020633505  0.018236256 -0.020750872 
  128000    279.81461    12145.319     2924.207    32.172172 0.0066275824   0.01400058 -0.00050320269 
  129000     265.8909    9070.4286     2924.207    29.535747 -0.006510154  0.042022745  -0.02210067 
  130000    283.58459    15853.577     2924.207    32.211644 0.0027618143  0.029998322 -0.015524807 
  131000     272.2637     7250.381     2924.207     34.49871 -0.018278128 -0.0013547157  0.020190571 
  132000    252.24141    15939.862     2924.207    31.864979 0.0033380533 0.0082895339 0.0078895932 
  133000    279.98156    11006.225     2924.207    27.913202 -0.0067075853 -0.0036678428 0.0010070826 
  134000    272.49193    14785.023     2924.207    26.757345 -0.012910623 0.0074273742 -0.00041062603 
  135000    293.61945    14634.909     2924.207    28.469208 -0.015718883 0.0040845314  0.040586572 
  136000    261.21778    11155.152     2924.207    30.457167 0.0094686457 -0.016435962 -0.0078262477 
  137000    277.98339     10669.86     2924.207    33.750942  0.020620098 -0.020876162 -0.035567277 
  138000    285.66005    18605.246     2924.207    33.464907 0.0093669692 -0.014049864 -0.0080462678 
  139000    279.52989    13759.762     2924.207    28.091316 -0.008953718    0.0307034   0.01608255 
  140000    276.75998    8936.3105     2924.207    23.912524 -0.009639801 0.0094371857 -0.0076699784 
  141000     276.9486    8518.7491     2924.207    23.981204   0.02643015  0.026689349 -0.0068118642 
  142000    259.71756    13354.806     2924.207    28.177077 -0.015074429 -0.0013469854 -0.015062347 
  143000    279.66872   -225.79615     2924.207    30.751878 -0.010617771  0.013709999  0.023683239 
  144000    278.85638     16729.38     2924.207    31.527587  0.011003356 -0.0020465378 -0.0044240856 
  145000    274.24938    12533.117     2924.207    28.347609 -0.016757496  0.032117047  -0.02294541 
  146000    268.48448     17541.88     2924.207    24.174121  0.014675114 -0.017832101 -0.0083177737 
  147000    257.20484    3699.0124     2924.207    26.603618 -0.0067064061 -0.029103346 -0.0041097834 
  148000    267.44954    14991.818     2924.207     32.13418 -0.045320665 -0.020243496   0.00624783 
  149000    263.62938    16070.435     2924.207    32.829505 -0.021984035   0.02444853  0.002118001 
  150000    276.44201    13581.685     2924.207    27.885855  0.017593478 -0.00094076344  0.011582686 
  151000    269.14811    16060.958     2924.207    23.298357 -0.024795428 -0.0034256833  0.033285105 
  152000    265.52654     18520.53     2924.207    21.774766 -0.0096017856  0.015619724   0.01553574 
  153000     273.6014    6617.8659     2924.207    22.661824 -0.0025861673 -0.0044904774 -0.015617847 
  154000    259.33363    10511.548     2924.207    25.288667 -0.0028549506   0.01706216  0.011132444 
  155000    282.03965    9540.0317     2924.207    26.926987  0.020601329 0.0099994058   0.02895219 
  156000     267.8562    11266.822     2924.207    26.269635  0.021689998 -0.021876718  0.023940952 
  157000    260.35358     10157.45     2924.207    26.619802 -0.027075869 -0.015381205 -0.0046814221 
  158000    263.18538    12627.979     2924.207    28.500842 -0.017148403  0.021013558 -0.040062243 
  159000     281.3529    8255.3127     2924.207    31.444419  0.011316425   0.01903604 -0.0040392677 
  160000    263.49261    10635.674     2924.207    32.757052  -0.01602834 0.00099972592 -0.00061677858 
  161000    277.43396    13428.561     2924.207    31.372772 0.0084412885  -0.03344711  0.025090386 
  162000    263.48327    9614.9622     2924.207    26.817218  0.028406597 0.0043486629 0.0027239296 
  163000     285.1434    12274.391     2924.207    26.877233 0.0013918079 0.0056909024 0.0025116362 
  164000    262.14754    11953.948     2924.207    27.126172   0.01233647  0.019621315 -0.00095624607 
  165000    285.41551    3601.3722     2924.207    29.052312 -0.00082737778 -0.0016371567 -0.0034728546 
  166000    280.03258     13688.55     2924.207    31.254949  0.027356752 -0.0041173808 -0.0032651882 
  167000    277.29478    4544.3716     2924.207    31.849195 -0.025859814 -0.036749754 -0.028588386 
  168000    277.01578    12221.934     2924.207    31.007239 -0.027665197 -0.0062819539 -0.0020068676 
  169000    257.28052    13617.423     2924.207    28.237146 0.0079449593 0.0032851328 -0.0026277222 
  170000    270.14571    8078.6585     2924.207    25.822048 -0.0020614141 -0.027645781  0.038299851 
  171000    278.53037    14643.516     2924.207    26.881413 -0.0023354475  0.010212732   0.03254087 
  172000     291.5334    5730.6362     2924.207     26.05088  0.015652819 -0.013433209 -0.024729061 
  173000    269.23222    13815.024     2924.207    24.820908 0.0083495151 -0.028164923 -0.0063298088 
  174000    258.40275      14477.6     2924.207    22.193039 -0.014963404 -1.8728621e-05  -0.02396678 
  175000    260.18346    2348.3689     2924.207    22.327796 0.0089932874 -0.017845947 -0.018729478 
  176000    287.31561    11883.311     2924.207    23.733396  -0.01056356   0.01685299 0.0063439336 
  177000    269.16603     10189.82     2924.207    25.237104  0.016717768 -0.010547756  0.035562498 
  178000     267.0469    17614.959     2924.207    25.609202 -0.0019061214  0.026393943 -0.037679812 
  179000    241.86344    12543.836     2924.207    26.765281 -0.028294293 0.0011353412 -0.014505497 
  180000    260.97574     11855.25     2924.207    27.658059 0.0093057362 -0.0067269824 0.0099143319 
  181000    268.78755    9354.8057     2924.207     25.99709 0.0038969209 0.0041228784 -0.037073708 
  182000    284.75695    4743.5453     2924.207    24.510424 0.0025359678 -0.014253626 -0.00010781925 
  183000    285.89827     15383.07     2924.207      24.5897 -0.008844706 -0.018398587 0.0056361138 
  184000    270.26193    3532.6918     2924.207    26.667269  0.018760766 -0.005000893 -0.027929361 
  185000    275.63642    16436.511     2924.207    28.501715 -0.024946087 -0.039181119  0.045032835 
  186000    270.78239    8705.3512     2924.207    27.863039  0.015994523 -0.039432218  0.017607925 
  187000    278.50636    15009.196     2924.207     27.93528 -0.034028503 -0.027132334  0.022423119 
  188000    265.47823    17313.423     2924.207    27.727361 -0.0044114764 -0.029155336  -0.03326907 
  189000    276.25507   -2010.6175     2924.207    24.791902 -0.0069507469 -0.020424547 -0.0083843773 
  190000    268.98537     12449.22     2924.207    26.604249 -0.019243454  0.024144011 -0.029338216 
  191000    244.13866    17909.996     2924.207    28.278843  0.010559839 -0.041169476 -0.016899287 
  192000    279.09956    5452.6506     2924.207     27.66905 -0.029678065 -0.035811921  0.025455907 
  193000    271.58777    16784.592     2924.207    25.100058 -0.019191957 -0.013480162 -0.0024165536 
  194000    262.23668    11448.533     2924.207    23.978925 -0.0034795613   0.00957329 -0.011641414 
  195000    280.34591    11489.087     2924.207    27.252074 -0.00020971287 -0.0058463919 0.0095007253 
  196000    249.44051     18012.05     2924.207    30.863462 -0.036357633  -0.04502373 -0.0062753358 
  197000    257.99702    10098.308     2924.207    32.758141 -0.022096956 -0.010422942  0.027199548 
  198000    258.16739    18417.185     2924.207    33.585122 -0.00018630429  0.018278568  0.028722748 
  199000    253.59777    15138.617     2924.207    30.972275  0.064577662 -0.028396945  0.011201824 
  200000     258.6282    7542.2438     2924.207    28.442126  0.023251298 -0.002600574 -0.0086049959 
  201000    272.45023    9770.7456     2924.207    28.985192  -0.02576163  0.013450466  0.019398031 
  202000    271.73285    9273.2201     2924.207    29.306946 -0.044953521   0.02161376 0.0031537174 
  203000     269.5633    12593.811     2924.207    32.433963  0.042562649  0.027261437 0.0087251285 
  204000    263.52819    18295.476     2924.207    33.879632 -0.027322164  0.026282198  -0.02540021 
  205000    267.57639     9582.572     2924.207    30.108578 -0.0074480547 -0.0077672639 -0.019694778 
  206000    266.50872    13092.163     2924.207    28.612736   0.03597004 0.0083030553 -0.019104287 
  207000    263.75539      4375.68     2924.207    28.701102   0.01463064 -0.043027705  0.011739926 
  208000    279.89884    15765.607     2924.207    29.809868 0.0022071492 -0.024266776  0.021436037 
  209000     273.1114     15445.15     2924.207    30.333102 -0.0051459967 -0.030738861 -0.0078740921 
  210000    279.76957    12090.751     2924.207    30.996591 -0.025411317  0.059328669   0.01005708 
  211000    263.41848     12127.17     2924.207    31.908041 -0.0018156981 0.0066250037  0.044121703 
  212000    290.37267    9963.8781     2924.207    34.002134 -0.0081837533 0.0036505839 -0.0040729548 
  213000    265.28527    6556.3368     2924.207    34.114135 0.0067183179    0.0139563 -0.015026964 
  214000    281.21962    11772.063     2924.207    31.408314 -0.0097254512 -0.011962067 -0.0069204648 
  215000    259.15656    11605.726     2924.207    28.691532 0.0046566549   0.02272914  0.010157395 
  216000    267.25211    13575.395     2924.207    28.150555  0.025906144  -0.05416446 -0.034167827 
  217000    275.81836    11199.047     2924.207    29.703505  0.011925319 -0.0048026737 -0.031346871 
  218000    279.52233    6975.2884     2924.207     31.45457 -0.015710723   -0.0393947  0.010555901 
  219000     257.0821    8056.2171     2924.207    31.051168  0.015152991  0.016795863  0.014340861 
  220000    280.83764    15511.814     2924.207    27.560191 -0.023696049 -0.021917104 0.0056977472 
  221000    261.02611    5025.3723     2924.207    23.209436 -0.0074917858 0.0066925324  0.005393153 
  222000    258.60257    16030.331     2924.207     22.28693 0.0038203811 0.0005748815 0.00096329133 
  223000    248.50962    14761.792     2924.207    24.920751 -0.024895396 0.0037082247 -0.022916642 
  224000    261.36048    20245.343     2924.207    26.322216  0.036736009 -0.0039861808  0.011699841 
  225000    253.11639    11997.759     2924.207    27.710991 -0.018037379  -0.02120618    0.0154344 
  226000    271.68461    6968.0256     2924.207    29.085594 -0.00078640571 -0.035313777 -0.0015281634 
  227000    256.17517     16866.23     2924.207    31.625019 0.0050577527 -0.011061665  0.013515298 
  228000    259.51907    11446.032     2924.207    30.187576  0.013015555 -0.0072632372 -0.0049606843 
  229000    247.81723    14012.039     2924.207    30.595434 -0.011607472 -0.053634361  0.014309341 
  230000    262.49912    12099.754     2924.207    30.400627  -0.01055537  0.023312936 -0.044048785 
  231000    270.02333    11281.527     2924.207    30.475207 -0.029271542  0.050582951 -0.025509918 
  232000    262.04211    12868.924     2924.207    30.048767 0.0097117282  0.024115349  0.032035338 
  233000    274.57548    6195.5698     2924.207    28.329367 0.0038111277  0.057652852  0.021653871 
  234000    273.28023    7131.1248     2924.207    24.844896 0.0029807009  0.030999833  0.026084702 
  235000    282.05244    14821.468     2924.207    24.645787 -0.0051173893  0.023800574 -0.016551738 
  236000    255.99975    16210.121     2924.207    24.209675 0.0066323948 -0.023375505  0.048530402 
  237000    263.80419    10276.611     2924.207    24.535925 -0.035502527 -0.010644294 -0.016051205 
  238000    246.01646    9688.1165     2924.207    22.683246 -0.012220733   0.01537109  0.016202119 
  239000     265.4834     14123.33     2924.207    20.867705 -0.012206539 8.9537945e-05  0.029702304 
  240000    277.79868    7257.1855     2924.207    22.593791  0.011085061 -0.0088296588  0.037932781 
  241000    258.42839    12693.178     2924.207    24.729804 -0.033251315 -0.010736613 -0.029231422 
  242000    275.52428    11021.506     2924.207    23.932601 -0.0018416715 0.0035110263 -0.00042369926 
  243000    249.36969    10272.423     2924.207    22.927315 -0.036959963  0.032658218  0.025824176 
  244000    256.74972    9125.9245     2924.207    23.230207  0.023266934  0.031575969  0.011595172 
  245000    250.40167    20803.084     2924.207    25.488994 0.0026023979  -0.01906793  0.022515941 
  246000    270.12808    2020.6469     2924.207    26.620222 -0.00099903336 -0.021308383 -0.031634978 
  247000    284.12117    15472.085     2924.207    26.652832 -0.041170265  0.066444811 -0.025938746 
  248000    253.70735    14692.905     2924.207    23.563438  0.021173647  0.004677092  0.015334513 
  249000    269.79341    11704.508     2924.207     22.37465  0.037557643  0.010361148 -0.025517946 
  250000    270.98531    11935.479     2924.207    21.211842 -0.0015726366 -0.026810257  0.021415713 
  251000     252.4845    11964.154     2924.207    19.656837  -0.00214602  0.011324498 -0.020862316 
  252000    260.12004    14988.981     2924.207    21.955899  0.006036567 -0.015038377 -0.034698918 
  253000    261.73579    7572.0753     2924.207    24.014545  0.024310744  0.018492947 -0.018326452 
  254000    269.33053     10162.35     2924.207    22.918788  0.005246263 0.0042327164  0.037047495 
  255000    282.39488    13289.215     2924.207    22.489542 0.0036634888  0.028038004  0.033568548 
  256000    258.87704    14326.625     2924.207    22.098473  0.028406969  0.031041158  0.039754636 
  257000    260.54514     11181.29     2924.207    24.339797 -0.036313343 -0.017780865 0.0032067878 
  258000    296.39557    6167.3173     2924.207    28.502203 0.0053542536  0.055450257 -0.005063772 
  259000    262.58958    13235.265     2924.207    29.779568  0.042184378 -0.017687238 -0.016406596 
  260000      250.946    17922.616     2924.207    27.287223 -0.0029005136 -0.019181556 -0.0038015915 
  261000    261.76872    6208.7202     2924.207     24.44391 -0.012076214 -0.010687826 -0.040137757 
  262000    258.72493    6301.5174     2924.207    24.161711 -0.014513951  0.015217887  -0.03315635 
  263000    252.96187    11007.411     2924.207    25.868076   0.01141053 -0.003450233 -0.0081464645 
  264000    257.44049    13810.987     2924.207    27.080994 -0.015214333 -0.0011444909   0.04393615 
  265000    281.40181    5148.8094     2924.207    26.899951 0.0022206983 0.0016319673  0.015320983 
  266000    262.33713    14624.077     2924.207    23.943985 0.0031216869 -0.054678623 -0.0015227164 
  267000    259.29446    13139.449     2924.207     27.19644 -0.042711432  0.028749113 0.0067041809 
  268000    254.18676      3745.38     2924.207    30.757726 -0.030866455 -0.022085227 -0.0070918781 
  269000    245.65703    17973.881     2924.207    31.000463 -0.036539912  0.013995138  0.023361342 
  270000     287.2648    8172.2365     2924.207    30.732043   0.02681028  0.011714653 -0.028272232 
  271000    272.63372    9854.4973     2924.207    26.143523  0.018561005 -0.0092098193 -0.022260689 
  272000    261.90305    16108.717     2924.207    22.148848 0.0033961817   0.00296882 0.0022103173 
  273000    268.85107    9951.6321     2924.207    21.706076  0.036743467 -0.017903554  0.010515826 
  274000    279.60695    10011.491     2924.207    25.127881 -0.009003188  0.021396665 -0.0079122226 
  275000    287.40637     6932.961     2924.207    30.523239 -0.047219551   0.01401959 -0.036698741 
  276000    259.99153    15299.305     2924.207    32.738201  0.019159425 0.0098520597   0.02464874 
  277000    278.39896      3506.92     2924.207    31.870726 -0.0012451547  0.022039065 -0.0052167021 
  278000    248.36983    11191.825     2924.207    29.508449 -0.009352132 -0.025483329 0.0035312445 
  279000    256.80471    18869.134     2924.207    27.037981  0.026418704 0.0043292502  0.011243998 
  280000    263.24012    11737.117     2924.207    27.632874  0.032248217  -0.01406265 0.0088683424 
  281000    245.95528    21080.478     2924.207    27.222492  0.019589703 -0.010881464 -0.019959561 
  282000    253.59578     11155.86     2924.207    24.886673 -0.023445591 0.0090490134  0.015677844 
  283000    247.53776    8474.8381     2924.207    24.819893 -0.012081797  0.027460786 -0.024604839 
  284000    271.28971    7348.4249     2924.207    28.047113  -0.03226553  0.012793517 -0.022630646 
  285000    274.87218    17852.268     2924.207    31.127018  0.007460326 0.0039357484  0.026757418 
  286000    264.26798    3428.4775     2924.207    31.992648 -0.011489657 0.00067363213 0.0053085408 
  287000    273.61112    14183.728     2924.207    32.050839 0.0017944534 -0.043357087 0.0099280484 
  288000    249.41369    18666.989     2924.207    31.264615 0.0017595409  -0.01757008 0.0079319212 
  289000    262.71067     12325.57     2924.207    28.852342 -0.010765595  0.026189708 0.0052032493 
  290000    282.53812    11394.525     2924.207    27.576559 -0.041294615 -0.0015998816 -0.023242818 
  291000    277.56226    7315.2514     2924.207    25.469424 0.0018276285  0.021200896  0.030082644 
  292000    252.78602    7965.4554     2924.207    24.949826  -0.02380911  0.029308467 -0.027729984 
  293000    251.37508    14195.064     2924.207    24.847234 0.0056771081 -0.024326822 -0.0057521345 
  294000    254.33391    17088.006     2924.207    23.753585 0.0063149647  0.011551617 -0.0023612692 
  295000    264.38533    6046.3093     2924.207    23.807366  0.017558428 -0.0080126457 -0.0038243059 
  296000    274.70495    17469.254     2924.207    25.228497  0.011376332 -0.032850446  0.030078407 
  297000    272.49403    7359.8681     2924.207    28.810683 -0.043979489  0.013914564 -0.020647778 
  298000    282.40439    10662.042     2924.207    31.446407 0.0015431254 -0.015386801 -0.045943419 
  299000    269.97872    9931.1072     2924.207    32.129344 -0.014672602  0.013213019 -0.014138357 
  300000    261.02524     19909.58     2924.207    30.923674 -0.037510999  0.013117054  0.008182249 
  301000    265.51922    5261.5578     2924.207    28.952276 -7.7283917e-05 -0.00015749368  0.034240241 
  302000    266.07569    13154.652     2924.207    28.575632 -0.013122731  0.022146815 -0.0078484869 
  303000    267.46594    15406.619     2924.207    29.611121  0.018221469 -0.023515602 -0.005682126 
  304000    246.79899    5173.5056     2924.207    29.327733 0.0092601648 0.0053645132  0.017926991 
  305000    276.78442      15711.7     2924.207    28.021686 -0.051606186  0.010151637 -0.034675374 
  306000    280.70171      8843.09     2924.207    26.966785  0.010354827  0.010260923  0.015517833 
  307000    275.97092    12059.576     2924.207    26.348306 -0.017766939 -0.015084471 -0.012574348 
  308000    242.88829    13588.513     2924.207    26.144109 -0.028874575  0.018750896  0.016231461 
  309000    256.33439    11722.941     2924.207    26.338313 -0.0058153564 -0.0091164968  0.016117167 
  310000    256.19081    9990.4942     2924.207    28.197208  0.018788581 -0.00084616906 -0.012901975 
  311000    269.77129    6051.1586     2924.207    30.542895  0.039232559  0.010245735 -0.0077828917 
  312000    264.18208    15793.005     2924.207    29.128938 -0.030977854 -0.014502358 -0.002919906 
  313000    249.75511    5682.9951     2924.207    25.219308 -0.023049614 -0.023328362 -0.0012888716 
  314000    268.31576    13677.366     2924.207    23.630296  0.037851521 -0.013513577 -0.022393397 
  315000    276.96197    11444.922     2924.207    25.660784  0.036828174 -0.0084896358 -0.023732677 
  316000    257.49904    15127.389     2924.207    29.004196  0.026205392  0.025172699 -0.011073715 
  317000    279.97265    12481.739     2924.207    30.776876 -0.0046676731 -0.0098115141 -0.030399558 
  318000    252.88168    8041.5591     2924.207    30.761744    0.0203612 -0.015312938 0.0080996109 
  319000    253.64237    11358.608     2924.207    28.575707  0.025064296 -0.033166151  0.012288251 
  320000    271.71246    13290.626     2924.207    26.795237 -0.0076936099  0.018171762  0.014213013 
  321000    277.51379    2379.1622     2924.207    24.974104   0.01442841  0.022328532   0.02006225 
  322000    255.61687    16053.665     2924.207    23.733714 0.0062912033  0.018869313 -0.023739468 
  323000    273.83163    8872.5745     2924.207     26.47038   0.01693439 0.0016083269 -0.0038849174 
  324000    266.29455    13888.653     2924.207      30.9247 -0.009478309 0.0054376945  0.021908674 
  325000    268.94609    7065.8448     2924.207    33.023306 -0.054894825 -0.0027359229 0.0076292286 
  326000    261.10473    9233.0705     2924.207    29.932857 -0.019626954  0.022774778  0.023111542 
  327000    279.76592     11584.24     2924.207    26.970361  0.010925226  0.029634584  0.031949638 
  328000    261.21828    4799.3589     2924.207    26.076689 0.0073414424 -0.015640646  0.021941919 
  329000    270.33498    14943.323     2924.207    26.854741 0.0029608777 -0.050883391 -0.0066718244 
  330000    257.85836    14275.569     2924.207    26.286991 -0.011237885 -0.013375619  0.032199332 
  331000     263.4999     10781.67     2924.207    27.836925  0.016148301 0.0082075662 -0.013587233 
  332000    294.46006    5215.5414     2924.207    31.836751 -0.011772044  0.023314823 -0.023603768 
  333000    255.91988    9357.6673     2924.207    35.242265 -0.0066582845 -0.011079154 -0.046509487 
  334000    260.09834    11486.398     2924.207    35.163399  0.016794277  0.019791078  0.001048347 
  335000    270.47012    8743.9019     2924.207    32.372694 -0.024417582 -0.0020765753 -0.045593715 
  336000    254.98651    11787.852     2924.207    26.772458 -0.0046612772 0.0037505203 0.0090007647 
  337000    272.41653    4416.1745     2924.207    22.994127 -0.003364754 0.0095567636 -0.0020767255 
  338000    256.11324    11565.756     2924.207    20.028943 -0.011968185 -0.055768282 0.0090970903 
  339000    292.89279    7446.6228     2924.207    20.490284 0.0035412946 -0.035378367 -0.0042882893 
  340000    251.29145    8395.4528     2924.207    21.770054  0.017565913 0.0066364693 -0.022710517 
  341000    281.71901    11735.968     2924.207    22.473622 0.0082087699 -0.015412265  0.016206157 
  342000    261.30805    9076.6965     2924.207    25.747989  0.039600903 -0.017383169  0.023036049 
  343000     259.3636    15829.069     2924.207     30.48363 0.0056683074  0.020480643  -0.01729711 
  344000    260.18167    7161.8251     2924.207    32.878664 -0.036832362  0.014088243  -0.02440963 
  345000    242.75675    16457.859     2924.207    33.380991  0.021529358   0.02664254 -0.0039672512 
  346000    270.96118    5281.3852     2924.207    30.395833 -0.0076384038  0.010377915 -0.017668013 
  347000    276.19683    8334.9863     2924.207    26.228027 0.0091410119 -0.0087936843 -0.025533562 
  348000    274.69299    15743.832     2924.207    21.759005  0.019167162 0.00017921061 -0.010094048 
  349000    260.79357    6791.0566     2924.207    18.636279  0.050211933 -0.046751264  0.054627924 
  350000    272.71852    8140.5716     2924.207    20.716139 -0.006488542 0.0040450359 -0.0075767812 
  351000    265.88594    9597.0134     2924.207    24.864434  0.010781658 -0.0041882853 -0.018517263 
  352000    258.44633    8642.9531     2924.207    26.288112 -0.0033143602 0.0015634138 -0.0025958335 
  353000    280.92655     12420.93     2924.207    27.216343 -0.015999891 -0.034286927  0.031287593 
  354000    264.57813    7863.7127     2924.207    30.191098 -0.016356394  -0.01355709 0.00010865728 
  355000    266.84545     13260.08     2924.207    30.667271  0.034754179 0.0040496691 -0.0011581615 
  356000     264.4451    6264.4698     2924.207    29.748187 -0.011612042  0.038884158 0.0099412721 
  357000    267.81993    17156.128     2924.207    25.915547  0.011189256  0.009961518 -0.011939373 
  358000    246.24954    12195.355     2924.207    24.539986 -0.00034269145  0.050414763 0.0043641171 
  359000    273.72562    4869.2337     2924.207    24.474699  0.027963975  0.017611643  0.027485222 
  360000    252.14146    14889.855     2924.207    24.174145  0.028242803 0.0024013793 -0.018222757 
  361000     257.6967    4572.7081     2924.207    25.071845 -0.016273331 -0.034002164  0.031564579 
  362000    272.95896    10957.743     2924.207    27.830841 -0.010261337 -0.016535413  0.011134259 
  363000    267.63868    12320.784     2924.207     29.85393 -0.013429838 -0.0067548932  0.021459816 
  364000    252.66864    8131.9436     2924.207    31.413192 0.0045215523 -0.014014932 -0.022923489 
  365000    242.83575    3961.7751     2924.207    33.501976  0.029094572  0.012371579  0.024470151 
  366000    259.73404    15710.029     2924.207    33.317723 0.0047533724  0.021761523 -0.027038098 
  367000    291.05031    7915.6539     2924.207    31.835865 -0.026373558 -0.019870853  0.019295419 
  368000    249.68673     7094.664     2924.207     28.32694 -0.016252048 -0.013778378 -0.021047722 
  369000    273.54415    13830.479     2924.207    25.491178 -0.0076668807  0.014205239 -0.028123311 
  370000    276.89216    4772.5036     2924.207    22.608279  -0.01242822  0.022149135 -0.012009154 
  371000    258.92398     7504.225     2924.207    22.402314 0.0065672675  0.018809737 -0.021079953 
  372000    247.77362      14911.5     2924.207    26.063551  0.012267755 -0.019992238 -0.018190322 
  373000    261.73315    2236.7126     2924.207     31.70739 0.0071088526 -0.012818134 -0.010960814 
  374000    265.53672    10581.733     2924.207    32.651991 -0.0074348634  0.004837226 -0.0033352193 
  375000     261.2088    18395.624     2924.207    29.432682 -0.010393527 -0.0091054338  -0.01718658 
  376000    275.08648    6979.8443     2924.207    26.599659  0.018055345 -0.010643566 -0.029943568 
  377000    268.82438    14326.466     2924.207    26.248941  0.014930501  0.014337598  0.053751321 
  378000    263.16736    13170.687     2924.207    26.499887  0.013403892  0.017854362  0.015556567 
  379000    273.68488   -44.799755     2924.207    27.515837 0.0075796536  0.017708341 0.0018968981 
  380000    256.43116    13472.506     2924.207     27.65929   0.01568576 -0.0051202932  0.021634531 
  381000    279.64721    3088.5982     2924.207    29.689376 0.0036731493 -0.0069739007 -0.00090726013 
  382000    272.18031    9010.4251     2924.207    32.563252  -0.03730118   0.02191934 -0.00026165109 
  383000    279.10082    6561.5906     2924.207      33.8427 -0.018899923 0.0045434324  0.023411651 
  384000    250.11372    13334.706     2924.207    34.694833 -0.012906453  0.010771255 -0.032517738 
  385000    268.09647    5181.6841     2924.207    33.252171 -0.014218331  0.024011492 -0.011595727 
  386000    270.03657    12725.099     2924.207    28.007822  0.022522038 0.0090968097 -0.0029178652 
  387000    252.27981    9090.7652     2924.207    23.056766 -0.0060438567   0.01512483 -0.038554234 
  388000      255.777     21102.01     2924.207    19.513306 0.0083403567 0.0024283331 -0.036696776 
  389000    261.75359   -1513.3648     2924.207    17.071332 -0.035006501 -0.0027650135 -0.027092459 
  390000    251.61605    18789.822     2924.207    20.372783 0.0043807384 -0.0061057893 -0.0035639157 
  391000    246.13607    5574.5921     2924.207    26.538032 -0.019600764  0.010002954 -0.020673776 
  392000    288.41426    13238.347     2924.207    31.368181 -0.021092781 -0.019457028 -0.0093973384 
  393000     270.6746    3626.9241     2924.207    31.280501  0.011643564 -0.032112106 -0.0037809016 
  394000    260.68373    14215.683     2924.207    30.130479 -0.0059830153 -0.0044845869  0.029454582 
  395000    255.64998    9694.9997     2924.207    27.362832  0.010015531 -0.015173623 -0.00066473424 
  396000    257.61799     13594.19     2924.207    23.855842 -0.010399099  0.018745196 -0.0078246582 
  397000    279.10352    8060.2999     2924.207    21.645556  0.017405355  0.021493892  0.016857753 
  398000    257.16641    10754.687     2924.207    22.164029 -0.019124257 0.00056401449 -0.0057003741 
  399000     263.2335    11948.272     2924.207     22.55793 0.0077593237 -0.014696092 0.0082663401 
  400000    246.60604    6933.9166     2924.207    22.649607 -0.015867422 -0.0050741244  0.030413481 
  401000    268.21947     15716.25     2924.207     21.46482 0.0024612886 -0.0091506725 -0.0084144625 
  402000    263.59831    1921.4784     2924.207      19.8944  0.038531097  0.042651217  0.057682066 
  403000    255.54117    10359.981     2924.207    22.839366  0.023924713 0.0069815418 -0.0024065582 
  404000    245.88781    14213.898     2924.207    25.365819 -0.0015661853 -0.017829743 -0.0012262957 
  405000    247.13003    9171.0586     2924.207    27.574848   0.02282566 -0.018051056   0.01132569 
  406000    254.25468    10159.861     2924.207    27.813861  0.038330913 -0.024467615 -0.0019692457 
  407000    259.56135    8644.2362     2924.207     25.38442 -0.0044385682 0.0047412285  0.015728988 
  408000    263.26396    16342.171     2924.207    24.184725 -0.032232655 -0.002139371 0.0022829731 
  409000    247.64956    11736.586     2924.207    24.210575 0.0020356521 0.0076295044  0.014456922 
  410000    248.19012    7768.3765     2924.207    26.736093 -0.013760786  0.041884166  0.014744688 
  411000    274.34209    15090.749     2924.207    29.344276 -0.012739353 -0.040475493  0.029661439 
  412000    273.91619    8329.0873     2924.207    28.381404  0.031029318 -0.016652943 0.0082046025 
  413000      259.903     8678.082     2924.207    23.545788 -0.045266309 -0.034162388   0.02889886 
  414000     250.8663     16611.29     2924.207    19.958211 -0.017339366 0.0030918805 0.00013983578 
  415000     273.5723    6981.2868     2924.207    22.521837  0.030251866 -0.011762266 -0.015786392 
  416000    253.43953    9240.5134     2924.207    27.297504 -0.0037717686 -0.0068506608 -0.016380345 
  417000    276.98593    14366.294     2924.207    30.968316 -0.00068107967 0.0025079138 -0.046190693 
  418000    256.96669    9911.2235     2924.207    32.304711 -0.027042035 0.0067768737 0.0052462043 
  419000    264.73328    8466.6905     2924.207    30.696197 -0.010101678 -0.0016017797 0.0014630207 
  420000      260.281    6200.4978     2924.207    27.830803 -0.0024787845 -0.066361713 0.00097351382 
  421000    263.27108    16300.409     2924.207     25.78067 -0.017301906 -0.040363373 -0.0028199338 
  422000    258.99567    9646.2727     2924.207    25.830506 -0.0080085119  0.020061274  0.030219501 
  423000    246.00826    15242.045     2924.207    27.650236  0.015658157  0.014724996 0.0041963162 
  424000    269.71732   -633.19314     2924.207    30.091585 -0.019691484 -0.014601391 -0.033064295 
  425000    263.97731    21955.114     2924.207    30.587819   -0.0100765 -0.0099435124 0.00056730884 
  426000    245.17188    13248.788     2924.207    28.899477 -0.017812025 -0.013391454 -0.021408331 
  427000    268.98234    4350.2378     2924.207    26.992386 -0.020320679   0.01715943  0.012276414 
  428000    252.78866    11675.255     2924.207    28.416483 -0.040213831  0.024928668 0.0094987301 
  429000    257.11209    17147.793     2924.207    29.601095 -0.014454029  -0.01233755  0.037053903 
  430000    263.70137    685.29175     2924.207    27.024922  0.018517308  0.018159453 0.0019027653 
  431000    258.75338     10996.06     2924.207    25.023344 -0.026829585  0.015225412 -0.028826532 
  432000    273.49171    7858.7655     2924.207    25.480939  0.032505799 -0.023588918 -0.035642846 
  433000    254.82208    11679.875     2924.207    25.933444 -0.044485455 -0.016023945 -0.017771205 
  434000    263.77067    9591.2255     2924.207    26.892931 -0.0020469454  0.027735252 -0.0068039437 
  435000    252.16773     10377.85     2924.207    29.039718 0.0063421951  0.030127719 -0.025938941 
  436000    264.05891    2908.2765     2924.207    28.801013 -0.0016334923 0.0078742382  0.013263703 
  437000    276.60038     14826.54     2924.207    29.945644 -0.013297378  0.024473936 -0.025842433 
  438000    280.33464    8353.8836     2924.207    31.669903 0.0061355323 0.0069341348 -0.031415481 
  439000    262.62868    7397.6572     2924.207    31.995158 -0.016625487  0.013213573 -0.023617751 
  440000    271.88266     7782.768     2924.207    31.874649 0.00042337663  0.019955896 -0.016879988 
  441000    258.54809    11654.566     2924.207    27.840735  -0.03221595 -0.0027387105 0.0070002766 
  442000    270.36674    5950.7613     2924.207    20.332462  0.040352014 -0.0042276642 -0.011637743 
  443000    278.70269    13942.611     2924.207    17.849327 -0.023221861  0.042773572 -0.014079325 
  444000    285.44864    4031.4241     2924.207    22.166313 -0.0043213559 0.0046662149 0.0022748876 
  445000    273.98389    8280.6656     2924.207    29.528348  0.016253967 0.0047820308 -0.0086395826 
  446000    243.62688    9627.9418     2924.207    32.549368  0.011184998  0.011705506 -0.0089441663 
  447000    268.32585    8259.4459     2924.207    30.343739  0.010045995 0.0017171795 -0.019975537 
  448000    277.75448    10341.603     2924.207    28.327837 -0.0017679099 -0.023490964  -0.02547912 
  449000    257.45562    14177.021     2924.207    25.607144 -0.018323107 -0.063012715 -0.0075825451 
  450000    270.50735    5344.6668     2924.207    25.087647  0.027130393 -0.0068780924  -0.04424178 
  451000    247.21262    12379.385     2924.207    26.863116  0.019997151 -0.0041043144 0.0051735516 
  452000    251.68667     4991.284     2924.207    26.529941  -0.01765587  0.010065858  0.014293208 
  453000    276.50824    2047.9479     2924.207    22.650271  0.028844367 -0.018855237 -0.00084227333 
  454000    243.73088    12972.486     2924.207    21.077401 -0.034707304 -0.001041448 -0.017456789 
  455000    263.17454    9841.1487     2924.207    23.920407 0.0014840641 -0.0055699213 -0.038765311 
  456000    278.45818     6882.998     2924.207    26.601317 -0.00097382664  -0.01252239 -0.030380906 
  457000    274.85942    7191.3603     2924.207    26.796328 0.0012683338  0.019550213  0.051457788 
  458000    249.83092    10018.356     2924.207    23.029187  0.016751395 -0.0095723422 -0.021906095 
  459000    251.53142    12439.344     2924.207    21.421988   -0.0215027  0.021894071 -0.0031240438 
  460000    245.56458    8157.0711     2924.207    24.218748 0.00090952528 -0.0055319148  0.012279918 
  461000    272.82584    8037.2149     2924.207    26.919665  0.028765362 0.0077314408 -0.0076269146 
  462000    260.13964    11817.626     2924.207    27.655967 -0.032800033   0.01645546 -0.013209741 
  463000    266.18641    10310.858     2924.207    27.752241 -0.020938072 0.0015455861 -0.017396771 
  464000    256.58452    4649.2423     2924.207    25.325398 -0.006291874   0.02513739 -0.045357879 
  465000    257.83282    8700.5446     2924.207    23.783961  0.064982902 -0.025421769 -0.0033179731 
  466000    268.16605    11411.374     2924.207    23.839673 -0.026066646  0.017310209 -0.013764377 
  467000    258.41746    2065.1943     2924.207    26.878107 -0.0027723706 -0.002497115 -0.0019547048 
  468000     278.9306    15282.852     2924.207    30.407311 -0.032865216 -0.020968322  0.013147816 
  469000    267.66583    6699.7267     2924.207    30.132376 -0.021200734  0.013703614 -0.023453444 
  470000    253.77924    4104.5427     2924.207    27.183101 0.0089918841 0.0061173441 -0.015917586 
  471000     271.7735    13075.825     2924.207    27.653695 -0.0029929598  0.010933935 -0.004097599 
  472000    259.78361    4351.4319     2924.207    29.988859  0.029368916 0.0065322278 -0.010967505 
  473000    252.33069    13815.539     2924.207    28.251887  0.014756963 -0.010957492  0.001935451 
  474000    275.04437    10745.839     2924.207    22.566004 -0.00062892333  0.030656681 0.0097533857 
  475000    255.23609    6980.3002     2924.207    17.577759 0.0097043468  0.018186501 -0.027957743 
  476000    262.39276    8853.5046     2924.207    17.402303 -0.022517053 -0.017178914 -0.0054184079 
  477000    240.24959    5907.7418     2924.207    22.147613 -0.045960218 0.0034592913  0.022403284 
  478000    270.07193    7873.1793     2924.207    28.308814  -0.01483932  0.021223682 -0.040540222 
  479000    268.03039    7534.3345     2924.207    32.380616 0.0045734361 0.00084232377  0.001993973 
  480000    259.01495    11485.954     2924.207    30.786781 -0.0065753951  0.017793512  0.011048413 
  481000    262.59532    12393.333     2924.207    24.659459  0.037955183  0.030566637 -0.0040540413 
  482000    243.07584    10859.811     2924.207    20.218033  0.013497765 -0.029000154  0.020420145 
  483000    258.03088    10026.346     2924.207    21.389787 -0.024417005  0.016279397 0.0052446979 
  484000    280.26507    12872.728     2924.207    25.604341 -0.010376384  0.030930994 -0.0058122112 
  485000    278.29589    1069.8622     2924.207    27.154283 0.0015752407 0.0027954191 0.0022309439 
  486000     263.0221    11799.399     2924.207    25.169062  0.009371069 -0.0089958057  0.029005323 
  487000    267.12524    13936.059     2924.207    23.878485  0.022978094 -0.0019600753 -0.0062076431 
  488000    246.76217    7619.1813     2924.207    27.552318 -0.013212426     0.025896 -0.027510696 
  489000    250.18242    16989.613     2924.207    31.593441 -0.013476956   0.01128369 -0.0086444613 
  490000    272.59604    3458.9585     2924.207    33.354116 -0.014125933 0.0091702743  0.030116861 
  491000    256.70663    7168.3035     2924.207    31.174482 -0.0041327912 -0.0070570923 -0.0024056746 
  492000    276.51208    11127.463     2924.207     25.91406  0.016120741 -0.016306215 -0.024909528 
  493000    264.98013    12983.422     2924.207    21.731504 -0.020094708  0.017248893 -0.024774634 
  494000    256.38062   -884.18516     2924.207    19.208646   0.01078854 0.0071242596 0.00075776967 
  495000    274.39543     15534.48     2924.207    20.568155 -0.030885292 0.0049983366 -0.0095761315 
  496000    244.97107     10210.64     2924.207    22.830187  0.010368289  0.015103645 -0.0062754514 
  497000     259.6266    11142.226     2924.207    25.902616 -0.0064301566 -0.024607929  0.009618657 
  498000    274.58989    5843.0137     2924.207    26.649306 0.0001143884 -0.025879813  0.016512175 
  499000    272.57597    10992.289     2924.207      26.6098 0.0028854626 0.0012344807  0.018271879 
  500000    247.66885    3031.7949     2924.207    27.457597 -0.028528278 -0.016618352 -0.012663288 
  501000    264.83879    7327.5018     2924.207    28.801384 -0.0080711108 -0.023666323   -0.0273452 
  502000    263.50336    11657.258     2924.207    31.032641 -0.019167569 -0.027224968  0.021876223 
  503000    253.77896    6220.1966     2924.207    32.588052 -0.011154232 -0.00094749092 0.00094113085 
  504000    252.87504    10754.884     2924.207    31.944433 -0.0026459297 -0.052116016 -0.012972977 
  505000    268.99288    15526.144     2924.207    29.765786 -0.021579165  0.011665398 0.0063306461 
  506000    256.35646    12953.868     2924.207    29.135065 -0.0047143366 -0.022230324  -0.01554024 
  507000     270.2252    4317.2709     2924.207    30.727722 -0.021686034  0.012635143 -0.0089913395 
  508000    273.81402    13823.058     2924.207    32.331326  0.027269876 -0.041136045  0.046970633 
  509000    278.92809    1265.7031     2924.207    32.201235  0.016028113  0.014320071 -0.0030807675 
  510000    272.18196    10335.151     2924.207    31.619996 -0.0067807588 0.0094570529 -0.0019474731 
  511000     266.5263    12936.957     2924.207     33.30015 0.0079023391 -0.034907184  0.019935167 
  512000    249.21525    11854.005     2924.207    34.834278 -0.033386871 -0.015330808  0.009592619 
  513000    260.53589    9052.8792     2924.207      34.6878 -0.027483228  0.018630827  0.029615111 
  514000    274.24338    9741.4991     2924.207    33.588891 -0.029859227   0.03280171 -0.019270778 
  515000    271.75972    8833.0095     2924.207    30.190331 -0.0048496222  0.022215934 -0.0019755953 
  516000    256.75151    3527.4152     2924.207    26.062561 -0.013461365 0.0048359632 0.0080621582 
  517000     268.2991    9961.6318     2924.207    24.690267     0.017325 -0.010470134 -0.032160399 
  518000    248.22152    12183.267     2924.207    26.703803   0.01052917 -0.012167856  0.029314352 
  519000    261.38567    5162.0344     2924.207    29.335215 -0.0028015626  0.016501086 0.0024827535 
  520000    261.70243    6663.4767     2924.207    32.384594 0.0059293011 -0.010235211  0.036462888 
  521000    262.41072    13557.012     2924.207    33.582114  0.014223641  0.007018043 -0.011478105 
  522000    259.34412    10144.952     2924.207    33.864836  0.059361744  0.016512785 -0.017190539 
  523000    261.07946    6570.8598     2924.207    33.368265 -0.018090536  0.040352672 -0.047324686 
  524000    250.52868    15076.057     2924.207    33.216711 0.0057808121 -0.0011281107 -0.019991789 
  525000    271.43821    7530.7703     2924.207    33.438648 -0.019041277  0.014269501 -0.029010726 
  526000    261.47136    7277.0334     2924.207    33.194001 -0.0011229725 -0.021354011  0.030796574 
  527000    263.44218    6648.7215     2924.207    31.948578 0.0078354062  0.019967508 0.0017345361 
  528000    239.68378    14007.192     2924.207    31.418152  0.032703451  0.037947403  0.040282253 
  529000    264.40511     965.6125     2924.207    31.737876 -0.011436086 -0.012977782 -0.0013721811 
  530000    273.07766    9617.3022     2924.207    32.199534  -0.02270154  0.011711402 -0.0074191077 
  531000    282.44363    13696.844     2924.207    33.078741 -0.012038103 -0.0061174374 0.00071011749 
  532000    275.60257    534.85455     2924.207    32.513327  0.018729328  0.012682509 -0.003019438 
  533000    272.30582    7720.7467     2924.207    30.948986 -0.032409702  0.022092252  0.018901004 
  534000    271.55728    13458.284     2924.207    29.648801  0.017149545 -0.020434172  0.018683076 
  535000    275.39489    10282.372     2924.207    27.600593 -0.023065357 -0.031770461 -0.030618505 
  536000    268.43523    2520.3165     2924.207    27.655435 0.0087587226 0.0034289895 0.0067859885 
  537000    273.43823    11602.681     2924.207    28.462334 -0.031362006 0.0077586732 -0.014888153 
  538000    270.67597    5237.8704     2924.207    31.037172 -0.0061330526 -0.0069537045 -0.030302521 
  539000    269.68844     9889.178     2924.207    31.551338 -0.021284688 -0.0032592964  0.037848705 
  540000    268.66501    8827.1417     2924.207     30.84958  0.029396158  0.020667887 -0.015468991 
  541000    260.35957    7639.2109     2924.207    29.005004  0.023289317 -0.024134701  0.027792594 
  542000    270.81635    10921.859     2924.207    26.670371  0.029302151 -0.010849977 -0.012885044 
  543000    254.09739    7706.1935     2924.207    25.935284  0.035679923 -0.017640856 -0.0036929259 
  544000    273.77843    9071.9639     2924.207    24.362621 0.0011197722  0.016149981 -0.0054452491 
  545000    267.81369    5384.4689     2924.207    22.377486  0.020053182  0.024947559 -0.035434548 
  546000    268.36913    2349.2748     2924.207    22.726269 -0.0056803693 -0.0049017023 -0.0020573734 
  547000    256.65344    15927.937     2924.207    23.392498  0.011668113 -0.0044536613 0.0023848503 
  548000    266.90768     1363.007     2924.207    26.471836  -0.04027176 0.0037930644 -0.021694246 
  549000    267.17972    5183.1488     2924.207     31.04233  0.012760993  0.016938071 -0.0024559948 
  550000    279.09412    10265.213     2924.207    32.359723 -0.026719274 -0.035868328 0.0055034116 
  551000    262.17066    10524.217     2924.207    29.842159  0.014737075  0.013956062 -0.0090434599 
  552000    264.80156     8324.223     2924.207    27.472544 -0.011122761 -0.034930482 -0.00018943698 
  553000    260.99841    10606.137     2924.207    25.618794 0.0081004385  0.017570524  0.016957124 
  554000    266.80882     4081.373     2924.207    24.862976  0.012760322  0.027621061 0.0015962249 
  555000    266.27533    13016.509     2924.207    27.927785  0.024293034 -0.031261716 -0.015273421 
  556000    270.22406    10143.182     2924.207    31.052034  -0.01156039   0.01664555  0.029594446 
  557000    262.37885    5680.2821     2924.207    32.221833   0.02501763 -0.012733293  0.010733328 
  558000    260.13937    10138.907     2924.207    28.907874  0.028702393  0.034201388  0.016634383 
  559000    257.46796    1979.8256     2924.207     22.68774  0.010575812  0.010742309 -0.019832353 
  560000    268.03433    16154.806     2924.207    18.368596  0.044709115 0.0029415501 -0.0084474074 
  561000    278.64138    6133.2822     2924.207    16.943576  0.052807519 -0.026743015 -0.0093146484 
  562000    250.23022    5762.8998     2924.207    18.665476  0.026965221  0.022097557 0.0096850416 
  563000    260.41659    13422.657     2924.207    22.714884 -0.0081422335 0.0050013746 -0.0075532295 
  564000    269.17051    6279.2778     2924.207    25.569101 -0.0094396012  0.025235702 -0.0070976838 
  565000    261.62106    7995.7907     2924.207    26.247119  0.015355692 0.0025340912  0.010628545 
  566000     259.3592    9365.3665     2924.207    24.833698 -0.041861315   0.02574104 -0.013914287 
  567000    261.19621     8415.692     2924.207    23.309576  0.016520263   0.00856748  0.026192313 
  568000     253.6774      8820.22     2924.207    22.098481 -0.027230254  0.026137336  0.029110146 
  569000    257.07012    4369.2262     2924.207    21.276552 -0.0057394479  0.021639596  0.019404607 
  570000    260.24652    6955.6921     2924.207    26.290988 0.0051676888  0.011501454  0.032579578 
  571000    271.88438    7627.6132     2924.207    30.269016 -0.011273291 -0.018595759  0.012957399 
  572000    255.98079    6075.3723     2924.207    29.598057  0.012433208 -0.0026342997 -0.0076380873 
  573000    252.37478    1580.1327     2924.207    25.759745  0.015070053 0.0064681056 -0.016869478 
  574000    255.83873    15805.477     2924.207    21.143873  0.049997427  0.021992855  0.011075522 
  575000    256.60691     8981.845     2924.207    18.814471  0.018394861 -0.008704542 -0.010617731 
  576000    269.96697    4157.1097     2924.207    19.086354  0.012545123  0.018231587 -0.0089345928 
  577000    266.56459   -166.97661     2924.207    21.700257 -0.013644913 0.0079350578  0.005796765 
  578000    274.94968    14812.987     2924.207    23.889992 -0.039203869 -0.0011583165 -0.034730599 
  579000    261.88468    8883.5423     2924.207    25.267017 -0.0076907855 -0.015689163  0.021299673 
  580000       261.81    4705.6955     2924.207     23.97979  0.015724568 -0.042582856 -0.009074675 
  581000    270.88027    8137.6927     2924.207    23.657914 -0.019039478 -0.015864621  0.039792247 
  582000    267.89685    10432.044     2924.207    25.165353 0.0028968565   0.01301172 0.0020736035 
  583000    273.38293    9035.4396     2924.207    28.753956 -0.0014856968 -0.018735946 -0.0028269091 
  584000    263.28387    6990.7399     2924.207    31.127767 -0.0034431124 -0.0061951419 -0.0042266416 
  585000    270.57501    11789.742     2924.207    28.810546 -0.032622727 -0.034505647 -0.028498915 
  586000    263.50054    9078.8858     2924.207    23.715553 -0.0074634653 -0.016674209 -0.016669523 
  587000    251.45938    237.51038     2924.207    21.505906  0.024963869  0.015677311 0.0056712967 
  588000    277.66136    20066.728     2924.207    25.567859   0.02427914 -0.013137891 -0.0044194679 
  589000    262.48713     534.8136     2924.207    31.472968  0.010399949 -0.010226216 -0.00066504043 
  590000    264.97194    548.09388     2924.207     34.43404 -0.011044049 -0.038769293 -0.004862801 
  591000     274.1058    17036.117     2924.207    33.731036  0.015253257  0.012069612  0.020265835 
  592000    258.73745    10282.829     2924.207    31.006052 0.0098748083 -0.017240353 -0.023951229 
  593000    266.58552    4708.8654     2924.207    26.885931 -0.045252898 -0.00096981738 -0.030268909 
  594000    259.41384    7779.0751     2924.207    24.421267 0.0074656798  -0.01264612 -0.029560062 
  595000    267.38781    6691.0332     2924.207    26.145214  0.050730537  0.021003973 -0.0017249157 
  596000     274.7434     11423.63     2924.207    27.807311  0.030272827  0.028795466  0.013634555 
  597000    283.76269    8717.2442     2924.207    27.108722  0.009727546 -0.019550436  0.046616779 
  598000    262.09278     7480.189     2924.207    24.282646 -0.014310923 -0.030299544 -0.0087264532 
  599000    269.02983    1015.3229     2924.207    23.483052 -0.0055748081 0.0084169528 -0.014561244 
  600000    269.00086    13065.793     2924.207    24.527527 -0.038171699 0.0064789647  0.033529648 
  601000    269.32645    3498.3464     2924.207    26.961512 -0.035104223 -0.017735875  0.011276264 
  602000    274.51836    1137.2571     2924.207    28.367655 0.0067151191 -0.0015914835 0.0085427829 
  603000      266.885    14076.662     2924.207    27.703299 -0.029132218 -0.014498351 -0.0033420578 
  604000    268.93971    5346.2442     2924.207    28.696412 -0.0027632563 -0.023224382  0.011330236 
  605000    263.12014    4742.7563     2924.207    31.081447 -0.0050274968 -0.00031842495 -0.011423802 
  606000    267.53042    11816.643     2924.207    32.383174 0.0043675619 -0.021791341  0.009327863 
  607000    269.77653    10179.361     2924.207    30.998116 -0.019551947 0.0090287958 -0.0033654447 
  608000    250.98679   -1470.8108     2924.207    28.611716  0.029627991  0.020168536 -0.025732212 
  609000    260.14865    12433.847     2924.207    27.389359  0.014350021  0.021333401 -0.0021605517 
  610000    247.82559    8779.8216     2924.207    27.628434  0.011721473 -0.0034194906 -0.016683547 
  611000    288.16518    6864.3168     2924.207    29.252473 -0.016952027 0.0080156653 -0.0040742524 
  612000    262.20177    7965.0794     2924.207     32.12416 -0.0069788577 -0.010319583 -0.046483708 
  613000    253.42337    6621.4512     2924.207    32.677963  0.009559197  0.012256872  0.015877193 
  614000    235.94168    8550.9911     2924.207     31.72057  0.011356468 0.0090271921  0.012754229 
  615000    268.11693    8350.5044     2924.207     28.45912 -0.022520272 -0.032552109 0.0039740657 
  616000    272.71783    10208.431     2924.207    26.586806  0.013926826 -0.025138745  0.029092012 
  617000    248.52246    3989.3987     2924.207    29.138125  0.022281889 -0.035685947  0.028655861 
  618000    263.68866     8859.256     2924.207    32.569095  0.027487214   0.01506526  0.059249859 
  619000    258.22846    7928.8118     2924.207    33.373537  0.008405802  0.012376226 0.0075157723 
  620000    254.23699     5690.903     2924.207    32.092668  0.022274848  0.024200703  0.020901163 
  621000    251.40733    9478.6219     2924.207     26.90139 0.0093500829  0.016411143 -0.0083649425 
  622000    272.33691    10393.243     2924.207    24.307633  -0.01397371 -0.012746718 0.0056054081 
  623000    267.38373    5805.7248     2924.207    26.641667 -0.024854066  0.021743128 0.0014557951 
  624000    246.97738    11293.576     2924.207    30.328878 -0.027140507  0.013042612  0.014961339 
  625000    262.42993    8039.5474     2924.207    33.385428  0.012455733 -0.030826507 0.0009867056 
  626000    270.02156    6693.7232     2924.207     33.27335 0.0028880723 -0.036237797 0.0043277188 
  627000    241.01903    7769.9883     2924.207    32.226956 -0.019494176 -0.008114765 -0.041225777 
  628000    253.15345    12950.505     2924.207    32.938084  0.011421569    -0.018412 -0.030467657 
  629000    251.31628     9377.837     2924.207    32.700186  0.032712616 0.0092197671  0.018707051 
  630000    253.81259    2015.8494     2924.207    30.050836  0.022420909 -0.023858847  0.018715904 
  631000    261.57394    18245.307     2924.207    25.186642 0.0067788684 -0.042294705  0.010777552 
  632000     255.5242    5245.7888     2924.207    23.462349  0.014357153 0.0095723177  -0.02455561 
  633000    275.82494    8674.0122     2924.207    23.392729  0.013766563 -0.0017580789 -0.0016023653 
  634000    251.83542    11472.345     2924.207    25.160195 0.0035443153 -0.0037229081  0.025255664 
  635000    265.13381    5941.9285     2924.207    26.462245 -0.037340537  0.011120887  0.017254332 
  636000    276.16397    4956.5201     2924.207    26.560925 -0.011172151  0.034658332 -0.020608828 
  637000    265.66616    5806.6003     2924.207    26.523167  0.026301174 -0.009379618 -0.022930648 
  638000    251.44935    12291.739     2924.207    26.531041 -0.0038764392 0.0058816139 -0.0023810277 
  639000    268.27704    4642.7959     2924.207    26.029899  0.024467127  0.012072152 -0.024612637 
  640000     261.8287    7673.6439     2924.207    25.858543  0.022203402 -0.019751096  0.016648674 
  641000    266.19986    17345.818     2924.207    26.915627  0.039858195  0.025107449 -0.048016459 
  642000    264.96966    8872.4851     2924.207    28.671951 -0.012475249 -0.010363857  0.016603935 
  643000    259.29275   -589.39494     2924.207    30.404178 0.0012892548 0.0089375826 -0.046365124 
  644000    262.88668    14352.773     2924.207    29.410751 -0.0013583738 -0.0088034369 -0.020835763 
  645000    258.95011     8698.946     2924.207    25.559898 -0.040408541  0.017960764  0.014889034 
  646000    246.83295     1593.343     2924.207    23.935338 0.0057618268 0.0019679422 -0.013245502 
  647000    264.55081     8747.088     2924.207    25.117346 0.0082869543  0.005629153 -0.0029805454 
  648000    257.43729    15873.172     2924.207     29.17972  0.025208465 0.00077306143  0.011802727 
  649000    263.25392    435.77129     2924.207    32.631474  0.019944894 0.0031116639  0.022576018 
  650000    250.71848    6903.3073     2924.207    34.051062 -0.014647606 -0.051282589  0.035335478 
  651000    263.84856    8871.4727     2924.207    34.653065  0.007594868  0.030376999 -0.0089707901 
  652000    277.12477    12778.241     2924.207    34.231674  0.033528876  0.018171059  0.022900365 
  653000    253.55641    1673.7877     2924.207    33.559361 0.0054408828 0.00067385575 0.0079648005 
  654000    247.93768    17333.351     2924.207    33.495612 0.0005975594  0.034378934  -0.03902928 
  655000    258.41094    4684.8942     2924.207    33.779672 -0.022927603 -0.0086533834 -0.0042682651 
  656000    259.62613    13117.622     2924.207    34.399061  0.010629534 -0.018642063 -0.0043777938 
  657000    258.17251    7885.1288     2924.207    33.699253   -0.0020496 -0.039364883 -0.019709811 
  658000    258.57189    7038.9316     2924.207    31.949282  0.014672588 -0.011141989  0.021873342 
  659000    260.68207     4811.115     2924.207    30.119112 -0.011030184  0.069049996 -0.015823988 
  660000    276.19723    13381.823     2924.207    28.613136  0.016092741  0.021621625 -0.022729323 
  661000    265.16846    6438.4273     2924.207    25.298292 -0.017368533 -0.026183929 0.0022657642 
  662000    272.38338   -409.00191     2924.207    21.202327  0.032604458  0.026204407 0.0029269512 
  663000    263.59364    12843.006     2924.207    18.872511  0.037343863 0.0036580328 -0.017636721 
  664000    256.71285    11110.562     2924.207    20.804211  0.030010139  0.032673746  0.007010095 
  665000    268.71061    -1292.531     2924.207    24.501887  0.023112656  0.015209732 -0.023760274 
  666000    274.92147    16330.463     2924.207    25.821799  0.027683753 0.0059938727 -0.00039789969 
  667000    257.86949    3824.8564     2924.207    25.386818 0.0046464838 -0.0024152584  0.014971287 
  668000    274.81726     16651.88     2924.207    25.079574 0.0027098678  0.010793873 -0.016102679 
  669000    265.94358    1790.2066     2924.207     25.60691 -0.019844014   0.03602687 0.0073878761 
  670000    273.20329    431.66263     2924.207    27.584384 -0.016003248 -0.020620177 0.0065275526 
  671000    255.53266    11902.791     2924.207    30.574045 -0.026899407 -0.024780382 -0.016699881 
  672000    280.05897    6044.8658     2924.207    32.442147  0.002098924 -0.0013474703 -0.018388963 
  673000    255.24004    11560.087     2924.207    33.512325 -0.002897524 -0.0075787514  0.036832295 
  674000    250.53935    7524.5526     2924.207    33.323059  0.018006039 -0.037639201  0.016622591 
  675000    269.29953    5373.3789     2924.207    32.332104  0.017803069  0.043235074 -0.017716425 
  676000    256.36295    8710.8363     2924.207    31.341445  -0.01708748 -0.025423511 -0.0019334415 
  677000     258.2991     9697.876     2924.207    29.676621  0.012357773 -0.029071992 -0.00063913279 
  678000    245.55449    4569.0376     2924.207    26.677887 -0.00046849597 -0.020676619 -8.0679064e-05 
  679000     254.0219    9667.5975     2924.207    25.605076 -0.0027006331 -0.0054062156 -0.028670967 
  680000    249.86244     12445.28     2924.207    25.826881 -0.021864493 -0.027314725  0.009597662 
  681000    272.03297    3055.8955     2924.207    25.126994 -0.057872381  0.010342256  0.012877653 
  682000    264.97913    3829.4756     2924.207    24.418893 -0.031071446  0.027818487 0.0030221873 
  683000    258.12524    10542.236     2924.207    24.851151  0.010291817 -0.038574572 -0.018240835 
  684000    271.44079    5439.0842     2924.207    27.885757 -0.0033222689 -0.015665765 0.0050856355 
  685000    256.15923    3198.3772     2924.207     30.56085   0.04907873 -0.0011466024 0.0012012494 
  686000    266.93372    11438.082     2924.207    32.031582  0.022062634  0.015227716 -0.024372735 
  687000    264.69963    5816.8103     2924.207    33.824645  0.017971158 0.0097206164 0.0024356771 
  688000     266.9582    6404.8954     2924.207    35.456103 -0.017612186 -0.013456821 0.0069859789 
  689000    259.82294     8682.032     2924.207    35.369645   0.03989667  0.021371715 -0.017170852 
  690000    265.46463    8134.0738     2924.207    33.261167 0.0043228161   0.02851872 -0.007959484 
  691000     254.4245   -1523.2924     2924.207    31.887598  0.013802569 -0.028467225 -0.018750163 
  692000    265.24733    12903.509     2924.207    31.903867 0.0051485969 -0.0046910348  -0.01501801 
  693000    260.01503    10556.018     2924.207    32.823233 -0.017064627 0.0055532949 -0.0030115127 
  694000    279.05914    5680.4083     2924.207    33.727416 0.0058676964  0.062523642  0.028334489 
  695000    279.87808     4102.376     2924.207    34.486293 -0.032300751  0.020481014 -0.0025429013 
  696000    269.80855    12306.035     2924.207    32.116121  0.032892386 0.0062820541 -0.024768756 
  697000    252.51258    4483.3848     2924.207    28.058981  0.012946801  -0.01483227 -0.0097277531 
  698000    264.75339     1260.115     2924.207    22.665567 -0.014009849  0.016455396 -0.021699682 
  699000    259.81701    11522.183     2924.207    22.036748 0.0042250462 0.0044024134 -0.0027577935 
  700000     263.6302    13608.567     2924.207    24.605278  0.011956609  0.005831865 -0.036816237 
  701000    253.01031    4277.3185     2924.207    27.591109  0.034424518  0.010129636 -0.0052382289 
  702000    265.67594    3144.3309     2924.207     27.44321  0.005859336   0.05336608 0.0054296638 
  703000     266.4019    11565.964     2924.207    27.371463 -0.022056834  0.016691295 0.0056155667 
  704000    277.55735    10889.137     2924.207    30.999282 -0.026896407  0.008386414 0.00018238403 
  705000     258.2828   -2299.9253     2924.207    33.981077 0.0037008036  0.009774304  0.029243798 
  706000    261.51375    4452.0762     2924.207    32.910574  0.014532809 -0.0056081814  0.041284163 
  707000    275.47381    9651.1625     2924.207    31.083316 0.0040525281 -0.0087002541 -0.0065479707 
  708000    284.89557    5434.5178     2924.207    28.215601 -0.010958805   0.03065681 0.0014206854 
  709000    262.10537    3702.2057     2924.207    26.017057 -0.015758561  0.012339194  0.031737763 
  710000    269.84224    12266.452     2924.207    24.972153  0.012948669 0.0058281941 -0.00074329277 
  711000     271.8916    6068.3763     2924.207    26.848777   0.01725714 -0.0061335936 -0.012644942 
  712000    264.64844    2625.7037     2924.207    27.965759 -0.0023772775 -0.020195577 -0.022388156 
  713000    258.33483    6339.7321     2924.207    27.726734 -0.017248651  0.033156465 -0.010762089 
  714000    261.62975    10689.226     2924.207    27.740966 0.00082564889  0.023844069 -0.012302348 
  715000    252.82941    7643.2376     2924.207    27.282091 -0.032560275 -0.024888638 -0.054104495 
  716000    267.30558     5289.655     2924.207    27.919183 0.00023103427 0.0096306487   -0.0179265 
  717000    263.56611    8652.7098     2924.207    28.190266  -0.00868134 -0.018687259 -0.0083055652 
  718000    254.17659    9150.4292     2924.207    29.226895 -0.005321684 -0.0089720222  0.027826133 
  719000    260.73353    1171.3061     2924.207    30.560715 -0.012067979  0.036144545  0.016760263 
  720000    266.84405    5098.6844     2924.207    30.110304  0.023176384 -0.011719344 -0.010076057 
  721000    266.93096    11018.705     2924.207    28.490535 0.0085994228 0.00099900676  0.028194544 
  722000    250.64333    4959.2299     2924.207    27.366807  0.014121878 0.0082282466 -0.00045116238 
  723000     268.9409     -196.376     2924.207    25.949738 0.0066360195 0.00043794933 -0.010758785 
  724000    259.95743    18198.862     2924.207    25.428271  -0.01553703  0.034756671 -0.015829107 
  725000    235.44706     9032.407     2924.207    27.256303 -0.013977867 -0.0020977385 -0.019408486 
  726000    263.38268     3311.844     2924.207    28.960567 -0.015150263 -0.033144021 0.0014531629 
  727000    274.54338    12827.075     2924.207    29.305045 -0.017541661   0.01706968 0.0058765567 
  728000    249.61618     9138.543     2924.207    26.874902 -0.015846111  0.022131288 -0.018877807 
  729000     285.2279    3542.5778     2924.207    25.151047  0.030505074 -0.022934544  0.010690531 
  730000    267.23755    6577.8401     2924.207    23.287586  0.019781958 -0.010740076  -0.02842288 
  731000    272.37701    3573.3037     2924.207    22.065831 -0.0034885955  0.026932422  0.033094048 
  732000    264.34926    8401.9999     2924.207    22.058117  0.025291139 0.0015727123  0.018769918 
  733000    258.46058    19296.924     2924.207    23.862138 -0.0056200342  0.011647196  0.011953496 
  734000    275.74127    385.20256     2924.207    25.075445   0.02826371 -0.017728863 -0.0078241895 
  735000    267.80863    5915.8042     2924.207    23.838327 -0.035191427 -0.029424575 -0.001719647 
  736000    252.99977    10875.248     2924.207    21.637339  0.026185814 -0.017828992 0.00090883084 
  737000    260.62833    6283.4714     2924.207    20.049158 7.3345132e-05 -0.0054806508 -0.0043999875 
  738000    259.63696     3829.982     2924.207    21.703991 0.0092347109 -0.020519907  0.019094176 
  739000     261.4899     11665.52     2924.207    22.773977  0.011984064 -0.002004889 -0.0055403059 
  740000    268.33508    13099.041     2924.207    24.927057 -0.010575992 -0.042798211 0.0031506844 
  741000    265.02062    4983.9645     2924.207    27.552962 0.0075561879 -0.018280409  -0.02473489 
  742000    260.59538    8422.1142     2924.207    28.756773 -0.014497382 -0.011402171 -0.004063939 
  743000     266.8379    6306.4611     2924.207    29.439536 -0.0074338346 0.0068305092 -0.010673655 
  744000    264.70156    2372.1844     2924.207    29.816982 -0.018158026 -0.012099594  0.012933214 
  745000    268.62219    6569.8156     2924.207    29.481325 -0.0092861901 -0.022405411  0.015273673 
  746000    253.14368    7282.4595     2924.207    28.615388 -0.033824255 -0.015051278 -0.032928606 
  747000    245.07076    12659.793     2924.207    29.156489 -0.00017647018 -0.017685457  0.041842916 
  748000    262.95419    9390.3683     2924.207    27.849436 -0.023180757 -0.033074482  0.029599344 
  749000    265.65991    7921.0837     2924.207    25.642979  0.041374591  0.020765001 0.0035216796 
  750000    261.45712     8419.448     2924.207    25.275154 -0.021702505 -0.017675063 0.0012726178 
  751000    267.51715    9402.9734     2924.207    25.580733 0.0027291106 0.0052648853  0.022226409 
  752000    260.60983     11487.73     2924.207    26.483632 -0.022269079 -0.0019030016 0.0026263027 
  753000    262.01715    1457.0198     2924.207     27.82474  0.020166262 0.0094175252  -0.05154832 
  754000    269.03441    7244.3285     2924.207    27.464905 0.00014465189  0.042993717 -0.0026246895 
  755000    255.49073    10462.927     2924.207    26.679623  0.016453559  0.017471025 -0.012898304 
  756000    285.31591    8210.9039     2924.207    28.504963 -0.035283085  0.010690826 -0.029738949 
  757000    255.17835     8921.494     2924.207    30.017327  0.010938298 -0.028400735 -0.020939728 
  758000    266.99614    5137.0541     2924.207    28.166715  0.052427399 -0.020583992 -0.0092358645 
  759000    277.22653    11204.998     2924.207    24.223963  0.028203652  -0.02155692 -0.021727926 
  760000    255.81233    11216.017     2924.207    23.057779 -0.0099242996  0.022872427 -0.010864449 
  761000    255.74029    5158.7498     2924.207    23.514491 0.0022015886  0.010169712  0.027122365 
  762000    262.00635    6109.3483     2924.207      22.2029 -0.013850215  0.028900816  0.020861542 
  763000    238.99534    13447.583     2924.207    20.835664 0.00035191497  0.020630881  0.027552701 
  764000     246.6982    7288.7399     2924.207    24.793282 -0.011554475 -0.015721077 -0.0079231968 
  765000    260.51225    5415.9456     2924.207    28.187106  0.021706291  0.011879351 -0.013756929 
  766000     274.5499    10255.749     2924.207    28.552271 0.0085117961 -0.012049183 -0.00049644671 
  767000    262.29663    10814.786     2924.207    26.047659 -0.018369394  0.010127407 -0.027647946 
  768000    254.53309    2966.3459     2924.207    22.371874  0.029357721 0.00032639436 -0.022970221 
  769000     262.4764    12474.149     2924.207    19.117754 -0.0036124464  0.035273107  0.010544692 
  770000    250.81987    3300.7668     2924.207     16.67197 0.00016457036 -0.0019956429 -0.0063424919 
  771000    251.81488    17634.259     2924.207    17.332177  0.020863495  0.015624308 -0.011864596 
  772000     267.6018     7339.031     2924.207    20.818671 8.1073069e-05 0.0027971444   0.01052416 
  773000    253.86583   -1554.8816     2924.207    25.265255  0.016592023  0.016000199 -0.0017847805 
  774000    243.56426    14705.922     2924.207     28.04624 -0.013757817  -0.04366378 -0.037241134 
  775000    245.39358    8943.8657     2924.207    27.281592  0.025442294 -0.0014713043 -0.044229472 
  776000    250.18341    7779.6175     2924.207    25.875772 -0.0019867779 0.0014573169 -0.0026452312 
  777000    248.23558    4380.4676     2924.207    25.301301  -0.01112572 0.0021530664  0.017658341 
  778000    258.63044     9331.889     2924.207    24.445878 -0.0024999381 -0.0096445976  0.010466375 
  779000    281.72139     8738.002     2924.207    24.429297  0.030829175  0.017839852  -0.01322307 
  780000    264.24416     1259.515     2924.207    24.406108 -0.021573168 0.00046522955  0.010497348 
  781000    267.37157    9294.2006     2924.207    24.913463   0.01064945  0.020002976 -0.00052877275 
  782000    261.64182    14488.253     2924.207    25.456173  -0.03151694 -0.010814538 -0.00048614654 
  783000    272.53728   -377.92122     2924.207     26.72877 -0.018229986 -0.037421114  0.012081712 
  784000    270.90808    12234.574     2924.207     28.53163 -0.018741027 -0.018029282 -0.0013347027 
  785000    279.58735    6933.5108     2924.207    29.652392 -0.0084430682 -0.019842446  0.018632438 
  786000     259.0458    8905.3847     2924.207    30.007329 -0.010412126 -0.028162181  0.017882159 
  787000    250.89028    14654.183     2924.207    30.135442 -0.004928973 -0.019188295  0.017375509 
  788000     256.7798   -586.35853     2924.207    29.580537 -0.022528324 -0.0063791315  0.033533171 
  789000    237.86878    11522.345     2924.207    27.793407  -0.01945498  0.055504675  0.032105656 
  790000    258.61809    20215.442     2924.207    26.782672 -0.025827109 -0.005811244  0.001330264 
  791000    259.89389    1114.8628     2924.207    25.345365 -0.024539296 0.0010449587  0.030255749 
  792000    240.29037    5531.3716     2924.207    25.035215 0.0098340513 -0.0033271034 -0.010971053 
  793000    260.87177    13287.102     2924.207    24.500706 -0.026906712   -0.0278367  0.020405991 
  794000    276.33117    4266.8745     2924.207    21.727996  0.042478615 -0.012338485  0.015247494 
  795000    253.70073    7862.9801     2924.207    18.554596 0.0033174524 0.0079272894 0.0094612443 
  796000    261.51429    5289.5773     2924.207    19.317892  -0.02145711  0.025550461 -0.007808836 
  797000    261.71018    11620.112     2924.207    22.334129 -0.019241061 -0.046736741 -0.0019357135 
  798000    255.34149    9771.4884     2924.207    24.611155 -0.0011068257 -0.0018315638 -0.012742568 
  799000    251.28975     12783.78     2924.207    24.656832 0.0058264812 -0.0011668962 -0.011966563 
  800000    262.36812    10464.256     2924.207    24.061938  0.016946762  0.033943258 -0.00066336876 
  801000    256.58645    9546.9936     2924.207    23.717895 -0.016038802 -0.0062545886 -0.013825134 
  802000    273.59024    4323.4383     2924.207    23.608732 -0.031762855  -0.01003126  0.028692868 
  803000    249.23045    7997.1665     2924.207    23.950076 -0.0060331207 -0.017877249 0.0011865876 
  804000    267.46148    8511.0281     2924.207    25.312631  0.027476211  0.013774467  0.014111625 
  805000    272.17451    5802.0433     2924.207    28.003261 -0.0094878923 -0.010311153 -0.0043698037 
  806000    246.46365    6803.9773     2924.207    30.836708 -0.010342105  0.019850979  0.015361563 
  807000    246.99489     10679.32     2924.207     31.51007  0.010645193 0.00040302308 -0.025411214 
  808000    259.40876    12212.961     2924.207    28.912634  0.014614791  0.024911432  0.033194128 
  809000    251.14129    8240.9233     2924.207    25.138811 -0.00066990377  0.036128648 -0.028322175 
  810000    253.33541    2510.2105     2924.207    23.867465 -0.013064995 0.0012046512 -0.0078254424 
  811000    290.76812     5930.087     2924.207    22.923452 0.00081468378 -0.0091397963 -3.0596938e-05 
  812000    264.74381    14841.953     2924.207    21.584848 -0.041482569 0.0062888248 0.0074718533 
  813000    263.30633    2828.5126     2924.207    22.443501 -0.027408652  0.007824792  0.052810739 
  814000    261.11697    6694.9724     2924.207    24.558555  -0.01573753 -0.019813934  0.026811153 
  815000    262.10182    8331.2373     2924.207    24.381192 -0.014218938 -0.0010882527 -0.0061467385 
  816000    264.63759    3628.6029     2924.207    23.032894  -0.02008434  0.036803584 -0.033135095 
  817000    264.83008    8601.5432     2924.207    22.587989 -0.018145153 0.0042017479 -0.0043351556 
  818000    279.40912    8658.1955     2924.207    24.714085   0.01849297 -0.014022754 -0.013098802 
  819000    256.81772    6259.1763     2924.207    29.017105 0.0022928143 -0.011284356  0.037406509 
  820000     256.7467    11079.598     2924.207    33.960654 -0.013556021 0.0084430151 0.0035285691 
  821000    264.69012    10332.713     2924.207    35.548433   0.02206589 -0.0088127092 0.0024808847 
  822000    260.43691    5159.4556     2924.207    34.362758  0.019513011 -0.0051964781 0.0089583423 
  823000    263.10886     5628.185     2924.207    31.761073 -0.024429003 -0.048720868 -0.0054957901 
  824000    269.83501    6078.7824     2924.207    28.846459 -0.0086495976 -0.0030371781 -0.014490055 
  825000    267.55228    6359.4143     2924.207    28.205897 0.0049893803 0.0040660233 -0.021770314 
  826000    267.76476    9483.8619     2924.207    29.300804 -0.039132885 0.0013434853   0.01691435 
  827000    264.86526    12614.081     2924.207    30.932639 -0.0060754346 -0.0047082894 0.0049653073 
  828000    274.76329    4658.8001     2924.207    33.136496  0.020841054 -0.00031945947  0.016557187 
  829000     258.8498    14594.204     2924.207     33.48269 0.0033630828 -0.0072173052 -0.0038251163 
  830000    270.24168    898.59859     2924.207    32.287078  0.026245722 -0.0037634006  0.019540091 
  831000     271.6027    3948.2126     2924.207    29.981344  0.020053776 -0.0080874698  0.012825648 
  832000    266.46834    13265.312     2924.207    28.655119  0.012265509   0.02251594 0.00012198398 
  833000    267.01156    2723.2959     2924.207    27.870548  0.010431327  0.011885029 -0.013713153 
  834000     268.8124    8203.7871     2924.207    28.905572 -0.001702666 0.00049612624  0.017624808 
  835000    270.63191    -356.8342     2924.207    30.932469 -0.020225998 -0.002302293  0.015694943 
  836000    256.86435    11645.732     2924.207     32.70996 -0.0042274283 -0.001523901  0.024891626 
  837000    272.50315    6466.6575     2924.207    32.993859 0.0048741081 -0.016905823  0.015747209 
  838000    261.59693     7809.314     2924.207    30.197601  0.027282533 -0.0090275469 -0.0042267049 
  839000    277.25828    12741.999     2924.207    27.336712 -0.00028093847  0.013419766 0.0097206776 
  840000    267.73677    9534.4875     2924.207    26.841788 -0.017221977 0.0024969042 -0.028376016 
  841000    244.39728    3293.7233     2924.207    28.408192  0.010872808 0.0047136953 -0.010784162 
  842000    264.15685    9019.3314     2924.207    31.171521 0.0099349928 -0.028155325 -0.013841791 
  843000    246.91036     2098.495     2924.207    34.250643 0.0086747364 -0.010604002 -0.029021232 
  844000    257.27707    8874.6744     2924.207    35.387837  0.044801526  -0.01361401 -0.014772382 
  845000     249.5595    747.86642     2924.207    34.516986  0.009827713 -0.0098311396 0.0025569189 
  846000    271.57486      9889.02     2924.207    31.998369 0.0049712116  0.038631092 0.00073381797 
  847000    269.55811    12885.553     2924.207    30.274673 -0.036109102 -0.010096689 0.0043419207 
  848000     260.0534    7972.9433     2924.207     30.22938 -0.027577966 -0.0032318224  0.010495959 
  849000    258.75186     350.0549     2924.207    32.392692  0.004764001 0.0088151545  0.022496752 
  850000    265.56405    8197.1023     2924.207    33.580676  -0.01914017 0.0013491138 -0.023733709 
  851000     246.9687    1741.4839     2924.207    34.306596   0.03365478 -0.020848866  0.023482559 
  852000    258.88746    6294.4793     2924.207    33.189584 0.0014462862 -0.012882209 -0.0076190623 
  853000    245.68788    18168.765     2924.207    30.582207 -0.015433836 0.0062471686 -0.026591644 
  854000    257.82883   -5825.2457     2924.207    29.348535 0.0013153763 -0.018853284  0.009309143 
  855000    255.93095     9437.962     2924.207    28.554385  -0.01941256 -0.018261007  0.036393388 
  856000    263.98314    7311.5061     2924.207    30.279806 -0.040066387 -0.017996982  0.041716131 
  857000    248.06294    7094.6496     2924.207    33.046644 0.0092180388  0.048555677 0.0046741387 
  858000    255.50247    6243.1823     2924.207    34.203556 -0.015378626  0.017549521 0.0064994264 
  859000    267.31835    7806.7173     2924.207    31.533197 -0.022779114 -0.00033306022 0.0096489179 
  860000    268.79537    12804.011     2924.207    26.680129 -0.031717538 -0.039116755 -0.027886331 
  861000    279.47404     11302.86     2924.207    25.012495  0.013595812 -0.036810682  -0.02360563 
  862000    261.34814    1249.0613     2924.207    27.178884 -0.040124804 -0.015916321 0.0053223776 
  863000     270.3642    9579.9656     2924.207    30.283325 -0.0099005465  0.018574337 0.0062228489 
  864000     250.9336     12676.13     2924.207     32.73331 -0.0016315918 -0.0078755419  -0.01450994 
  865000    267.85488    6553.8553     2924.207    32.907545 -0.0018953452  0.015089351  -0.03293383 
  866000    262.91859     741.2472     2924.207    30.225888  0.013373985  0.020312422 -0.0064196099 
  867000    256.96061     9173.716     2924.207    24.782521  -0.02738513 0.0075758229 -0.036319724 
  868000    263.76401    6479.6084     2924.207    21.140172 8.5998911e-05 0.0028667685 -0.018597177 
  869000    245.41836   -586.64102     2924.207    20.257925 -0.015743104  0.021295633 -0.025215234 
  870000    263.07024    10440.076     2924.207    20.693492 -0.022428872 0.0066827053  0.039170539 
  871000    255.67216    1959.9894     2924.207    24.688606 -0.011004164   0.00552925 0.0056064826 
  872000    274.64754    10920.069     2924.207    29.845146  0.023458395 -0.011593875 -0.0040897111 
  873000      257.229    8561.7194     2924.207    32.500158  0.045018846 -0.021175609  0.014139772 
  874000     267.4673    5804.4106     2924.207    30.435843 0.00084913131  0.003062333  0.021756589 
  875000    246.31839    4343.0995     2924.207    23.240647  0.035061476  0.027257268 0.0041787953 
  876000    262.71514     9248.913     2924.207    17.667897 -0.0066292556 -0.0091675594 -0.014674683 
  877000    249.17652    9084.0445     2924.207    15.748662 -0.030029073 -0.0098892591 -0.0011697642 
  878000    256.02574    8014.3334     2924.207    17.378639 -0.019329442 -0.0020909619 0.0085501901 
  879000    241.73919    6102.2868     2924.207    21.405383  0.038379905 -0.0023398571 -0.028466937 
  880000    263.88951    8445.8733     2924.207    23.535162   0.01402121 -0.018131956 -0.00021965411 
  881000    257.67061    3547.6494     2924.207    24.760008 0.0056509961 -0.011081939  0.019901578 
  882000     258.5108     8744.463     2924.207    24.411998   0.01052557 -0.025220049  0.019227345 
  883000     253.8992    8425.2491     2924.207    21.163483  0.040187982  0.042148918 -0.013627372 
  884000    264.57541    2129.3698     2924.207    17.758018 0.0058957449  0.026429515   0.01111894 
  885000    263.44672    12394.851     2924.207    18.773084 0.0095941194  0.042117094 -0.0042219068 
  886000     270.3048    9218.2284     2924.207     20.19546 0.0062553955 0.0068798393  0.002825615 
  887000    265.60822    4087.3408     2924.207    21.668955 -0.0096908149 0.0077710814  0.011867844 
  888000    248.15589    7138.6882     2924.207    22.542597  0.013401703 -0.028108181  0.016395426 
  889000    254.00807    9418.7021     2924.207    22.732311 0.0064044382  -0.02793072  0.013651901 
  890000     264.4593    9514.2656     2924.207    23.538304  0.039919683 -0.0048066759 0.0083039343 
  891000    249.68149    2809.1321     2924.207    25.335166  0.008255207 -0.018855217 -0.010878664 
  892000    257.12636    4556.6174     2924.207     28.24608 -0.0076199433  0.008080087  0.026425422 
  893000    265.05615    19759.313     2924.207    29.702507  0.011488999 -0.0041160476  0.018714107 
  894000    258.94288    7284.5395     2924.207    30.879477  0.010737027  0.011296736 -0.042866781 
  895000    264.10462    2024.1129     2924.207    31.856449 -0.0044832899 -0.028756867 -0.017551702 
  896000    264.85912    11502.911     2924.207    33.445964  0.032398019 -0.038107102  0.012710138 
  897000    264.63377    9598.1464     2924.207    34.531133 -0.0023083976  0.019138722  0.022028572 
  898000     244.4213    1330.5156     2924.207     33.23539 -0.0087385424  0.027783448 0.00019784194 
  899000    266.93988    12544.088     2924.207     30.23003 0.0056730653 -0.026644114 -0.026858223 
  900000     263.7275       7887.1     2924.207    27.950843 0.00081951661 -0.014043515 -0.028638412 
  901000    266.93117    2400.6579     2924.207    28.031904  0.010731191 -0.046838528   0.02472909 
  902000    260.80635    11029.203     2924.207    29.435909   0.02842078 -0.0084531908  0.029635903 
  903000    260.57721    9441.6438     2924.207      28.7943 -0.0043028175  0.019357925  0.020113902 
  904000    256.26978   -1352.8103     2924.207    27.206344 -0.029721372 -0.029206546 -0.0030275871 
  905000    256.94189    8322.9716     2924.207    25.091441 -0.011842156 -0.017417443 -0.0058466635 
  906000    244.37331     10553.22     2924.207    24.089673 -0.011244279  0.015944114  0.022147869 
  907000    264.61984   -508.19973     2924.207    22.968944 -0.0069444749  0.015926217  0.029513925 
  908000    247.11472     3508.788     2924.207    23.149272 0.0082710472 -0.032306958  0.021082419 
  909000     259.6422    7093.1561     2924.207      24.7299  0.035632068 -0.012054892  0.032159238 
  910000    260.24088    12618.142     2924.207    26.184787 -0.022663101 0.0037004712 -0.0083643034 
  911000    266.22153    6389.1369     2924.207    25.163653  0.021550542   -0.0225012  0.019113729 
  912000    261.33831    3561.0541     2924.207    21.429005  0.030254402  0.050027343 -0.016263584 
  913000    263.47642    7557.2778     2924.207    18.301316   0.03111819  0.043794518 0.0038201905 
  914000    259.65852    11741.848     2924.207    16.694674 -0.038970046  0.012101207 0.0023720156 
  915000    256.73326    5477.5691     2924.207    19.012011  0.029848974  0.011512593 -0.032354854 
  916000    253.12395    5157.3665     2924.207    24.075867 -0.022771101 -0.0014715527 0.0035698978 
  917000    261.71336    9877.2341     2924.207    30.232928  0.018576405  0.021878766 0.0076741354 
  918000    259.87615    3521.9473     2924.207    34.072683 -0.033279617 -0.0059834243  0.020273564 
  919000    248.99717    6881.7013     2924.207    32.048243 -0.0032140162 0.0094576008 -0.0045128909 
  920000    248.05402     9491.024     2924.207     24.32534 -0.0026402546 -0.028996995  0.026020934 
  921000    244.96617     8798.523     2924.207    17.423332 -0.013390058  -0.02671386 -0.010958252 
  922000    259.16527    2797.2561     2924.207    15.566067 0.0030967649   0.01491205 -0.018835326 
  923000    268.50765    3314.8425     2924.207    18.695925 -0.0093777288  0.030027966  0.027881915 
  924000     239.6295    15250.539     2924.207    24.589737 0.0018498331 -0.0086315989   0.01283611 
  925000    265.07099    2574.6821     2924.207    28.902754  0.013186989  0.024516082 -0.0018323633 
  926000    260.72006    1800.0873     2924.207    29.717225 -0.065300644  0.029112899  0.013920872 
  927000     268.2105    8872.8398     2924.207    28.376831 -0.067297825 0.0038657055  0.047262101 
  928000    252.74539    15220.571     2924.207    27.476777 -0.010778762 -0.0042256198  0.038655874 
  929000    256.54104     5017.221     2924.207    27.782323  0.017578219 0.0042136831   0.00298327 
  930000    263.76717    4937.2397     2924.207    30.682182 -0.013692813 0.0024781269 -0.0013426652 
  931000    266.57127      5420.24     2924.207     33.40355 0.0027975485   0.01655409 -0.0074126571 
  932000    276.34381    7963.9344     2924.207    30.830093 -0.010835412  0.017843676 -0.0041873621 
  933000    261.94208    5407.9014     2924.207    25.472179 -0.022606578  0.012001415 -0.015759628 
  934000    262.26158    8615.3347     2924.207    22.328263  0.010623726 0.0095117225  0.045596662 
  935000     247.6122    11234.156     2924.207    23.648827 -0.024206138 -0.025106459 -0.030135845 
  936000     263.9878    9672.4819     2924.207     26.83871 -0.016627807 0.00062355777 -0.0032723645 
  937000    255.95968    4472.2424     2924.207    30.627066 0.0081831687 0.0014711059 -0.023723681 
  938000    264.17021    11216.991     2924.207    31.626369  0.019388875 0.0042331359 -0.0094328515 
  939000    273.37083    13278.733     2924.207     29.87719 -0.0071753291 -0.028435243 -0.001813745 
  940000    259.58019    -820.8012     2924.207    27.645451 -0.012692025 -0.016890826 -0.020974021 
  941000    248.87049     12191.46     2924.207    26.558735 -0.015471609  0.017187916 -0.0056391168 
  942000    281.99109    11157.553     2924.207    30.066282 -0.018567237  0.035597649 -0.016282786 
  943000    266.88449    5459.8253     2924.207     34.39652   0.01599842  0.011293453  0.012979863 
  944000    257.03684    4581.8122     2924.207    33.838751  0.021660134 -0.017479716  0.035393389 
  945000     272.9378    13131.885     2924.207    31.111731 0.0014184176 -0.019741294 0.0005966993 
  946000     262.9449     6516.667     2924.207    29.620212  0.021203757  -0.01007335  0.014614143 
  947000    261.33786     5524.088     2924.207    30.654572 -0.0016749382  0.014715545  0.015212796 
  948000    264.35267    5332.3959     2924.207    32.306209 -0.044012332  0.002712522 -0.0017799128 
  949000    249.18758    9676.1089     2924.207    33.475517 0.00019837208 -0.021584066 0.0079844466 
  950000     250.8984    13924.978     2924.207    33.842557 -0.030291936 0.0046508943 -0.016567076 
  951000    247.53066    2976.9408     2924.207    33.943245 0.0038687299   0.01482018 -0.010934199 
  952000    265.57423    5187.8794     2924.207    32.550069 -0.029440311  0.012425172 0.0013108611 
  953000    251.27434    15574.865     2924.207    30.094418 0.0020993375 -0.041618559  0.020122485 
  954000    245.30401    8153.9584     2924.207     28.01493 -0.0079380235 -0.032487381 -0.033897044 
  955000    259.02645    6327.5935     2924.207     27.59593 -0.0036076815 0.0078280923 -0.00065227016 
  956000    253.28022    7991.2849     2924.207    26.550124  0.032846363  0.010499244 -0.014518019 
  957000    251.63846    8689.9324     2924.207    24.780501  0.025729739  0.014866842 -0.014801022 
  958000    255.65967    8330.1086     2924.207    24.538834 -0.024348729 0.0019071449  0.010077362 
  959000    256.16788    10201.213     2924.207     25.05606 -0.013933133 0.0067376176  0.026319838 
  960000    260.41196    7777.9386     2924.207    24.730727 -0.031475489 -0.00062288139 -0.00082939222 
  961000     260.0281    3302.7055     2924.207    26.116159  0.020883584   0.03380657 -0.0078451101 
  962000    264.39508    14391.383     2924.207    26.656328 -0.0017053787  0.003235191 -0.032261501 
  963000    263.94817   -897.20042     2924.207    26.264971 -0.012014902 -0.024674387  0.015255504 
  964000    266.21634      6961.48     2924.207    24.849063  0.016890724 -0.010247882 0.0069659442 
  965000    264.40458    11285.299     2924.207    23.053701 -0.002252316 -0.0037432527  0.044730612 
  966000    266.63314    5490.1438     2924.207    21.564997 0.00074046345 -0.023488606 -0.040072208 
  967000    267.67942    4205.4742     2924.207    21.554585  0.035558983   0.01239429 -0.0067313715 
  968000    270.31431    10518.421     2924.207    22.479335  -0.02823183 -0.020532434  -0.01094058 
  969000    257.75004    3294.7586     2924.207    27.168893  0.016636572 -0.0010462621 -0.036865389 
  970000    263.42006     6318.749     2924.207    32.538713  0.029681661  0.017433706  -0.01465298 
  971000    269.74106     7647.493     2924.207    34.200637  0.035811898  0.032242154   0.01543608 
  972000     266.9482    7080.0887     2924.207    32.031463  -0.04421869  0.030875687 -0.0067793149 
  973000    261.96812    14008.358     2924.207    29.699412 -0.0021228402  0.013637456  0.016160576 
  974000      271.393    6172.3936     2924.207    27.126781 -0.014409414 -0.0017254682  -0.02826104 
  975000    270.85031    3360.6531     2924.207    24.770644 -0.020232924 -0.019462161 -0.013691137 
  976000    254.19108    9145.5113     2924.207    24.731492  0.022535776  0.048978653  0.019422947 
  977000    264.50839    10305.831     2924.207    26.988862 -0.0082862186  0.036525692  0.015073069 
  978000    261.63793    4995.9866     2924.207    26.841755  -0.02916383  0.022861607  0.014276572 
  979000    268.16511    5172.5107     2924.207    25.019017 -0.033713906 -0.0033834715 -0.021357856 
  980000     264.5444    6766.3461     2924.207    25.725165  -0.04483596 -0.0020623458 -0.017712343 
  981000      268.859    2487.0876     2924.207    26.640312 -0.011186181  0.023223007  0.025199537 
  982000    248.89449    8782.8265     2924.207    27.352814 0.0061452583 -0.017445316  0.033939856 
  983000    260.11064    11816.611     2924.207    27.446777 -0.032616259 -0.028707881 -0.0031865278 
  984000    264.85745    4764.0881     2924.207    25.775177 -0.0001255941 -0.040763391  0.023432434 
  985000    238.81238    7384.4874     2924.207     24.16347 -0.0087661671 -0.0078769023   0.03435451 
  986000    237.86176     11255.56     2924.207    25.324422 9.488215e-05 -0.017488506 -0.010498561 
  987000    252.92212    6629.9919     2924.207    29.045058  0.029040402 0.0095620831 -0.016618105 
  988000    253.67568    8421.9521     2924.207    30.372753  0.016017164  -0.01523133 -0.0041004102 
  989000    279.47187    8767.9686     2924.207    26.851597  0.026602901 -0.0016631225  0.019374281 
  990000    253.86617    5194.5658     2924.207    21.844429 0.0082105323 0.0013189356 -0.032655241 
  991000    260.22899    6291.3923     2924.207    20.913095 -0.037702461 -0.023141193  -0.01342493 
  992000    259.01184     13370.16     2924.207    24.276566 -0.0037819584  0.012723332 -0.023113596 
  993000    253.94254   -2896.6736     2924.207    25.902481 -0.00047151362 -0.012669698 -0.036248421 
  994000    253.54737    4849.6904     2924.207     24.89915   0.01323009  0.018636806 -0.0075688542 
  995000    267.54624    10247.005     2924.207    22.791979 -0.0018677173 -0.016396551   0.01707348 
  996000    255.19694    2990.7257     2924.207    20.692695  0.016131825 0.0061363101  -0.02707281 
  997000      265.627    7582.5252     2924.207    21.817189  0.034441611 -0.011397463 -0.010765258 
  998000    252.58699    10479.117     2924.207    23.394761  0.022112038 -0.055057605 0.0079083317 
  999000    270.17017    9143.2509     2924.207    23.311957 -0.019897413 -0.033167134 0.0069287084 
 1000000    261.51668    1842.9388     2924.207    22.009096 -0.020484721 -0.022204731 0.0050102431 
Loop time of 6802.78 on 2 procs for 1000000 steps with 240 atoms

Pair  time (%) = 6436.53 (94.6163)
Bond  time (%) = 0.287437 (0.00422529)
Neigh time (%) = 23.1697 (0.340592)
Comm  time (%) = 242.984 (3.57184)
Outpt time (%) = 0.453303 (0.0066635)
Other time (%) = 99.3483 (1.46041)

Nlocal:    120 ave 122 max 118 min
Histogram: 1 0 0 0 0 0 0 0 0 1
Nghost:    5042.5 ave 5044 max 5041 min
Histogram: 1 0 0 0 0 0 0 0 0 1
Neighs:    45625 ave 46445 max 44805 min
Histogram: 1 0 0 0 0 0 0 0 0 1
FullNghs:  91250 ave 92830 max 89670 min
Histogram: 1 0 0 0 0 0 0 0 0 1

Total # of neighbors = 182500
Ave neighs/atom = 760.417
Ave special neighs/atom = 0
Neighbor list builds = 5312
Dangerous builds = 0
#	run			10000
	unfix			1
	uncompute		myKE
	uncompute		myPE
	uncompute		myStress
	uncompute		flux
	uncompute		myDis
	unfix			JJ

	next seed
	next iseed
jump lmp.in.gk loop_seed
variable iseed loop 10
variable seed index 11111 22222 33333 44444 55555 66666 77777 88888 99999 11110
clear
###########################################################################
#x0
###########################################################################
units 			metal
atom_style		full
read_data		fort.26.nonbonded
  0 = max bonds/atom
  0 = max angles/atom
  0 = max dihedrals/atom
  triclinic box = (0 0 0) to (14.3 14.3 14.3) with tilt (0 0 0)
  1 by 1 by 2 MPI processor grid
  240 atoms
  0 bonds
  0 angles
  0 dihedrals
  0 = max # of 1-2 neighbors
  0 = max # of 1-3 neighbors
  0 = max # of 1-4 neighbors
  1 = max # of special neighbors
group         		C type = 1
60 atoms in group C
###########################################################################
#OLPS
###########################################################################

################################################################################
#### Pair potentials
################################################################################
pair_style hybrid/overlay tersoff lj/cut 12.0
pair_coeff * * tersoff C.4.tersoff 1 2 3 4
pair_coeff 1 2 lj/cut 0.0007000000 3.5500000000
pair_coeff 1 3 lj/cut 0.0007000000 3.5500000000
pair_coeff 1 4 lj/cut 0.0007000000 3.5500000000
pair_coeff 2 3 lj/cut 0.0007000000 3.5500000000
pair_coeff 2 4 lj/cut 0.0007000000 3.5500000000
pair_coeff 3 4 lj/cut 0.0007000000 3.5500000000
special_bonds lj 0.0 0.0 0.0 coul 0.0 0.0 0.0

#pair_style tersoff
#pair_coeff * * C.4.tersoff 1 2 3 4

#pair_style lj/cut 12.0
#pair_coeff 1 1 0.0700000000 3.5500000000
#special_bonds lj 0.0 0.0 0.0 coul 0.0 0.0 0.0
###########################################################################

#--------------------------------------------------------------------------
#variables
#--------------------------------------------------------------------------
variable   	dt 		equal 0.001
#--------------------------------------------------------------------------
#kappa parameters
#--------------------------------------------------------------------------
variable    	p 		equal 100000 	# correlation length
variable    	s 		equal 10  	# sample interval
variable    	d 		equal $p*$s 	# dump interval
variable    	d 		equal 100000*$s 	
variable    	d 		equal 100000*10 	

#--------------------------------------------------------------------------
variable 	T_run 		equal 300
#--------------------------------------------------------------------------

log 	log_heat_${iseed}.lammps
log 	log_heat_8.lammps
