	reset_timestep  	0
	fix 			1 all nve
	compute   		myKE all ke/atom
	compute   		myPE all pe/atom
	compute   		myStress all stress/atom virial
	compute   		flux all heat/flux myKE myPE myStress
	variable  		Jx equal c_flux[1]/vol
	variable  		Jy equal c_flux[2]/vol
	variable  		Jz equal c_flux[3]/vol
	fix       		JJ all ave/correlate $s $p $d c_flux[1] c_flux[2] c_flux[3] type auto file J0Jt_${iseed}.dat ave running
	fix       		JJ all ave/correlate 10 $p $d c_flux[1] c_flux[2] c_flux[3] type auto file J0Jt_${iseed}.dat ave running
	fix       		JJ all ave/correlate 10 100000 $d c_flux[1] c_flux[2] c_flux[3] type auto file J0Jt_${iseed}.dat ave running
	fix       		JJ all ave/correlate 10 100000 1000000 c_flux[1] c_flux[2] c_flux[3] type auto file J0Jt_${iseed}.dat ave running
	fix       		JJ all ave/correlate 10 100000 1000000 c_flux[1] c_flux[2] c_flux[3] type auto file J0Jt_3.dat ave running
	compute 		myDis all msd
	thermo_style 		custom step temp press vol c_myDis[4] v_Jx v_Jy v_Jz
	thermo			1000
	timestep		${dt}
	timestep		0.0010000000000000000208
	run			1000000
Memory usage per processor = 7.28915 Mbytes
Step Temp Press Volume myDis[4] Jx Jy Jz 
       0    267.78302    15502.193     2924.207 2.1828145e-30  0.012813005  -0.02220724 -0.0078358558 
    1000    251.12645    16257.757     2924.207    7.5065704 -0.0040489805 -0.0059754793  0.012645667 
    2000    270.30833    9878.9716     2924.207    18.615856 -0.037690566 -0.025170152 -0.022052635 
    3000    271.43683    5364.9687     2924.207    22.364716   0.02387166  -0.01920445 -0.030646756 
    4000    257.73204    20947.423     2924.207      25.1441 -0.0014736507 0.0014865686 -0.024106688 
    5000     253.8383      10642.7     2924.207    28.005224 0.0080715452 -0.036209806 -0.026619744 
    6000    247.13861    19485.927     2924.207    28.165626 -0.019117777 0.0020627831  0.012346744 
    7000    258.05414    8091.6971     2924.207    28.075691  0.024943943 0.0046179184 -0.0052129419 
    8000    269.46781    14071.205     2924.207    30.425443 -0.030362544 -0.015740006 -0.00093088729 
    9000    275.05077    17071.596     2924.207    29.397542 -0.020686547 -0.0026517139  0.043937628 
   10000    257.91992    8131.3609     2924.207    25.683257  0.010373928  0.030148002 -0.026930254 
   11000    276.25985    18989.597     2924.207    23.385601 -0.026529898  0.011964575  0.020659195 
   12000    243.41492     13769.28     2924.207    24.507859 -0.026904508  0.015659492 -0.012874519 
   13000    281.79193    8944.1119     2924.207    25.029641 -0.014706789  0.015008689 -0.012863893 
   14000    295.20961    9053.1379     2924.207    24.863954 -0.012164608  0.016207248  0.017860788 
   15000    233.42165    18200.875     2924.207    21.097721 -0.00013796401  0.017387076  0.016117153 
   16000    277.90373    12327.688     2924.207    21.228447 -0.007400864 -0.029256957 0.0089073332 
   17000    285.19141    11527.867     2924.207     28.10667  0.010152994 -0.00046771788 0.0061261038 
   18000     256.4718     13274.28     2924.207    34.712935  0.031462748 -0.031055095 -0.020968119 
   19000    265.74879    8538.5847     2924.207    35.799504  0.010853591 -0.014159827 -0.0022038834 
   20000    247.11482    18869.591     2924.207    31.514908 -0.018374119 -0.011275164  0.015167049 
   21000    287.99513     4170.124     2924.207    26.574526 -0.015797198  0.026881495 -0.0072085241 
   22000    262.53493    12726.633     2924.207    25.095806 -0.0048731449 0.0087318553  0.015713843 
   23000    273.01262    10932.416     2924.207    29.003418 -0.010801694 -0.018184408 -0.0016340853 
   24000    280.35987    10506.104     2924.207    33.321882 0.0020180327    0.0486045 -0.038160792 
   25000    253.24569    14929.789     2924.207     33.12031 -0.023988733  0.029761747 -0.0099669935 
   26000    282.57501     5497.412     2924.207    33.837444  0.031425735  0.020444359 0.0040753307 
   27000    254.60766    7607.3184     2924.207    34.492719 0.0044175557  0.018838992  -0.01706565 
   28000    246.65665    16833.086     2924.207    30.845198  0.042251258 -0.012612491 -0.029186615 
   29000    280.54361    2135.4642     2924.207    28.000018  0.017379083 -0.0067752701 -0.0063054727 
   30000    261.60152    22478.961     2924.207    32.465226  0.021369742 -0.023989731 -0.024860213 
   31000    259.60022    13638.255     2924.207    35.444904 -0.032743178 -0.012723922 0.0045270324 
   32000    261.99076    12837.202     2924.207    33.536814 -0.0016659839 -0.018805979 -0.010634477 
   33000    258.65163    10793.165     2924.207    28.889344  0.052034177 -0.012215697 -0.050015731 
   34000    269.50771      11375.6     2924.207    27.139855 0.0093597597  0.025329221  0.014794732 
   35000    271.29247    15928.056     2924.207    30.666265 -0.0056945847  0.019619187   -0.0108927 
   36000    261.77533    11469.204     2924.207    31.822967 0.0052409219 0.0094579524 -0.010836791 
   37000    274.18109    15204.974     2924.207    27.175253  0.025386204 -0.0028621545  -0.02198938 
   38000    279.40442    8661.9659     2924.207    25.815015 0.0042856317 0.0054940935 -0.010780914 
   39000    255.68547    22308.944     2924.207    27.705555 -0.0031603031  0.026466292 -0.019727111 
   40000    272.48179    7543.6444     2924.207    27.717989 -0.0040684961 0.0063414675  0.034822493 
   41000    264.91604    19197.662     2924.207    25.175044 -0.033987466 -0.0059925561  0.044412243 
   42000    269.37042    9794.8617     2924.207    21.881364 0.0023473779 0.0060365048  0.024893329 
   43000    275.38058    14204.356     2924.207    21.766036 -0.031446222  0.018460247  0.019171329 
   44000    259.35559    13323.031     2924.207    25.958131 -0.011671954   -0.0166866  0.015472868 
   45000    262.55071    20485.508     2924.207    31.768624  -0.02116144  0.035663188  0.010467175 
   46000     243.8604    14979.437     2924.207    32.716563 -0.014270574 -0.0079983347  0.028659028 
   47000    255.94074    14967.383     2924.207    29.003303  -0.01572453 -0.019595483 0.0058908811 
   48000    263.67055    14240.865     2924.207    24.989264 0.0040198362 -0.033208114 0.0095691816 
   49000    256.73797    19367.374     2924.207    26.366123 -0.037622437  0.011302922  0.011771724 
   50000    244.30955    5880.9581     2924.207    32.274218 -0.014495677 -0.005308438 0.0047662905 
   51000    261.13244    13730.666     2924.207    33.885975 0.0071619987 0.0060213665 0.0041057372 
   52000    251.51958    13825.752     2924.207    32.560059 -0.0098255847 -0.013360628 -0.021128705 
   53000    253.02933    8492.7133     2924.207    31.220091  -0.03248768  0.073489167  -0.03822581 
   54000    237.96954    18475.876     2924.207    31.397515  0.011458495 -0.019984001 -0.0055121281 
   55000    227.95411    21077.797     2924.207      32.9279 -0.020445548 -0.0075391317  0.015688989 
   56000     251.4103     10400.41     2924.207    34.410145 0.0097524862  0.024548041 0.0081224856 
   57000    260.87383    19075.108     2924.207    34.240203 -0.059643013  0.046145269 0.0047842451 
   58000     291.0093    7827.9822     2924.207    32.218016  0.023804722 0.00011481111  0.013622823 
   59000    235.89688    23626.737     2924.207    28.549278 0.0036552654  0.021255688 -0.020060377 
   60000    259.27782    17742.535     2924.207    25.733637 -0.000377862  0.017567018 -0.017925002 
   61000     247.5892    11931.085     2924.207    25.134661 -0.020562204 0.0029357711 0.0047312739 
   62000    249.30593    6472.6912     2924.207    26.442091  0.025976628 0.0054224166  0.023271228 
   63000      251.629    15374.769     2924.207    28.163033 0.0076970013 -0.010303389 -0.014528797 
   64000    267.91867    18328.153     2924.207    28.734285 -0.006758662  0.030774218 0.0070929017 
   65000    259.60478     6642.135     2924.207    25.978937 -0.0047805892 -0.001660287  0.017514404 
   66000    247.72343    16960.006     2924.207    24.298326  0.033682158 0.0063600226 -0.029149711 
   67000       264.87    15103.194     2924.207    26.915238 -0.0011858365  0.022234481  0.032159373 
   68000    247.08901    12048.813     2924.207    30.341545 -0.025280856 -0.004447828  0.029254849 
   69000    253.27689    15404.883     2924.207     31.20013  0.026259098  0.018013774 -0.019806597 
   70000    247.49486    12772.038     2924.207     30.14611 -0.013973486 -0.0014813104 0.0071853586 
   71000    258.44784    12803.639     2924.207    30.501936 0.0031809201 -0.045916983 -0.013174214 
   72000    243.03527    21570.699     2924.207    32.114484 0.0020095103 -0.076001467 -0.027146153 
   73000    253.88129    15426.477     2924.207    33.258638 -0.012728851   0.02667105 -0.010866641 
   74000    274.20548    16751.582     2924.207    33.008441  0.016300781  0.012086312  0.016959988 
   75000    241.95305      11392.7     2924.207    30.335434  0.035134783 -0.0053258041 -0.024691133 
   76000    277.44278    10449.698     2924.207    27.209806  0.010372417 -0.014914369  0.005233894 
   77000    253.15892      12971.1     2924.207    26.515218  0.013556931 -0.017348874  0.020178148 
   78000    266.17264    16923.811     2924.207    25.815267 -0.035165457 -0.00052729553  0.028145739 
   79000    282.31265    7961.6682     2924.207    26.526152 -0.011071403  0.012927042 -0.0097798102 
   80000    243.03542    16175.916     2924.207    32.300294  0.012712542  -0.02610141  0.011066361 
   81000    252.80648    16738.246     2924.207    34.096689  0.018504269 -0.002299254  0.032284462 
   82000    251.87789     18511.28     2924.207    30.724891 0.0042902938   0.03544408 0.0012174101 
   83000    274.79119    2636.1625     2924.207    27.774181  0.010311051 -0.011276716  0.014145454 
   84000    251.98508    25120.099     2924.207    28.983529 -0.0090572927 0.0048934913  0.015911418 
   85000    266.77779    6076.2725     2924.207    31.331742 -0.015979408 0.00036975842 -0.038483161 
   86000    238.75839    21202.619     2924.207    31.106779 -0.018529752 0.0009766579 -0.034066325 
   87000    281.82406    5359.3287     2924.207    26.637763 -0.0028936047   0.01925955 -0.0090430915 
   88000    264.86306     9489.618     2924.207    20.427686 0.0032375902  0.019073814 -0.014021639 
   89000    276.27056    13242.153     2924.207    21.312666  0.018677666   0.01311655   0.01149174 
   90000    262.22479    15654.006     2924.207    26.575806 -0.032766855  0.010708402 -0.0023887022 
   91000    253.56877    16484.415     2924.207    25.302851 -0.015510102  0.020611444 -0.013004679 
   92000    257.12221    8422.9111     2924.207    20.029471 0.00020362036 -0.022817157  0.015634804 
   93000    269.99079    11497.863     2924.207    20.218285  0.014727483 0.0052011983 -7.0148736e-05 
   94000    278.38136    2160.0937     2924.207    25.870037 -0.029906385  0.027235195 -0.0090507221 
   95000    241.48454    19167.817     2924.207    28.028755 -0.0014266937 -0.015409035  0.015569531 
   96000    229.78581    7372.3115     2924.207      27.3827 -0.013034113 -0.0060177149  0.039204935 
   97000    248.99546     18434.98     2924.207    25.210343   0.02109434 -0.0045630944  0.034126148 
   98000    279.18543    11391.641     2924.207    25.144794 0.0094507806  0.017381482 -0.017741179 
   99000    261.80981    13814.136     2924.207    25.679022  0.049244738 -0.018133362  0.009508241 
  100000    244.75112    22898.814     2924.207    19.973719 -0.0027265666 -0.0012768504 -0.015356676 
  101000    253.15381    12923.317     2924.207    13.615764 -6.0312803e-05 -0.024199352  0.010790173 
  102000    260.97041    10240.795     2924.207    16.353281 -0.020265835 0.0055030444 -0.020214505 
  103000     256.0124    11519.462     2924.207    21.517215 0.0042305282 0.0082985948 0.0011814173 
  104000    269.61682    13315.954     2924.207     17.52717  0.040271904  0.010920502 -0.011391309 
  105000    263.24593    9454.9642     2924.207    14.281566  -0.02072606 -0.014096542 0.0069395346 
  106000    251.64745    9417.1083     2924.207    17.577129   0.03190022 -0.020255396 -0.030989097 
  107000      244.999    13887.259     2924.207    18.523968 -0.0094179942 -0.035687032  0.028597101 
  108000    259.66781      14502.2     2924.207    12.148318  0.016253708  0.023375143  0.033627659 
  109000    260.36359    8977.5057     2924.207    12.347317 -0.023063738 -0.014637713 -0.0048024588 
  110000      262.054    17419.685     2924.207    20.486534  0.010753683 -0.0027138126 0.0022487638 
  111000    261.07981    2672.6208     2924.207    21.416521  0.008119775 -0.0043305864   0.01684181 
  112000    252.31506    21588.746     2924.207    18.726924 0.0092755308  0.030487087 -0.019362959 
  113000    271.74741    11670.431     2924.207    20.040803 -0.023718745 -0.011525716  0.018378381 
  114000    259.53194    10888.503     2924.207    25.616862 0.0039434061 -0.016704604  0.033299939 
  115000    273.41592    14965.189     2924.207    27.854655 -0.0092032785  0.023242335 0.0052661779 
  116000    267.85207    12361.081     2924.207    24.105439  0.019162237 -0.013209778  0.036918263 
  117000     274.0256    5573.8617     2924.207    19.264275 -0.013689963  0.022635412  0.018451705 
  118000    251.81155    19076.364     2924.207    16.802431  0.024786271 -0.011907474 -0.0038665931 
  119000     245.1806    14641.733     2924.207    20.029462  0.011203084 -0.015945932 -0.0017333367 
  120000    269.68208     13565.93     2924.207    21.152433 -0.0077493318  0.036128215 -0.0065392391 
  121000     258.3072    10399.757     2924.207    20.520439 -0.033473963 0.0062682636  -0.02454382 
  122000     263.5242    12145.719     2924.207    20.236729 -0.035614711  0.028958162 -0.047430503 
  123000    225.78533    16861.907     2924.207    15.751866 0.0072127442 -0.011532244 -0.033415495 
  124000    259.96738    9432.4332     2924.207    12.498659 0.0083606121  0.037701983 0.0031714709 
  125000    261.93859    10493.171     2924.207    16.913497 -0.026072592 -0.030742652 0.0035898654 
  126000    252.13123     17372.13     2924.207    25.638121 -0.00081238777  0.005687562  0.016478628 
  127000    260.97697    9610.9754     2924.207    29.416486  0.026779533 -0.033996742 -0.019690867 
  128000     247.9861    20088.189     2924.207    27.548284  0.052577885 -0.046324273 0.0033418894 
  129000     265.5081    3617.8709     2924.207    23.417959  0.020456899 0.0027608217  0.010284533 
  130000    245.04546    13863.058     2924.207    22.456539  0.011128632 -0.0017423587 -0.011791046 
  131000    262.49362    13835.557     2924.207     27.68172 -0.0077230579 0.0073292459  0.011116829 
  132000    253.22456    13673.399     2924.207    30.759391 0.0089409559 -0.014338718 -0.025190441 
  133000    262.53554    8044.2629     2924.207    29.264822 -0.044769843 -0.0013089273 0.0065758175 
  134000    257.31142    9652.3123     2924.207    25.082562 -0.0067569914 0.0094593518 -0.018408569 
  135000    270.72808    12398.444     2924.207     23.74729 -0.017129543  0.010985314 0.0057380443 
  136000    221.47247    11091.855     2924.207    27.976496  0.015396534 -0.039991266   0.01137193 
  137000    270.34798    12526.827     2924.207    29.957425 -0.015109661  0.019578226  0.028545682 
  138000    233.68632    14551.285     2924.207    29.639215  0.020209228 -0.0012204087 -0.006793754 
  139000    261.27152    8450.0009     2924.207    28.208243 -0.030093728  0.013989969  0.036255165 
  140000    261.75449    14878.398     2924.207    25.662546  0.010203061 -0.0099065768  0.010683829 
  141000    254.53608    6076.5515     2924.207    25.112348  0.029785013 -0.005496578  0.022168374 
  142000    264.05225    14811.292     2924.207    27.523139 -0.025994835 0.0074012998 -0.042836413 
  143000    245.19273     466.2221     2924.207    28.225021 -0.0067403894 0.0030636803  0.022525272 
  144000     260.3678     19990.01     2924.207    26.202347 0.0014293248  0.020955333 -0.0053845065 
  145000    274.72159    7868.1524     2924.207    28.565489 -0.027910543 -0.024694578  0.013712383 
  146000    243.61015    10136.101     2924.207    31.428009  0.019347651  0.018233523 0.00069422872 
  147000    268.65039    10732.225     2924.207    31.366291 -0.027188502 -0.015584829 0.0047921826 
  148000    246.96109    6461.9224     2924.207    26.164953  0.020298518 -0.001033564  -0.04712193 
  149000    258.09373    13866.583     2924.207    23.598786 0.0094243196  0.022429926 -0.034760811 
  150000    235.74131    18331.185     2924.207    24.901329 -0.031979116 0.0047512791 -0.053282386 
  151000    254.58473     2372.508     2924.207    28.881031 0.0016420274 -0.0011523868 -0.0024497158 
  152000    256.27866    16587.921     2924.207    27.326921 -0.0049154152 0.0047848403 -0.002482563 
  153000    259.37182    6946.0088     2924.207      22.5098 -0.014729282 -0.026829967 -0.021026245 
  154000    249.59605     18324.65     2924.207    18.506695 -0.022067894  -0.01932739  0.031530178 
  155000    240.08728    12705.658     2924.207    18.698234 -0.014956112  0.031117408 -0.045202248 
  156000    270.05954     12371.44     2924.207    20.589637 -0.062897989  0.022598431   0.01257341 
  157000    250.23895    10460.773     2924.207    24.010909 -0.028963856  0.019410019  0.009851209 
  158000    236.47024    15905.712     2924.207    27.898408 -0.027131454 -0.039805884 -0.033617093 
  159000    233.27179     16366.13     2924.207     29.26203  -0.01130332  0.022290509 -0.037136893 
  160000    243.06442    12766.425     2924.207    29.560546  0.018435735  0.019844736 0.0045827109 
  161000    258.81846    15435.188     2924.207    29.517557 -0.025820237 -0.025266407 -0.023976779 
  162000    244.14663    4362.1587     2924.207    29.472701 -0.0030454921 -0.019708641 -0.0089017113 
  163000    240.62561    18773.434     2924.207    31.268454  0.034662319  0.019900521 0.00017735968 
  164000    270.78248    5580.4096     2924.207    31.705826 0.0014292548 -0.016652628 -0.021653182 
  165000    266.88471    6156.1503     2924.207    29.733263   0.02002153 -0.040729409  0.015868364 
  166000    258.32244    10584.009     2924.207    26.033615 -0.021767851 0.0069686822 -0.016349167 
  167000    237.37027    17251.457     2924.207     23.84381  0.030864728 -0.005019657  0.016527175 
  168000    259.96286    8473.9697     2924.207    22.459542   0.01702636 -0.013323519 0.0048317552 
  169000    239.31691    15202.662     2924.207     24.03528 0.0023282514 0.0021105617 -0.011260691 
  170000    243.87629    13415.222     2924.207    26.960706 -0.0090647269 0.0044656618 -0.0071674091 
  171000     282.1957    8427.7386     2924.207    30.174499  -0.04304047  0.024415853 -0.0046830549 
  172000    229.68572    17795.339     2924.207    32.515188  0.020251032  0.019067426 0.0029855448 
  173000    236.67225     11140.43     2924.207    32.847364 -0.0055331664 0.0052087092 -0.0082021029 
  174000    250.93834    16002.673     2924.207     33.73856  0.010880896 0.0066403761 0.0066510851 
  175000    245.54362    11332.163     2924.207    33.192541  0.046258619 -0.0078243163  0.050048847 
  176000     246.4791    12599.199     2924.207    31.818206 -0.0040597041 0.0099157997  -0.04304528 
  177000    246.82913    16206.836     2924.207    30.110319 0.0067953951  0.022839495 -0.0038847276 
  178000    234.63301    10658.792     2924.207    29.365637 -0.0076569445  0.017784882 -0.029632125 
  179000    250.07685    20897.936     2924.207    31.709664  0.036342805 -0.0042375811 -0.0080031082 
  180000    263.28631    5069.7912     2924.207    33.222968 -0.0089085926 -0.018540039 -0.0061414113 
  181000    247.71685    10572.419     2924.207    33.297034 -0.0089560911 -0.020637225 -0.013630376 
  182000    256.56644    13748.367     2924.207     32.56262 -0.027826748 -0.0089828903  0.019949979 
  183000    245.35914    6245.9857     2924.207    32.195487 -0.013060536  0.016741683  0.011084636 
  184000    242.80796    13870.185     2924.207     31.59571  0.013903954 0.00078192488 0.00056018041 
  185000    259.09093    9772.4674     2924.207    31.123427 -0.016650473  0.015608682 -0.016911854 
  186000    247.22825    14434.647     2924.207    28.868494  -0.01161503 -0.0015159023  -0.01913679 
  187000    281.66222    8711.8569     2924.207    26.224986 -0.0090737248 -0.030167283 -0.030337194 
  188000    244.79148    14619.504     2924.207    26.514098 -0.013342071  0.022839624 -0.034778058 
  189000    237.89263    15680.677     2924.207     28.12748  0.011968234 -0.0027866478  0.002338258 
  190000    251.32936    6090.4605     2924.207    30.711474 -0.038777644  0.042314469 -0.0014975166 
  191000    251.02024      12088.3     2924.207    33.509539 -0.0065173129  0.032216022 0.0038549689 
  192000    244.21347    15522.345     2924.207    34.376697 -0.014454839  0.023721891 -0.0014108602 
  193000    232.83602    15670.238     2924.207     31.43518 -0.012307665  0.033513784  0.010449051 
  194000    273.16672     5364.251     2924.207    29.616981 0.0050714401 -0.031793141 -0.0045732024 
  195000    252.16688    22442.507     2924.207    29.470328  0.015893575  -0.01388997 0.0047689333 
  196000    236.27967    12984.427     2924.207    30.524784 -0.013364954 -0.0058507401 -0.011389089 
  197000     228.9914    15816.764     2924.207    32.671585 -0.016220643 -0.022978385  0.016154676 
  198000    269.64951    13603.391     2924.207    35.228937 -0.017476859  0.025248355 0.0016084625 
  199000     253.2835     11381.29     2924.207    35.216056 -0.030409704  0.032441913 -0.0085790835 
  200000    249.49707    11088.655     2924.207    33.017629  0.011048054 -0.013934789 -0.017142563 
  201000    251.37533    8126.8763     2924.207    28.489284 -0.0026107675  0.014686775 -0.028476411 
  202000    244.42153    15320.627     2924.207    25.543542 -0.0087525407  0.025673949  0.021204103 
  203000    254.81613    13263.652     2924.207    24.865341 -0.037461027    0.0145451 -0.023158602 
  204000    249.20609    9426.7641     2924.207    24.521166 -0.036077675 -0.055220945 -0.046031939 
  205000    255.91967    14539.659     2924.207    24.610007  0.017057662  0.026390198 -0.033269976 
  206000     255.9615    14520.535     2924.207    24.125261  0.015886956 0.0094602711  0.034092902 
  207000    246.66215    6049.4942     2924.207    23.395567 -0.0066753787 0.0040791044  0.042574328 
  208000    249.19417    13839.639     2924.207    23.939799 -0.025314415 0.0052452307 -0.031205305 
  209000     252.2811    16468.177     2924.207    24.677955 -0.0037607592  0.026799416 -0.013606339 
  210000     237.5776    10810.064     2924.207    25.852463  0.017530691 0.0096238138  0.032358569 
  211000    263.07581    11832.336     2924.207    25.255942 -0.029379782 -0.0078433123 -0.023937372 
  212000    262.67389    12146.254     2924.207    23.521876 0.0020516059  0.025302736 -0.0010185729 
  213000    227.92395    11861.828     2924.207    25.254908 0.0061319659 -0.00068288153  0.010092832 
  214000    253.80172    2984.9119     2924.207    24.194465 -0.046978427 -0.009425376 -0.0046649849 
  215000    236.06082    11402.216     2924.207    24.889259 0.0050871041  0.011351628 0.0065895233 
  216000    254.23674    13523.429     2924.207    26.785586    -0.024434  0.021160934  0.028428454 
  217000    261.22943     9740.105     2924.207    29.618822 -0.030525718 0.0051247515  0.035815665 
  218000    253.07785    12860.767     2924.207    30.681614 -0.015231894 -0.035362047 0.0054128902 
  219000    253.86766    16373.074     2924.207    29.890725 -0.0042824191 -0.0071562103 -0.028861428 
  220000    246.76674    6284.6365     2924.207    27.887652 -0.0033447172  -0.01313399 -0.020447858 
  221000    265.46319     16822.52     2924.207    25.543072 -0.0076991437 -0.012865755 -0.034739162 
  222000    237.12959    14101.662     2924.207    24.018705 0.0036195528 0.0020513499 -0.030941909 
  223000     273.6581    3806.7971     2924.207    26.686541  0.026634748 0.00099268986 -0.032700159 
  224000    218.60927    19308.314     2924.207    26.992952  0.032527139 -0.0059989834   0.02758827 
  225000    229.77936    10194.019     2924.207    24.309803   0.02670122 -0.0074322393 0.0055838542 
  226000    261.81017    10747.503     2924.207    21.448045  0.026635229 0.0081499956  0.011411467 
  227000    236.99745    7655.0114     2924.207     23.59683 -0.023166793 0.0036131464  0.011963995 
  228000    240.90317    8261.7122     2924.207    25.807862 -0.013443983  0.011281154 -0.003568656 
  229000    245.90438    9776.6874     2924.207    30.124597  0.018941622  0.011064699 0.0082085086 
  230000    255.22414    8534.5935     2924.207     32.27551  0.011493429  0.046794171 0.0082565664 
  231000    263.89221    12287.305     2924.207    31.881821 -0.021079654   0.01024495 -0.0077262754 
  232000     247.5202    16613.334     2924.207    32.103452 -0.013343311 -0.028901602  0.044295311 
  233000    240.93414    13132.198     2924.207    30.355367 0.0093586393 -0.0025373985 -0.0085461758 
  234000    242.04881    11106.017     2924.207    28.850266 -0.0098338697 -0.041632534  0.019661116 
  235000    237.80164    11372.914     2924.207     28.82431  0.002146434 0.0080296875 -0.012713359 
  236000      249.181    5560.9763     2924.207    27.470307  0.026695242  0.027077697  0.024009175 
  237000    247.89023    15522.588     2924.207    28.107219 0.0062712941 0.0099190113 0.0081606864 
  238000    256.89119    11040.835     2924.207    28.426486  -0.01899037 -0.0074863445  0.033863424 
  239000    241.15144    11036.503     2924.207    23.899984  0.019552039 0.0012699403 -0.0098011379 
  240000    236.86252    16653.174     2924.207    20.875789 -0.0010637663  0.029039297 -0.030829484 
  241000    231.53386    6319.5395     2924.207    18.206376 -0.020994868 0.0085235999  0.038154655 
  242000    261.31277    14181.693     2924.207    21.358344 -0.045186435 -0.028613014 0.0073350924 
  243000    254.44834    9259.8654     2924.207    24.815918  0.023154748 -0.036546141 -0.012078992 
  244000    248.65581    6711.8086     2924.207     28.24465 -0.0099351929  0.025813352 0.0019998447 
  245000    227.94894    15495.183     2924.207    29.881975 -0.0057566253  0.013527634  0.013345434 
  246000    255.92209    16715.018     2924.207    31.560029  0.021898638  0.015401839 -0.031437759 
  247000    264.39048    4380.4689     2924.207    33.305273 -0.013694703 -0.018366875 0.0015269022 
  248000    253.45821    12022.145     2924.207    34.403855 -0.010490417 -0.0043581893 -0.0018591101 
  249000    240.81702    16601.336     2924.207    33.081485 0.0034502924  0.017377819 -0.017481587 
  250000    255.04315    6339.4307     2924.207    30.229201 -0.0067033504 -0.005090174 -0.017853501 
  251000    267.17508    9390.0154     2924.207    28.773566 -0.0024866672  0.028708974 -0.026504884 
  252000     241.1781    14775.438     2924.207     32.07873 -0.011889237  -0.03437958  0.025801953 
  253000    230.07892     13965.92     2924.207    33.930396 -0.0043402245 -0.0088435163  0.026115076 
  254000    234.01795    16361.562     2924.207    33.849732 -0.022466231  0.032754621  0.022249826 
  255000    230.68773    13551.635     2924.207     33.72932  0.015364656 -0.017848457   0.03432257 
  256000    255.90754    8077.4228     2924.207    33.718073 -0.00072775035  0.039196739  0.011678877 
  257000    259.34096    10280.008     2924.207    35.405309 -0.00063860613   0.02934585  -0.02956198 
  258000    238.55051    6558.8992     2924.207    36.036402  0.018415818 -0.0021536932  0.030996774 
  259000    254.87192    13529.615     2924.207    35.152715  0.030200422 0.0061939662  0.027689717 
  260000     261.4083    6462.5446     2924.207    32.329768 -0.0029305361 -0.032846315 -0.024189341 
  261000    231.05069    16898.492     2924.207     27.77794   0.02309994  0.014795526 -0.038498597 
  262000    278.81579    11771.159     2924.207    24.951457 0.0020117962 -0.0061663135  -0.04124714 
  263000    227.31799    12804.559     2924.207    21.162411 -0.019415048 -0.032062094 0.0053054082 
  264000    239.46958    5037.4212     2924.207    20.287091 -0.0044984276 -0.0070007535 0.0037475335 
  265000    243.90769    14223.836     2924.207    23.363155  0.043717817 -0.00091135881  0.017474519 
  266000    243.83143    10553.414     2924.207    25.320858  0.013564585 -0.0041382967  0.012896543 
  267000    265.69947     10740.35     2924.207     24.93766  0.004971381  0.019996146 0.00013091832 
  268000    256.63094    8569.5451     2924.207    24.931814  0.014832366  0.010693683 -0.029902553 
  269000    252.22552    9869.7502     2924.207    23.610213 -0.039384451 -0.017236351  0.026716373 
  270000    238.09647    14185.342     2924.207    22.941521  0.055676887 -0.0047878595 -0.028321492 
  271000    251.15611      10024.8     2924.207    24.112197 -0.0028661014  0.018551374 -0.0017062184 
  272000    255.77259    15441.969     2924.207    21.802863 -0.020912143  0.031398453 0.0035838461 
  273000    233.95898    8699.4177     2924.207    21.102378  0.013292263 -0.010993309 -0.0024038417 
  274000    244.13578    10968.245     2924.207    23.095072 -0.023002672 0.0016247677 -0.022545868 
  275000     248.1364    15599.017     2924.207    24.397223 -0.0027095188 -0.035495362 -0.022456119 
  276000    235.12005    11551.854     2924.207    23.820295 -0.014017676 -0.034081124 -0.028360354 
  277000    244.38801    14593.902     2924.207    24.304869 -0.0038869551 0.0080782194 -0.022573573 
  278000    244.01529    12841.989     2924.207    27.533421  0.015049913  0.021115095 -0.0047935219 
  279000    245.61651    8253.2051     2924.207    27.933284  0.026138099 0.0079332161 0.0022086884 
  280000    244.14625    12236.388     2924.207    26.909139 -0.024759008 -0.022345008 -0.032469797 
  281000     233.9668    12198.902     2924.207    30.037801 -0.036980061  -0.01228721 0.0013109696 
  282000    255.56982    4751.8757     2924.207    32.163538 -0.0031228555 -0.010740942  -0.02017003 
  283000    232.85632    19403.069     2924.207    31.466961 -0.026875025 0.0065842412 -0.0028947705 
  284000    250.96144    8458.1239     2924.207    29.934468 -0.0029594901 -0.015255584 0.0090215494 
  285000    238.45447    16596.481     2924.207    28.870855 -0.017115181  0.013864077  0.027085702 
  286000    251.90709    8950.6524     2924.207    28.487184 0.0066121061 0.00072803657 -0.015826607 
  287000    272.11927    2315.0301     2924.207      31.9405  0.014470614  0.005541794 -0.016880103 
  288000    223.37119    19060.621     2924.207    34.401678 -0.0062914404 -0.013939671 -0.012709673 
  289000    257.78876    9443.5745     2924.207     32.08204 -0.035003264  0.026135334 -0.0023991256 
  290000    266.28107    7650.7653     2924.207    29.610121 -0.0087570472 0.00090059822 -0.033621574 
  291000    248.67115    11438.998     2924.207    26.699988  0.038012951  0.010211186 -0.0010387791 
  292000      245.312    8732.0945     2924.207    21.838926 -0.0030606694  0.022655412  -0.06051514 
  293000    252.29048    15413.911     2924.207    17.530838  0.047958984 0.0095438214 -0.017202784 
  294000    238.77108    11845.521     2924.207    15.365659 -0.036444492 -0.021872055 -0.0062364033 
  295000     251.2531    7665.5066     2924.207    15.747724 -0.035185506  0.012417228 -0.010295577 
  296000    256.57723    11677.922     2924.207    15.260629 0.0018555825 -0.023983418 -0.015475393 
  297000    252.56992     15849.57     2924.207    15.680419 -0.015929967 -0.012398266  0.013499829 
  298000    242.07842    7581.0216     2924.207     18.73131  0.036580067  0.022102257 -0.044700389 
  299000    246.07554    11985.577     2924.207    22.059092  -0.03597806 0.0027990947  0.047849957 
  300000    258.81053    9178.2329     2924.207    25.471323 0.0064275352 -0.0039956786   0.03436525 
  301000    231.85475    14014.339     2924.207    28.215674 -0.023744522 0.0028726458 -0.036634119 
  302000    248.91923    8745.3874     2924.207    29.766399 0.0083946151 -0.0027478129  0.017215684 
  303000    240.08102    4335.1981     2924.207     30.26358 -0.004656058 -0.017172402 -0.042649022 
  304000    250.38873    18720.749     2924.207     28.87682 0.0098444143 -0.0069802462   0.01394026 
  305000    266.02746     217.6419     2924.207     28.10691  0.011105805 -0.0099361296 -0.021560723 
  306000    248.12996    14697.305     2924.207    30.093351 -0.032013872 0.0071877021 -0.025985012 
  307000    265.59484     10140.39     2924.207      30.1072 0.0044314431  0.026698837 -0.0048590893 
  308000    262.15724    8048.6449     2924.207    29.369354   0.02098394 -0.025250214  0.010602024 
  309000    269.42252    10945.957     2924.207    27.598023 -0.038794419  -0.03429847 -0.0034037556 
  310000    252.11809    6797.8304     2924.207    28.050114 -0.015718763 0.0053620849 0.00043653512 
  311000    251.33084    14968.691     2924.207    27.939384 -0.0026109165  0.021330043 -0.038263312 
  312000    243.17695     4492.329     2924.207    27.631561 -0.022497417 -0.010425793 -0.0078073905 
  313000    267.22566    9044.0038     2924.207      27.9952 -0.022348642 -0.0029832998  0.031883306 
  314000    240.97339    15688.884     2924.207    29.015849  0.007216039 0.0027045267 -0.011605787 
  315000    247.06884    5850.8479     2924.207    29.622156 -0.0070710039 -0.0047383045 -0.012968144 
  316000    247.83036    12649.974     2924.207    29.928708 -0.028973917 -0.010569269 -0.011664031 
  317000    248.28766    15205.782     2924.207    32.638945 -0.022806013 -0.003315097 -0.019152615 
  318000    236.92912    10343.793     2924.207    33.792416 -0.0065797081 -0.010480972 -0.012689892 
  319000    228.35931    10065.648     2924.207    34.006967 -0.0072446094 -0.031221524 -0.029800445 
  320000    244.70207    17282.845     2924.207    33.804108 -0.013794959 -0.0021806253 0.0051097919 
  321000    243.38236    12638.164     2924.207    33.035563  0.011741352 -0.027189364 0.0073357005 
  322000    232.04809    7088.5864     2924.207    31.173216 -0.00034653538  0.025053632 0.0048700439 
  323000    267.87438    7729.4342     2924.207    27.749331 -0.041858412  0.013841478 0.0095663286 
  324000    243.43758    13985.017     2924.207    23.829125 -0.019862613 -0.010853152 0.00048888711 
  325000    247.70885    14687.993     2924.207    24.260018 -0.036025581 -0.0080227514  -0.01753658 
  326000    256.20243    -96.76854     2924.207    26.995545 -0.033210082  0.032722682 -0.022877919 
  327000     269.9432    13631.006     2924.207    31.044585 -0.007483629  0.010107016 -0.0081460647 
  328000    256.89556    9760.3265     2924.207    30.254609  -0.00983453 -0.0050469296 -0.024088684 
  329000    239.01117    8008.7369     2924.207    28.878084 -0.026838773 0.00081375853   0.02921393 
  330000    253.35291    13198.653     2924.207    29.561199  0.029086845  0.017363611 -0.014510195 
  331000    249.78403    12121.158     2924.207    34.283665 -0.024510198 0.00020390512  0.011347107 
  332000    269.20663    6426.5666     2924.207    35.752958  0.020780033  0.013285541  0.033401888 
  333000    249.30629    13292.789     2924.207    31.813401 -0.030890557 0.0016035534 -0.0011162622 
  334000    274.45046    2777.1174     2924.207    27.949832 0.0026300537  0.030141087  0.031005007 
  335000    242.66064    18243.374     2924.207    27.247043  0.018792785 0.0071132164 -0.010000392 
  336000    242.03556    7052.4468     2924.207    29.339835 0.0050041145  0.018790107 -0.013192701 
  337000    244.77684    13039.864     2924.207    31.706618  -0.01789447  0.019087739 -0.019953421 
  338000    257.91747    16801.752     2924.207    30.134269 -0.010865664  0.018222455 -0.034549132 
  339000    251.88259    6882.6141     2924.207     27.35615  -0.01022189   0.02240713  0.027369286 
  340000    228.69611    11780.216     2924.207     24.57413  0.012131347  0.025442668 0.0022879062 
  341000     251.4012    16059.612     2924.207    23.999637   0.02889824  0.016113669 -0.0089044862 
  342000    251.44609    53.209178     2924.207    27.583976   0.02303494  0.042595624  0.026570682 
  343000    235.11918    12996.446     2924.207    31.706989  0.048208463  0.025376513  0.028606711 
  344000    253.47172    17621.699     2924.207    33.540683  0.024439493  0.042582933  0.034719631 
  345000     245.6283    10661.184     2924.207    31.913714  0.013116007 -0.021565459  0.019890459 
  346000    237.80348    12493.776     2924.207    30.368331  0.031574808 -0.033622687  -0.01244617 
  347000     256.9023    12540.514     2924.207    30.185252  0.010060212 -0.0022910428 -0.0029132989 
  348000    241.41992    6113.7121     2924.207    29.603593 -0.016529702 -0.0074931831  0.015633053 
  349000    261.38618    11195.128     2924.207    26.884459 0.0023707012 0.0083780977  0.012790974 
  350000    254.14939     10092.67     2924.207    24.410742 0.0066969643  0.002913737  0.011154537 
  351000    254.22806    15223.442     2924.207    23.531603 0.0019473746 -0.0065850735 0.0084416205 
  352000    234.00075    3897.8697     2924.207    24.475824  0.046082184  0.053633026 0.0012899795 
  353000    250.93233    8962.7573     2924.207     25.99865 -0.011838192 0.0022523583 0.0038289859 
  354000    252.58392    12987.919     2924.207    27.258756  0.002049796 0.0013011482 -0.017326811 
  355000    230.18936    14067.925     2924.207    27.564083 -0.0014397276  0.014240296 -0.037557572 
  356000    242.96235     9043.333     2924.207    28.281831 -0.030063829 0.0079420387 0.0010077451 
  357000    237.09371     10787.09     2924.207    26.461131 -0.021152404   0.02193358 0.00097607093 
  358000    240.90754    12264.385     2924.207    24.316223 -0.0028778456  0.013185944  0.023253741 
  359000    255.06558    8792.2192     2924.207    24.440354 -0.0076987262  0.005314729 -0.0044824645 
  360000    262.86428    10870.208     2924.207    23.864106 -0.021545745  0.010707377  -0.01594285 
  361000    260.65977    9042.9007     2924.207     21.25456 -0.015194943  0.017480728 -0.012439041 
  362000    245.63306    14799.903     2924.207    21.454397 0.0020702054 0.0094768966  0.028247983 
  363000    240.83914    7131.4796     2924.207     25.18336 -0.045073975  0.013797986 -0.015594456 
  364000    255.60288    6573.5154     2924.207    27.534989 -0.040110062 -0.0052774946  0.038019096 
  365000    260.05524    16990.674     2924.207    24.742782 -0.022734487 -0.0068518582 -0.0099934921 
  366000    265.72815    5912.6908     2924.207    21.512376 -0.014942736  0.017680691  0.036651941 
  367000    261.88016    7885.1536     2924.207    24.142629 -0.029148164 -0.029505152 -0.014445238 
  368000    261.72257    11158.272     2924.207     30.19192 0.0012097644 -0.019336361 -0.0025552239 
  369000    252.11981    7457.2292     2924.207      34.7454 -0.010106181 0.0093286494 -0.0040584389 
  370000    251.91725    15924.838     2924.207    33.416207 0.0044695581 0.0083654787 -0.0029962378 
  371000    248.55667    7375.2897     2924.207    29.741971  0.029089861  0.024879796 -0.028706324 
  372000    259.15915    10614.088     2924.207    26.600383  -0.01876204 -0.0084698662 -0.028115749 
  373000    244.21639    10163.745     2924.207    25.413627 -0.029536251  0.033544299 -0.008626267 
  374000    245.88194     9847.541     2924.207    26.671703 0.0057488019  0.012821373  0.010609178 
  375000    251.95318     9220.259     2924.207     29.83511  0.020336744 -0.041661214   0.02066212 
  376000    259.49238    7502.2784     2924.207    31.454882 0.0032783932 -0.022608307 -0.022734682 
  377000     244.5226    16023.092     2924.207    31.326008 0.0084234095 -0.0085914054 -0.012883794 
  378000    250.87273    7029.8598     2924.207    28.644149 -0.036916284  -0.02806306 -0.039938827 
  379000    244.51932    7076.7543     2924.207    27.599111 -0.0073198442 0.0038301448 -0.048916815 
  380000    256.04217    16593.668     2924.207    29.576093 0.0055016193 -0.0023838473  -0.01599811 
  381000    250.78375    10396.819     2924.207    32.534411 -0.010183363 -0.025173364 -0.0032162691 
  382000    251.81143    9420.0032     2924.207     33.45163 -0.040508681  0.051664374 -0.028083585 
  383000    248.85268    10860.707     2924.207    32.618716  0.013799158 -0.059038048 -0.033588778 
  384000    252.35546    8529.9737     2924.207    31.426535 0.0097169594  0.017242742 -0.017208313 
  385000     245.8722    9604.6158     2924.207    30.234348 -0.016287007 -0.014227205 -0.020340487 
  386000    267.27491    4991.0512     2924.207    28.956043 -0.0084851061  0.004854925 -0.024311042 
  387000    252.33682    6799.7295     2924.207    28.199581 -0.013490482  0.016167858 -0.0089306487 
  388000    241.50266     13413.39     2924.207    30.322579 -0.021899467 0.0048778236 0.0094351285 
  389000    243.29753    13986.787     2924.207    34.655278 -0.0096920232 0.0081781969 -0.001034828 
  390000    242.96414     8907.844     2924.207    34.850158  -0.01637823  0.044100471  0.014158299 
  391000    244.85115    12243.807     2924.207    30.087802  0.020620071 -0.024246218 0.0033367884 
  392000    245.75816     8713.183     2924.207    25.788917  0.044570297 0.0020666931 0.0034640484 
  393000    233.55985    6191.0897     2924.207    24.557072 -0.0058695279 -0.0045609258 -0.014068168 
  394000    264.17771    7461.7598     2924.207    24.698995 -0.015290912 0.0045481202 -0.0052614309 
  395000    250.37606    13999.155     2924.207    25.828698 -0.011624204  0.014249208 -0.0087416304 
  396000    243.73552    10995.343     2924.207    26.138616 -0.035292899  0.011985646  0.023448769 
  397000    246.51057    5266.2982     2924.207    28.894517 -0.00042031146  0.012512816 0.0020467511 
  398000    245.82585     14277.62     2924.207    32.604544  0.027271876  0.028294998 -0.00065282373 
  399000    258.09937   -2431.7664     2924.207    33.564323 -0.054191199 0.0088652751 -0.0025375143 
  400000    246.53298    14439.087     2924.207    30.268934 -0.0087264028 -0.0081614795 0.0052793101 
  401000    251.06384    15168.058     2924.207     27.46187 -0.0025651109 -0.0040733234 -0.0059285571 
  402000    258.88751    9688.6844     2924.207    23.950725  0.016980026 -0.017280545 -0.015089269 
  403000    265.36218    10828.325     2924.207     25.35258  0.015019942 -0.012245985 -0.012455045 
  404000    267.63624    5783.5499     2924.207    30.157605  0.014331304  0.014153881  0.054197514 
  405000    247.07618    12904.404     2924.207    31.285363 -0.0029948596  0.017088901 -0.0029985592 
  406000    246.06669    753.14975     2924.207    30.427971 0.0044187011  0.027172802 -0.047760695 
  407000    246.03937    10519.051     2924.207    29.660542 -0.037101774  0.013051812 -0.014004269 
  408000    245.61185     9284.661     2924.207    30.313617 -0.017539381 -0.034121361  0.017029596 
  409000    263.26783    6910.4197     2924.207    30.184687 -0.0050746817 -0.0034220169 -0.011214819 
  410000    246.56296    11196.425     2924.207    30.474359 -0.017580706 -0.010082687 -0.044213746 
  411000    254.42427    7237.3316     2924.207    30.369582 0.00028857797 -0.017254072 -0.041195644 
  412000    257.17858     12111.07     2924.207    30.448114  0.031605832 0.00030431491  0.020685922 
  413000    248.10147    10064.011     2924.207    29.805502 -0.0071555211 -0.013297958 0.0017445613 
  414000    259.35912    1832.7967     2924.207    29.338726 -0.0069621266 0.0044486746 -0.020624922 
  415000    258.11833    14907.811     2924.207    29.789409  0.034746554  0.024405365 -0.0096430179 
  416000    233.69535    642.66227     2924.207    29.769237  0.039280619 -0.019310403 -0.0093976942 
  417000    267.04101    8683.7747     2924.207    26.694002  0.018362093  0.020926966  0.039425012 
  418000    244.99604    7489.5956     2924.207    20.903486  0.014922834  0.016119659  0.029411181 
  419000    265.98766    9846.6659     2924.207     16.86904 -0.0097174003  0.021831786 -0.016808153 
  420000    238.31248    13395.975     2924.207    16.984466 -0.024260117 -0.0054776544 -0.040673856 
  421000    248.79664    6682.5237     2924.207    19.357365 0.0017421479   0.01318635 -0.00017560482 
  422000    236.90245    11005.816     2924.207    21.836182  0.032361485  0.013033174  0.027821414 
  423000    263.21765    13876.726     2924.207    21.407282 -0.0045286649 0.0057424463  0.015625172 
  424000    238.61248    7128.8235     2924.207    21.396778 -0.018131269 -0.0072576575  0.031825588 
  425000    249.41523      9542.78     2924.207    24.796717  -0.02425311 0.0051875171  0.026068532 
  426000    245.11468    11990.798     2924.207    28.888004 -0.022920754 0.0033577267   0.01823919 
  427000    269.90093    6590.8471     2924.207    31.071226  0.005924759 0.0098313725 -0.043368639 
  428000    240.20637    9584.9929     2924.207     31.84971 -0.042489782  0.017381292 -0.0011365103 
  429000    230.05336    8017.4593     2924.207    30.938926  -0.01293931 -0.0092949737  0.016467913 
  430000    245.28999     10488.53     2924.207    26.668272  0.013619629 -0.0051732288 -0.0045142812 
  431000    252.06184    8469.2289     2924.207    22.554684 -0.027280219 -0.0082135768  0.004944665 
  432000    245.35689    4769.2016     2924.207    22.744215 -0.0039436528 -0.0005451396  0.026530909 
  433000    251.58308    8183.5095     2924.207    26.540079 -0.006675598 -0.043357066  0.053582576 
  434000    247.32216     14450.07     2924.207    30.360107 -0.020466476 -0.024705539  0.033562707 
  435000    244.89175    8018.5849     2924.207    33.503086 0.0063851318  0.020840351 -0.044331914 
  436000    251.88823    12624.315     2924.207     34.84416 -0.0016944089 -0.0015485035 -0.010487663 
  437000    260.50838    12922.896     2924.207    34.540189 -0.0095983697  0.012499162 -0.013827359 
  438000    243.52403     3254.742     2924.207    32.705619 -0.010594177  -0.03008267 -0.0084103275 
  439000    260.64938    17086.325     2924.207    31.605936 -0.030058629  0.019585299  0.011222298 
  440000    232.01136   -651.85177     2924.207    32.921757  -0.02911763 -0.0066846617 -0.015316905 
  441000    240.67547    15956.823     2924.207    34.820528 -0.012431631 -0.010095409 -0.026772488 
  442000    261.53153    4716.4345     2924.207     35.11354 5.2590711e-05 -0.035214491 -0.038201859 
  443000    243.24682    4252.1631     2924.207    33.375315 -0.026200468 0.00079524651 -0.0092561177 
  444000    255.01756    18624.504     2924.207    29.897963     0.021067   0.03131845  0.039137317 
  445000    246.98955    8051.0213     2924.207    25.493554 0.0092731998  0.023392609  0.012828165 
  446000    235.71637    6503.8355     2924.207    22.798874 -0.0012245674  0.019809755  0.024860936 
  447000    245.25608    6654.0844     2924.207    23.687641 -0.053068084 -0.0067244467  0.023260533 
  448000    250.73414    14080.419     2924.207    26.506021 -0.034144397 -0.023731176 -0.022925706 
  449000    253.28901     3932.939     2924.207    26.502127  0.012081059  -0.01955677 -0.0095625528 
  450000    265.25047    8263.8646     2924.207    24.884238 -0.0032520379 -0.030590875  0.017908351 
  451000    258.36845    12954.545     2924.207    26.112331 -0.041417626 0.0046387256  0.017586727 
  452000      257.205   -1614.1148     2924.207    28.653095 0.0022343987 -0.0075053301 -0.00090707595 
  453000    282.50919    10098.769     2924.207    29.551842 -0.0065097211  0.022615103 0.0053665047 
  454000    226.13691    18037.474     2924.207    31.673661 -0.039730763  0.021754267 -0.026973526 
  455000    244.15666    5251.6395     2924.207    33.557566 -0.025834954 -0.031251878 -0.017413853 
  456000    242.57096    10901.685     2924.207    33.928115 -0.0081120929 -0.0055743643 -0.016934395 
  457000    253.76772     15942.89     2924.207    33.207805 -0.023548453 0.00060974446   0.02023895 
  458000    243.17233   -2739.4694     2924.207    32.781956 -0.0088832712 0.0029474939 -0.002688462 
  459000    250.91158    18831.399     2924.207    28.944157 -0.023051405 -0.0057318599 -0.010445962 
  460000     235.7802    15773.344     2924.207    24.346268 -0.006373251  0.001187602 -0.061583931 
  461000    258.96652    407.61368     2924.207    21.672682  0.023766672  0.019244241   0.01250428 
  462000    252.67266     15789.56     2924.207    24.614666 0.0053486305 -0.00096601002 0.0063441793 
  463000    242.54976    10271.501     2924.207    28.471803 -0.011070795 -0.0089898681  0.030401776 
  464000    245.55855    3902.0123     2924.207    29.668822  0.019520725  0.017245202  0.010871569 
  465000    239.05475    10186.119     2924.207    28.072169 -0.013688805 -0.019701976 -0.0039351207 
  466000    257.45884    9044.8323     2924.207     25.01128 -0.025253808 -0.0094510232 0.0097769256 
  467000    233.51582    5855.2163     2924.207    23.899534 -0.024916022 -0.0050888516 -0.018236688 
  468000     238.1454    14976.677     2924.207    23.580616 0.0016679308  0.034989423 0.00077968743 
  469000    257.01006    8183.5359     2924.207     23.65802 0.0056045909   0.01469409 -0.00067661358 
  470000     260.6148    10301.026     2924.207     23.48297 -0.0026136841 -0.022053635 0.0092114244 
  471000     257.2893    9656.2402     2924.207    21.501377   0.01155498  0.019904175  -0.02996372 
  472000    246.41331    9168.0442     2924.207    21.676187 0.0067368499 -0.042681071 0.0036953194 
  473000    251.30403    17220.802     2924.207     24.82566  0.017797246 0.0038516423 0.0025554677 
  474000    244.40647     5940.435     2924.207    27.218473 -0.016173174 -0.0024942845  0.035654656 
  475000    256.00902    7433.4241     2924.207    29.036388 0.0043664396 0.0051085758 -0.0059642891 
  476000    252.69389    10648.069     2924.207    29.332736 -0.019940676 -0.0061248673 -0.006294054 
  477000    252.73949    9564.7709     2924.207    28.673689 -0.0087054846  0.021131153  0.012582614 
  478000    254.26768    6967.2668     2924.207    26.109074 0.0010525666  0.028327676 0.0014377449 
  479000    240.42943    15543.872     2924.207    23.908977 -0.014743781  0.032208835 -0.0038294601 
  480000    236.52452    -3129.885     2924.207    22.760108 -0.0084521541  0.015959934 0.0030958859 
  481000    247.65499    14460.512     2924.207    23.326678 0.0085884737 -0.0092793817 -0.0068811456 
  482000    261.88994    9864.9686     2924.207    24.026514 0.0079527728 0.0067035696 -0.023205341 
  483000    267.23748    8806.5963     2924.207    22.993961 -0.011144954 0.0072769498 -0.024316009 
  484000    242.80179    7408.2915     2924.207    19.773374   0.01709942 0.0029145402 -0.0074759724 
  485000    239.93249    9985.0796     2924.207     18.73172  0.018126257  0.010161963 -0.021815195 
  486000    236.02707    13276.644     2924.207    17.971796 0.0042316878    0.0123711  0.024270402 
  487000    230.64836    14601.677     2924.207    17.817575 -0.021574766  0.023491683 -0.019797374 
  488000    269.77541    4912.4524     2924.207    16.774852 -0.016828283 -0.030090018 -0.002151962 
  489000    252.73055    11288.035     2924.207    16.525814  -0.01600437 0.0054063346 -0.0029740223 
  490000    250.97416    8597.1516     2924.207    17.017722 -0.0022975615  0.036127926 -0.0063253957 
  491000    256.38282     3707.626     2924.207    19.466025  -0.01976276 -0.0059734032 -0.010253475 
  492000    256.18917     15184.52     2924.207    23.229806 -0.021778226  0.059675421 0.00059315108 
  493000    236.15287    10541.511     2924.207    26.658438 -0.010068678  0.016221745  0.010596382 
  494000    239.82935     7284.785     2924.207    28.092968   0.01123935 0.0071315703   0.02541113 
  495000    251.36748    12024.659     2924.207    27.650913  0.021244932  0.027986652 0.0042846678 
  496000    244.07418    14459.307     2924.207    26.470961  0.020607357 -0.001993062  0.012456183 
  497000    241.31238    3887.0837     2924.207    26.481011  0.013194609 0.00028430783  0.012209421 
  498000    254.57666    13031.626     2924.207    28.943993 5.4169496e-05 -0.035667949  0.029443764 
  499000    238.39815    7538.6521     2924.207    30.779785  0.011079523  0.035002831  0.004811593 
  500000    226.11137    7219.8423     2924.207    30.741691  0.034482028  0.026291982  0.024979209 
  501000    247.61041     11223.12     2924.207    29.720166 -0.016836377 0.0049223989  0.013439744 
  502000    253.78307    9802.4423     2924.207    28.770102 0.0090287472 -0.0090766753  0.019668144 
  503000     251.0421    6247.4909     2924.207    28.990948 0.0080149113 -0.010791379 -0.025589913 
  504000    250.69195    9872.2242     2924.207    28.194744 -0.031187935 -0.018206455 0.0057109105 
  505000    250.61925    10121.087     2924.207    27.813009 -0.0095988582 -0.012718677 -0.033617044 
  506000     249.7022    6372.8542     2924.207     28.27732 -0.00075971746 -0.012837022 -0.006695436 
  507000    236.91627    7960.1894     2924.207    29.147329  0.004306242 -0.0035982699 0.0076717389 
  508000    253.79886      9490.39     2924.207    28.299033 0.00099991006 -0.0088247824 0.0048007479 
  509000    240.38042    4359.8242     2924.207    30.687498 -0.026894591 -0.0027205505 -0.0011273537 
  510000    242.54544    10345.957     2924.207     32.32348 0.0069156584 -0.032889643 -0.014026844 
  511000    235.58898    10767.321     2924.207    32.423906 -0.034589731  0.005263048  0.020391231 
  512000    227.58858    6348.9819     2924.207     30.81324  0.026631557 -0.0040840323  0.010091355 
  513000    249.38555    7686.3745     2924.207    28.273008 -0.043686164 0.0021160723  0.021285205 
  514000    238.58716    12699.851     2924.207    29.816828 -0.032503255 -0.041476371  0.031580343 
  515000    235.29456    5776.4818     2924.207    32.247456 -0.030442188 -0.0010636844 0.0090549456 
  516000    242.77269    8897.1688     2924.207    34.158033  0.018048426 0.00071236599 0.0022894046 
  517000    239.69184    12497.342     2924.207    33.714508 0.0098969805 0.0042687786 -0.018333567 
  518000     235.8089    10955.527     2924.207    33.067562 -0.0070997984 -0.030190456 0.0097179351 
  519000    259.99463    13332.707     2924.207    31.931462 -0.0088732348 0.0031629024  -0.05023521 
  520000    252.20238    10148.537     2924.207    31.179952   0.03278967 0.0071208337 -0.028081033 
  521000    238.49227      3565.22     2924.207    29.838001 0.0080231111  0.013523999 -0.0052016503 
  522000    238.89833    11480.113     2924.207    30.147337  0.024222273   -0.0107532 -0.029915099 
  523000    256.02126    15309.204     2924.207    31.108211 -0.0086463984 -0.0096681937  0.023635655 
  524000     253.5849    5514.3215     2924.207    32.521916 -0.0058949152  0.016053051  0.024798511 
  525000    243.54098    6297.0407     2924.207    31.353811 -0.025751912   0.01754479 -0.011831057 
  526000    235.36099    11960.264     2924.207    30.136238 -0.0091390047 -0.018502311 -0.00013966611 
  527000    256.18763    4010.5751     2924.207    31.601078   0.03346373 -0.0050252845 -0.013675742 
  528000     257.7549    6815.3381     2924.207    33.614146 0.0053484555  0.019873805 -0.030994726 
  529000     237.6794    8693.2939     2924.207    34.706713 -0.0048377843 0.0026892408 -0.015085595 
  530000    238.90243    10095.635     2924.207    34.483399 -0.0041089621 0.0062335832 -0.027000119 
  531000    229.44603    12893.543     2924.207    31.704834  0.038632568 0.0030166052 0.0044248371 
  532000    256.05477   -3286.5354     2924.207    27.457138 -0.0055402091 0.0075164925 -0.0021116515 
  533000    246.70937    12414.534     2924.207    25.956937  0.017602197 -0.016383916 -0.021356448 
  534000    234.43253    13767.305     2924.207    25.007115   0.04618631 -0.027017244 -0.032115634 
  535000    252.72795    1469.0924     2924.207    24.777829 0.0033278411 -0.021107498 4.6436637e-05 
  536000    241.53709    10217.815     2924.207    25.077784  0.025308517 -0.017537299 -0.038358123 
  537000    224.67774    18984.051     2924.207    27.506083  0.032587619  0.038970875  0.003177373 
  538000    237.96464    8019.0901     2924.207    27.535321 0.0087617508  0.016745483  0.014454205 
  539000    245.94081    13136.947     2924.207    26.173189 -0.021402165  0.033926111 -0.013074095 
  540000    256.37472     3973.654     2924.207    26.430119  0.012838179 -0.0065990291 -0.012602886 
  541000    237.86732    12699.425     2924.207     27.84827 -0.015224315 0.0025487488 0.0049927824 
  542000    260.88522    9051.2753     2924.207    26.752252 -3.8895743e-05 -0.0062428685  0.028611402 
  543000    248.94806    2261.8717     2924.207    23.238294  0.012670816  0.027047568 0.0092820691 
  544000    255.68639    18038.551     2924.207    22.473442 -0.028754003 -0.018612888 5.9754493e-05 
  545000    236.97316    11828.557     2924.207    22.571113 -0.016661409  0.019447256 -0.0039540266 
  546000    259.54374    5491.9624     2924.207    23.586215 0.0023031987  0.029701331 -0.0050708727 
  547000    251.67674    7664.2096     2924.207    26.840767   0.02196163 -0.0099369961  0.044235126 
  548000      236.926    9892.7771     2924.207    26.202157  0.044998645 -0.0033832819 0.0039644537 
  549000    225.23069     13896.58     2924.207    24.841345 -0.0057754519   -0.0122096  0.026994298 
  550000    253.56671    13458.306     2924.207    22.728658  0.026663198  0.017568394 -0.0075753797 
  551000    238.86273     12883.75     2924.207    20.571284   0.01718455  -0.01890838 -0.012065902 
  552000    244.98402    1823.7359     2924.207    18.687786 -0.012949943 -0.018235191  0.019818817 
  553000    250.83908    17121.232     2924.207    17.800067 -0.028581807  -0.01120761  0.022353509 
  554000     240.8086    11451.164     2924.207     18.53533 -0.0038752593 -0.0026743431 -0.0010504784 
  555000    243.43615    6735.2929     2924.207    19.225796  0.015507638  0.030120437 -0.022217695 
  556000    241.90943    14677.043     2924.207    18.351418 0.0084730278 -0.028499584 -0.011605967 
  557000     243.3222    9771.1298     2924.207    18.993755 -0.0019900465 0.0036809205 -0.0084017844 
  558000    242.50281      9637.01     2924.207    23.829264   -0.0141869 -0.019225793  0.040189995 
  559000    252.40217    8858.1027     2924.207    27.863421 -0.054076311  0.001682832 -0.0014937637 
  560000    236.25512     9696.306     2924.207    30.949468   0.01555234 -0.0018098272 0.0039187028 
  561000    240.05657    12831.474     2924.207    32.173123  0.019685668 -0.0021235852 -0.014640202 
  562000    250.89138    8327.9022     2924.207     32.30291 -0.0049232688 0.0084657997 -0.012142158 
  563000    268.43538    10534.456     2924.207     31.86659   -0.0204613 -0.0047440084  0.015373427 
  564000    252.83769    13548.699     2924.207    30.386876 -0.0078383528 -0.027586003 -0.031341721 
  565000    243.42537     3804.857     2924.207    28.965398 0.0078281638  0.052937925  0.019604832 
  566000    238.80066    13080.085     2924.207    28.485229  0.029129697 -0.0067585716  0.021070287 
  567000    256.95668    8207.6861     2924.207    30.111062  0.025995942    0.0284435  0.014068735 
  568000     252.5532    4752.0349     2924.207    31.037779  0.030092989 0.0053960568 -0.020529594 
  569000    257.06866    14641.963     2924.207    28.795128  -0.01360186 -0.0080160943  0.033342522 
  570000    248.84395    8565.1919     2924.207    28.165064 0.0010415339 -0.0075100121 0.0085583044 
  571000    243.10268    8007.8933     2924.207    27.635577  0.015143533 0.0016574582  0.013164335 
  572000    252.50738    14049.608     2924.207    29.361401   0.03263772 -0.0050935637 -0.012163706 
  573000    245.27891    7918.7021     2924.207    32.259126 -6.5094227e-05 -0.016314099 -0.009780073 
  574000    246.52897    13907.935     2924.207    32.063855 -0.011272501  0.023448232 -0.014358278 
  575000    234.64773    14077.104     2924.207    28.071182  0.012157094 -0.011080166 -0.016493889 
  576000    250.84419    13969.151     2924.207    23.582526  0.014204351 -0.036964175 -0.027465118 
  577000    254.57865    7920.6571     2924.207    21.599872 -0.0042815382 -0.036113214 0.0055078247 
  578000    250.52208    7840.5383     2924.207    19.803593 0.0024061642  0.015222633 -0.0035583178 
  579000     237.6763    13735.233     2924.207    18.854204 -0.022194199 -0.0062017242 -0.040989232 
  580000    231.44408    2088.0035     2924.207     20.01213  0.016342119  0.030481555 0.0096544401 
  581000    241.68758    19229.677     2924.207    23.293389 -0.0017032722 0.0019513575  0.001341931 
  582000    235.37515    2922.7937     2924.207    26.702549  0.010917051 -0.0090223408 -0.023419974 
  583000    254.19286    12867.527     2924.207    30.700137 -0.023887067 0.0080652143 -0.0091342215 
  584000     240.0733    15889.408     2924.207    28.947812 -0.0090926415  -0.01973968 -0.021221665 
  585000    255.30717     91.56737     2924.207    25.981781 -0.0097666531 -0.0077796856 -0.00062971755 
  586000    252.59155     7184.436     2924.207    24.303386 -0.039276176  0.019958296  0.002271205 
  587000    238.77036    16017.545     2924.207    22.871213 -0.011252178 -0.022566583 -0.014589602 
  588000    225.75636    9010.6791     2924.207    23.415192   0.02312475 -0.022433257 -0.032287909 
  589000    228.65858    3959.9843     2924.207    24.717737  0.036596952 -0.0057803233 -0.0023617426 
  590000    242.69729    12103.753     2924.207    25.880962 -0.023881221 -0.011754795  0.022837344 
  591000    259.33144    11259.665     2924.207    26.944601 0.0049363018  0.018059156 -0.015449911 
  592000    259.64184    7017.6009     2924.207     31.41013  0.015921589 -0.052386408 -0.027089242 
  593000    250.97413    17870.522     2924.207    31.763713 0.0034299458 -0.00032787291   0.01007081 
  594000    240.49732    2111.0164     2924.207    30.101481  0.027381319 -0.017713868 0.0096154888 
  595000    246.23456    4894.8456     2924.207    28.366574 -0.011299697 -0.023259924  0.015044181 
  596000    245.93161    19522.162     2924.207    25.593484 0.0054967813 -0.033871732  0.028445825 
  597000    255.52674    2890.4977     2924.207    22.987748 0.0059364005 -0.015707074 -0.012769814 
  598000    260.32885    6767.9948     2924.207    22.002321 -0.014284625  0.013741811  0.012621694 
  599000    255.16748    11793.208     2924.207    22.178375 0.0058462489 0.0096088655 -0.010444672 
  600000    250.68357    5402.3017     2924.207    22.494957  0.033787762 -0.034731025  0.050202461 
  601000    261.49068    4618.6379     2924.207    19.580906  0.019223413 -0.0074300713 -0.0005659112 
  602000    227.71162    15009.737     2924.207    20.148915 -0.016423648 -0.0051536645  0.025185239 
  603000    251.04655    9738.8936     2924.207    20.810705 -0.030026159  0.013706059 -0.010554421 
  604000    240.07318     7840.654     2924.207    22.411145 -0.012222486  0.008213543 0.0019318405 
  605000     234.9324    4730.3081     2924.207    24.812992 -0.0046455977  0.027197613 -0.0084493451 
  606000    229.57495     13870.38     2924.207    25.130508  -0.01926892 -0.0038497402 0.0091352995 
  607000    231.59365    10100.145     2924.207    25.102542 -0.040967478  0.045583373 -0.018833873 
  608000    246.01124    10238.327     2924.207    27.502875 -0.00060429781 -0.007546873 -0.017824183 
  609000    240.86675    8936.5918     2924.207     29.47346  -0.01363513 -0.001911043  0.021645208 
  610000    234.40275    6695.1463     2924.207    31.468406 -0.0071107348 -0.041860565  0.016837827 
  611000    252.90768    9545.6155     2924.207    29.627682  0.026124235 -0.033118194 -0.0058570581 
  612000      259.831    3690.9927     2924.207    25.277257 -0.034673113 -0.031712055  0.011437399 
  613000    246.76677    15556.912     2924.207    22.573582  0.013840894 -0.009993307 -0.0078682944 
  614000    235.53348    13854.699     2924.207    23.940087 -0.0090786896  0.010562887 -0.0020520782 
  615000    240.67957    35.205216     2924.207    26.465298 -0.042446866  0.023401609 -0.023890143 
  616000    235.96563    13287.439     2924.207    27.158138 -0.0092048501  0.026821136  0.010380104 
  617000    247.94131    12506.761     2924.207    28.359014 0.0082192039  0.027133387  0.012453195 
  618000      258.373    2455.9385     2924.207    27.592286 -0.020491931 -0.014563156 0.0036446703 
  619000    247.03219    8913.6451     2924.207    27.584828 0.0012497007 -0.0090634406 -0.023718445 
  620000     237.6044    1944.1983     2924.207    28.254395  0.002045863 -0.013166256 0.0036542308 
  621000    239.51898    16138.434     2924.207    27.004578 0.0077867491 -0.017182541  0.036091283 
  622000    247.19857    7696.2968     2924.207    28.180029 -0.033166173 -0.012973451  0.027749949 
  623000    249.66062    5513.9552     2924.207    28.570757  0.020805069 0.00081749122 0.0035470966 
  624000    247.04636    12268.998     2924.207    28.702747 -0.0028742136 -0.021037081   0.02684563 
  625000    225.34034    7559.9084     2924.207    28.958935 0.00030689282 -0.00044035941 -0.0048228832 
  626000    241.45274    8432.4598     2924.207    28.718875 -0.0076151928 -0.014812919 -0.021308551 
  627000    239.20257    12943.085     2924.207    29.542582  0.010731766 -0.011968889 -0.0005884808 
  628000    252.12803    1032.3751     2924.207    30.095875 -0.015072538 -0.0071594435  -0.01413635 
  629000    247.23912    14881.833     2924.207    30.335617   0.02950802  0.012130892 7.4673112e-05 
  630000    253.05766    12256.227     2924.207    29.409659 0.0052987228 0.0078520813 -0.0030498747 
  631000    244.68737    8115.7493     2924.207    28.261884 -0.0021035896  0.013030389 -0.0050671356 
  632000    259.80989    3584.9628     2924.207    30.396002 0.0030489845 -0.011106935 -0.018160647 
  633000    236.75896    6803.0837     2924.207    32.743975  0.015401344 -0.0054163194  0.010631946 
  634000    243.20057    11638.476     2924.207    32.207853  0.034794582 -0.013716571 -0.0090615113 
  635000    242.88155    7581.9286     2924.207    30.473421 0.0074346615  0.011815377 -0.025861202 
  636000    239.35046    8318.3836     2924.207    28.446827 -0.0070273017 -0.0054832814   0.02519121 
  637000     262.3961    13596.169     2924.207    25.436423 0.0064758578 0.0091251928 -0.025528956 
  638000    258.26694    8674.9248     2924.207    25.734759  0.024238138  0.001854823  0.033686837 
  639000    257.30515    4094.5555     2924.207    25.574206  0.011466959 0.0074957922 -0.017510979 
  640000    240.74366    13556.356     2924.207    24.613912 -0.026260436  0.019055412 -0.011952601 
  641000    239.19432    15563.792     2924.207    24.756924  0.011770308 -0.0045429629  0.032563031 
  642000    238.37767   -1219.6415     2924.207    25.809861 0.0068970181  0.026705259 -0.017215631 
  643000    262.82831    16340.599     2924.207    24.645827 -0.0095927747 -0.0010545299 -0.0023103447 
  644000     238.0895    8053.4054     2924.207     23.39423  0.028502343 0.00044656071 -0.028720015 
  645000    254.75375    4662.9097     2924.207    21.847123   -0.0359477 -0.011201095 -0.044443608 
  646000    237.76168       6425.2     2924.207    20.240617 0.0084345606 -0.020307058  0.027239422 
  647000    241.04603    7721.9382     2924.207    20.385494   -0.0164289 -0.0077897216  0.021313786 
  648000    236.81207    9269.0721     2924.207    22.021791 -0.027345344 0.0088014084  -0.01153574 
  649000    249.37642    4078.7902     2924.207    22.718449 -0.017486466  0.013224331 -0.014359078 
  650000    230.69622    9924.8315     2924.207    23.522385 0.0052378194 -0.030010777 -0.019664298 
  651000    252.88746    8524.1426     2924.207    25.210891 -0.015227351 -0.020195368  0.022850834 
  652000    232.91288    8478.7457     2924.207    27.627162 -0.060520458 -0.013581199  0.030334562 
  653000    236.88899    8203.0854     2924.207    29.942982 -0.025220333 -0.013452597 -0.0083839139 
  654000    245.85382    9756.1685     2924.207    30.167326 -0.023608421  0.024681488  0.016402726 
  655000    231.07151    11166.778     2924.207    31.920907 -0.025469037 0.0073249715  0.010011153 
  656000    233.59654    10231.012     2924.207    33.857701 -0.0092494169    0.0152581  0.025398808 
  657000     246.5885    8132.3122     2924.207     31.94726 -0.024548891 0.0082895197  0.020722064 
  658000    251.67674    11243.986     2924.207    28.686795 -0.011422408 -0.0053035157 -0.017239637 
  659000    238.64926    5704.2363     2924.207    26.404327 0.00037591139  0.021264521 -0.017727003 
  660000     238.0942    8602.3419     2924.207    23.082534 -0.011064555  0.025923631  0.018321687 
  661000     236.0379    12872.873     2924.207    21.073174   0.02446417 -0.010850103  0.031923638 
  662000    238.77114    5798.0059     2924.207    22.638258  0.009862502  -0.01899593 0.0086030019 
  663000    257.09841    11722.468     2924.207    24.777947 -5.172455e-05 -0.0036219302 -0.049065901 
  664000    254.27978     10382.14     2924.207    24.328089  0.038999548 -0.026174301  0.035938996 
  665000    242.83212    1960.4322     2924.207     24.33771  0.011376525 0.0058817417  0.015746501 
  666000    247.17377    8123.5219     2924.207    25.267723 -0.00071781138  0.006425414 -0.0044725784 
  667000    252.15842    10389.967     2924.207    23.696084 -0.0032855932 -0.0061609566  0.021783471 
  668000    241.81558    6767.9899     2924.207    23.078714  0.025261609 -0.0056847338 -0.0038431483 
  669000    248.25869    7483.3665     2924.207    24.380567 -0.011547617  0.026806636  -0.02113756 
  670000    264.43603     13822.36     2924.207    25.559443 -0.033983045 0.0064955943 -0.018375948 
  671000    232.92269    4501.5207     2924.207    24.685179 0.0024315871 -0.010750906 -0.018347665 
  672000    241.69055    9216.4387     2924.207    22.025183 -0.0051928184 -0.0042432177 -0.016626054 
  673000    242.90833    17249.991     2924.207    20.505982 0.0076045281 0.0067367831 0.0002492384 
  674000    243.15369    3928.6687     2924.207    19.765154  0.021898266 -0.022817415  0.013514372 
  675000    225.88007    12068.371     2924.207    20.901425  0.034493134 -0.005563131  0.036187474 
  676000    250.00725    11651.338     2924.207    22.353642  0.017572636 -0.017583983  0.029928792 
  677000    241.04329    1293.0018     2924.207    23.770657  0.025586189 -0.025019314  0.033893409 
  678000    245.19866      4737.75     2924.207    25.950885  0.011611922 0.0096484362 -0.00024234805 
  679000    239.00643      16450.5     2924.207    29.038978  0.035046959  -0.02708313  0.021755822 
  680000    247.64024    7693.8663     2924.207    30.604841 -0.00085306096  -0.01743486   0.01440892 
  681000    243.17407    2024.8589     2924.207    32.700958  0.035251634  0.021263861  0.011732235 
  682000    250.26784    14657.089     2924.207    32.641821 -0.0053919709   0.01229692  0.035214614 
  683000    247.91757    9334.6397     2924.207    31.827299 -0.029269524  0.016325381 -0.013697344 
  684000    248.88806    8486.2999     2924.207    32.986999 -0.035262499  0.017546626 -0.013262875 
  685000    253.77889    15085.083     2924.207    32.430136 0.0073950592 -0.0071020671 -0.030926477 
  686000    229.11223     9522.282     2924.207    32.353196 -0.023539392  -0.01774677 -0.013058364 
  687000    246.48117   -1077.7711     2924.207    31.364625 -0.007668343 0.0058732868 0.0029266141 
  688000    252.34925    17386.007     2924.207    29.612314  0.026707901 -0.015678176 -0.014621224 
  689000    240.99666    8641.2922     2924.207    25.190732 -0.0023717548 -0.019744712 -0.0099311362 
  690000    248.80909    8923.5059     2924.207    23.450235  0.014658653  0.012091302  -0.01067044 
  691000    238.75874      5664.52     2924.207    23.858837  0.028624861 -0.0046787598 0.0063867106 
  692000    236.19429    11013.455     2924.207     26.08988   0.01950104 0.0095795221 -0.00060113373 
  693000    239.44582     10310.32     2924.207    28.811604  0.018117666 0.0049870672  0.014157905 
  694000    238.60933    11416.304     2924.207    27.241481  0.025321477   0.03033179 -0.0072574368 
  695000    240.20875    12725.832     2924.207    25.514117 0.0060237216 -0.010537877 -0.030202089 
  696000    240.49628    7073.2631     2924.207    24.167638 -0.015245462 -0.0078018816 -0.016556629 
  697000    239.34985    4284.0372     2924.207    25.926748 -0.031725764  0.010667067 -0.012133327 
  698000    230.96269    8374.7873     2924.207    28.569655 0.0067918011  0.010069103 -0.0097699328 
  699000    237.17766    10140.164     2924.207    32.172863  0.012796288 -0.019755515 0.0053106025 
  700000    240.44833    2143.3429     2924.207    34.949385 0.0098490714   -0.0232265 0.0047730861 
  701000    234.33846    11261.705     2924.207    35.185559 -0.0019595351 -0.019550781  0.017803258 
  702000    240.04444     7404.664     2924.207    35.006013 -0.0076451975 -0.016019796 0.0033511064 
  703000    248.77517    6880.4834     2924.207    34.553507  0.012281579 -0.018838624 -0.016909196 
  704000    244.51361    9834.2606     2924.207    32.519356 -0.027702812 0.0014082458  0.031655352 
  705000    249.21749    8671.6403     2924.207    29.600086 -0.018804934 -0.0020689165 -0.024851872 
  706000    242.71408    13260.812     2924.207    26.617365 -0.016891654  0.022898672  0.024917822 
  707000    257.22732    2216.1595     2924.207    25.507026 0.0092316372  0.024156194  0.017232276 
  708000    239.44817     4489.659     2924.207    27.642376  0.010518626  0.041779399 -0.013483493 
  709000    234.49858    15403.415     2924.207    29.978155 -0.031070089 -0.046239114 -0.0098754664 
  710000    252.94891    8095.4321     2924.207    30.198051 0.0080420219   0.02472899  0.034974544 
  711000    240.20297     7162.058     2924.207    29.981611  0.018161004   0.01129494  0.018414066 
  712000    238.13504    8356.2157     2924.207    29.196012 0.0056818046 -0.038094533 -0.022649171 
  713000    240.77047     1259.343     2924.207    27.551274 -0.0057059667  0.012641904 -0.011471273 
  714000    246.06448    15247.514     2924.207    27.909051  0.024553498 -0.0039452101 0.0089481955 
  715000    237.33585    13246.196     2924.207    28.791168  0.010406502 -0.029858544 -0.0089217499 
  716000    230.83661    7042.1759     2924.207    28.685294  0.048866293 -0.021693814 0.0046718882 
  717000    245.83861    13257.895     2924.207    28.242283  0.043602372 -0.028752571 -0.016063925 
  718000    243.49347    4826.3271     2924.207    28.519068  0.018185142 0.0028545863 -0.021276691 
  719000    245.57414    13019.589     2924.207    29.879669 -0.024069756 0.0094621939 -0.0097953035 
  720000    255.29866    5509.8142     2924.207    32.164539  0.026406527  0.015810984 -0.0042904027 
  721000    247.06399    4845.6138     2924.207    32.259666 -0.00047721277 0.0061926732  0.018180098 
  722000    244.83094    3842.7992     2924.207    30.237686  -0.01491448 0.0020479904  0.014616383 
  723000    232.00132    11025.152     2924.207    27.386764  0.012801173 -0.025671276  0.031116173 
  724000    246.86566    11348.611     2924.207    23.961338 -0.0026036449 -0.032195987 -0.016119452 
  725000    243.56614    3644.7064     2924.207    22.692673  0.010536481 -0.011357204  -0.00989788 
  726000     247.2626    11953.071     2924.207    22.858527  0.015143759 0.0066494687  0.010336148 
  727000    246.06354    11772.721     2924.207    23.063338 -0.001387888  0.010931946 -0.016390191 
  728000    245.97151    2261.5099     2924.207    21.997865  -0.01622137 -0.032132873 -0.0064374763 
  729000    238.86559    9803.8905     2924.207    20.406976 -0.050596936 0.0087206289 -0.0041227797 
  730000    250.25717    9647.4367     2924.207    19.035897  0.016790549 0.00025312712 -0.018229198 
  731000    236.32208    7205.9547     2924.207    20.202427 -0.0072124054  0.017668205 -0.031670297 
  732000    235.87017    17936.867     2924.207    18.932916 0.0014928931 -0.022673333  0.027925195 
  733000    254.97457    6731.9302     2924.207     17.01428  0.036885837 0.0047527222 -0.023962967 
  734000    234.00789    7523.2097     2924.207    16.995335 -0.001009827 -0.0033204299  0.021368935 
  735000    237.88651    5568.7061     2924.207    18.440944 -0.022902674 -0.023261209 -0.0094612607 
  736000    237.72258    9851.7574     2924.207    19.124929 -0.0023793306 -0.0047108457 -0.0017701592 
  737000    239.24707     8932.828     2924.207     18.55158 -0.013050384  0.025138171  0.016079493 
  738000    244.56194    12254.961     2924.207     18.34531   0.03196315 -0.021333203 -0.016589199 
  739000    241.66886    8229.1963     2924.207    19.988847 -0.005325196 0.0098299975  0.026233225 
  740000    245.44969    4305.6019     2924.207     21.66109 -0.026439211  0.016442268    0.0128938 
  741000    247.09539    12692.229     2924.207    23.721073 -0.013971198  0.017588268 -0.017888428 
  742000    229.18154    4548.4226     2924.207    27.057312 -0.020418033  0.018463773 0.0068907168 
  743000    264.43794     12777.22     2924.207     29.45306  0.003684014   0.02006056  -0.02962478 
  744000    246.18384    8637.2318     2924.207    30.048301 0.0088221759 -0.017363585 0.0075849008 
  745000    234.56269     5027.161     2924.207    30.131555 -0.0030162121 -0.0075172386 -0.021628134 
  746000    252.32298    13254.948     2924.207      30.9724  0.036760178  0.032374757  0.028580739 
  747000    244.28655    3279.9311     2924.207    30.613515   0.00350585 -0.013857702 0.0064740052 
  748000    235.06549     11806.66     2924.207    29.489966  0.045896874 -0.022191033  0.010426913 
  749000    224.95608    12924.983     2924.207    30.243435 0.0046013099 -0.0085191655    0.0171809 
  750000    251.14914    7517.5396     2924.207    31.038937  -0.01026314 -0.039087589 0.0040779143 
  751000    251.43031    10572.904     2924.207    30.874434 -0.012017412   0.02789516 -0.0044596074 
  752000    249.55506    11477.369     2924.207    30.760147 -0.015433501  0.020493137 -0.029230753 
  753000    252.42817    9204.9605     2924.207    31.103254 -0.021674382  -0.03991818 0.0090344199 
  754000    257.50677    3426.0851     2924.207    30.452808 0.0074882001 -0.019732712 -0.018160112 
  755000    235.57633    10413.123     2924.207    28.662768  0.046584814 -0.024829015 0.0067379831 
  756000    226.48232    12346.939     2924.207    28.586004  0.012514291 -0.021454068  0.015531845 
  757000    228.56519    12843.982     2924.207    27.931388 -0.020489701 -0.019662713  0.010886745 
  758000    239.47958    3462.4916     2924.207    28.401596 -0.0030719248 -0.0020914934 -0.0029634634 
  759000    224.94754    16655.149     2924.207    28.981234   0.02620002   0.01737442 -0.0069056312 
  760000     246.8622    8304.7029     2924.207    28.868191  0.015004488 -0.015253392 0.0059246368 
  761000    242.52079    7153.6833     2924.207    29.816063  0.017805117 0.0048859281 -0.004061499 
  762000    249.88672    6464.3072     2924.207    30.309788  0.029339474 -0.015740396    -0.035466 
  763000     249.1855    8953.5432     2924.207    31.691306 0.0090172361 -0.022914209 0.0093320078 
  764000    229.36118    7828.7677     2924.207    32.470539 -0.0062461883 -0.029699304  -0.00217755 
  765000     241.3072    10399.804     2924.207    32.883349 -0.00045786687 -0.017559331  0.028174242 
  766000    238.95558    11973.287     2924.207     31.57658 0.0065090442  0.038482394 0.0059563222 
  767000    237.36995    11175.731     2924.207    29.045602 -0.020526894 -0.009046857  0.007092545 
  768000    253.94267     12623.31     2924.207    27.517536 -0.041260166 0.0031759238  0.010379063 
  769000    234.88309    2907.7444     2924.207    23.940616 -0.0099440067  0.024392497  0.010192105 
  770000    238.54427      15923.9     2924.207    21.956504  0.012812178 -0.045850523 0.00040299497 
  771000    224.73555    7352.5221     2924.207    21.789412 0.0096767453  0.025378027 -0.011556108 
  772000    249.84817    5460.9166     2924.207    24.201929 -0.0049523593 -0.030744354  0.042873577 
  773000    244.23443    3515.4919     2924.207    25.856451 -0.008363585 -0.029903697 -0.027319605 
  774000    257.12518    11495.051     2924.207    27.189921 0.0090615532 -0.0061504254  0.017049336 
  775000     242.3477    10761.038     2924.207    27.654063 0.0098370301  0.015037691  0.033531886 
  776000     253.9488    8061.4931     2924.207    27.424528  0.019101402  0.015004184  0.027718496 
  777000    244.60627    9263.4786     2924.207    26.906195 -0.011772245 0.00012701611  0.022617384 
  778000    236.18558    8377.4143     2924.207    24.590508 -0.010854604 -0.0046725165  0.018809326 
  779000     232.6424    6031.4971     2924.207    23.739414 -0.0075647467   0.02457271  0.024639155 
  780000    244.63064    12583.573     2924.207    22.932467 -0.016633197 -0.020416291  -0.02937761 
  781000    251.39766    6250.7637     2924.207    20.628383  0.019578363  -0.01258308 -0.033100063 
  782000    249.26234    11722.181     2924.207    19.922755  0.017739505  0.016659959 -0.014717682 
  783000    233.81044    10438.197     2924.207    20.997963 0.0043818878 -0.028319124 -0.0047361078 
  784000    242.01075    8726.2708     2924.207    22.313119 -0.00064301486  0.028723476  -0.01968983 
  785000    258.83352    7884.1684     2924.207    23.011703 0.0013335433 -0.0066805894 -0.012894297 
  786000    227.02562    13586.508     2924.207    24.867163 0.0085415448 -0.015290585 -0.021611165 
  787000     254.0409    10231.049     2924.207    27.917494 0.00090097528  0.015319759  0.012298266 
  788000    232.13667    10442.144     2924.207    29.761506  0.027362034 0.0063621662 -0.0042536973 
  789000    249.33477    8667.5799     2924.207    29.738364 -0.013175475 -0.0030825514 -0.026598635 
  790000    243.91061     8041.779     2924.207    28.820835 0.0065721803 -0.018033038  0.040289044 
  791000    249.16267    2973.2969     2924.207    28.021105 -0.0079117815 -0.0031785222 -0.0044799386 
  792000    254.90544    14955.958     2924.207    26.895916 -0.0045182344 0.0052099473  0.020240288 
  793000    248.60601    10893.733     2924.207    24.506398  0.011794344 0.0040689349 -0.026160127 
  794000    239.31106   -1089.6511     2924.207     23.24577 -0.022190769 -0.020751792  0.040469615 
  795000     255.1322    10074.733     2924.207    24.199854  0.011563649  0.046930297 -0.0013814312 
  796000    240.32481    7171.1514     2924.207    25.625106   0.01745501  0.037878368 -0.0073624534 
  797000    245.74292    10320.234     2924.207    24.909069  -0.00926505 -0.015693801 0.0015837543 
  798000    243.69533    12163.066     2924.207    23.186878 0.0065350524  0.038382314 0.0066842566 
  799000    233.05965   -809.55702     2924.207    24.613161 0.0050870703  0.011235513  0.010128052 
  800000    246.45659    13496.179     2924.207    25.432943  0.009508356 -0.005037078 -0.010161919 
  801000      245.401    6849.3708     2924.207    26.975396   0.02221912 -0.0091268831 0.0044517477 
  802000    237.19007   -715.04693     2924.207    26.562029 -0.003884826 0.0038769258 0.0088481215 
  803000     236.3786    8391.9398     2924.207    25.260969  0.026185943 0.0075745422 0.0026780034 
  804000    248.28166    15362.539     2924.207    21.842728 -0.011520595 0.0088887016  0.013903597 
  805000    242.62014    6687.2386     2924.207    16.953477 0.0090296371 -0.0046697183  -0.01146829 
  806000    234.30998    5811.3501     2924.207     14.88194  0.013347506   0.02132565 -0.041269562 
  807000    241.55769    7083.4347     2924.207    13.469898 -0.015819939  0.044614919  0.011474123 
  808000    255.39997    8611.0718     2924.207    12.719093  -0.03642559  0.016843044 0.0062780042 
  809000    248.61595    10939.763     2924.207    12.830476 -0.011303229 -0.016716314 -0.015613649 
  810000    261.84551    7260.9655     2924.207    15.268788 -0.013184148 -0.00070344403  0.021518888 
  811000    237.55332     8799.338     2924.207    18.138347 -0.010930103 0.00077330941 -9.5250907e-05 
  812000    241.77538    10738.117     2924.207    21.052817 -0.038525003 -0.0033363223 -0.037099384 
  813000    250.53001    1673.1739     2924.207    22.220111  0.018032068 0.0037688465 -0.014332665 
  814000    247.62033    9035.5349     2924.207    23.380691  0.015594311 -0.010602849 -0.00042861097 
  815000    250.65785    15155.824     2924.207    25.188289  0.041680549 0.0045122307 -0.026898177 
  816000    231.89285    7319.2379     2924.207    27.477255 0.0021519893  0.011975214 0.0060532478 
  817000    252.80233   -205.00049     2924.207    26.932878  0.037578997 -0.0021666963  -0.03178382 
  818000    248.41565    12292.364     2924.207     27.03153  0.046357613   0.01618821 0.0032490561 
  819000     241.0211     4029.627     2924.207    29.820762 -0.0029040953 -0.023371021 0.0033241466 
  820000    227.54564    8711.5295     2924.207    32.159192  0.054164066 -0.019277822  0.042765413 
  821000    259.57652    2932.1589     2924.207     33.67533 -0.0053970822 -0.059757221 -0.0092721272 
  822000    258.27083    3756.0912     2924.207    34.268937 0.0088855828 -0.018216096 0.0061065707 
  823000    241.07892     13904.58     2924.207    34.341535  0.045574151 -0.014871616 -0.034122141 
  824000    246.47787    5490.6363     2924.207    33.994114  0.039565698 -0.00017795731 -0.037151841 
  825000     240.7195    7059.6766     2924.207    34.273132 0.0039405828 -0.0049335802  -0.01310244 
  826000    248.50318    5867.1995     2924.207    33.827727 -0.0081046007 -0.016479592  0.047449184 
  827000    238.55702    10304.709     2924.207    33.335774 0.0031445732  0.016917784  0.012460578 
  828000    242.78988     9552.836     2924.207    32.706291 -0.00051575473 -0.0073834468 -0.041745404 
  829000    251.96628    8867.0398     2924.207    30.739618 -0.0008061912 -0.0031446462  0.019351449 
  830000    260.94751    6934.6018     2924.207    29.120427 0.00093206377 -0.012431179  0.010881562 
  831000    237.58789    10094.262     2924.207     28.14641  0.019973206 -0.010769036 0.0033741007 
  832000    246.24933    9925.5212     2924.207    28.897767  0.017348793 -0.005884431  0.011878384 
  833000    261.80204    5903.4111     2924.207    30.621783  0.008551897  0.023314818 0.0033907517 
  834000     250.8583     13609.49     2924.207    30.538647 -0.00059058313 -0.0092031231  0.036536264 
  835000     245.2923    8446.6849     2924.207    31.555593  0.014857321 0.0090866272 -0.049473666 
  836000    248.38838    7962.3544     2924.207     32.70241 -0.0092624028 0.00086444882 -0.0090026317 
  837000    235.37338    12589.951     2924.207    32.946578 -0.0021746097 -0.016243677 -0.010207554 
  838000    244.16628    4064.7238     2924.207    33.995035  0.012535321 -0.032013332 -0.020263109 
  839000    244.12279    11012.716     2924.207    33.539438 -0.021253532 -0.020042796 -0.011969976 
  840000    232.78351     3772.831     2924.207    33.607344 -0.0076743747 -0.017431798 -0.012185836 
  841000    251.16896    8201.9195     2924.207    31.730823 -0.0058126603 0.0016273851 -0.0053970163 
  842000    225.72969    12135.323     2924.207    30.739805 -0.012330466  0.039014617  0.014713543 
  843000    255.20593    7262.7501     2924.207    31.310581 0.0026597493 -0.0055831918  -0.01872499 
  844000    242.11563    6764.3652     2924.207    31.440587  0.003019218  0.019358792 -0.0093125336 
  845000    237.27541    7861.3919     2924.207    30.546114  0.016238023  0.025492478  0.031758767 
  846000    243.23849    8006.1363     2924.207    28.997294 -0.028450032  -0.01775719 -0.0099618474 
  847000    244.25144    6516.8053     2924.207    26.423283 -0.0050460902  0.027856788 0.0067848244 
  848000    237.83345    9188.5048     2924.207    24.872405 -0.012460362 0.0013087201  -0.02240414 
  849000     257.2287    1918.6969     2924.207    24.894228 -0.0068568243  0.012560984 0.0035862296 
  850000    231.05789    13949.438     2924.207     25.24971 0.0044841694 -0.032862934  0.024842425 
  851000    235.91042      9756.15     2924.207    26.906695 -0.029953773 -0.037548204  0.001950384 
  852000    233.76088     6493.063     2924.207    25.831164 0.0014962713 0.0017686421 -0.051607086 
  853000    242.50237    6226.9168     2924.207    22.437023 -0.012676567 0.0055393075 -0.025789728 
  854000    243.02314      9672.96     2924.207    22.789961  0.025286484 0.0036791442 -0.0055089105 
  855000     250.5472    7442.9067     2924.207    22.426477  0.033936998 0.0060063463  0.023869256 
  856000    235.02969    6349.3403     2924.207    22.876085 -0.012062602 0.0010602805 -0.012568097 
  857000    235.09788    3318.1124     2924.207    24.865079 0.0077041302 -0.011277757  0.022552097 
  858000    227.93166    1459.4554     2924.207    27.441826  0.015062216  0.015359783 -0.014458952 
  859000    247.34929    10390.941     2924.207    27.396679  0.020927793  0.024015434 0.0046336536 
  860000    251.14421     6434.127     2924.207    25.280392 -0.0033354567  0.022721184  0.014738794 
  861000    223.87656    13982.158     2924.207    23.165251 -0.021006086  0.017001588  0.033508582 
  862000    254.66977    4990.6033     2924.207    23.510888  -0.05302569  0.038480159 -0.031996756 
  863000    254.27077    870.35462     2924.207    25.491426  0.017293999 -0.012309182 -0.019064466 
  864000    255.01964    12517.045     2924.207    26.404752 -0.012192572 -0.0096444963 -0.007768104 
  865000    258.55396    5274.6285     2924.207    24.128275 -0.035420774 -0.036262708   0.02358531 
  866000    251.13728    9866.8644     2924.207    24.544918 -0.028528865  -0.02513707  0.016302947 
  867000    242.02449    5868.5737     2924.207    28.227044 -0.013070819 0.0071307174  0.039434456 
  868000    228.76569    13472.597     2924.207    30.482354 -0.0045680315 -0.010078487  0.033409331 
  869000    241.60457    8215.9866     2924.207    29.681195 0.0081622113 -0.017362005 -0.018020995 
  870000    239.91675    10690.437     2924.207    28.907396  0.050273138  0.050453375 -0.022055957 
  871000    249.63501    4530.0828     2924.207     30.97974  0.014415911  0.015808181 -0.016776385 
  872000    249.75366    4867.7883     2924.207    31.065966 -0.013707056 -0.022982139 -0.030265939 
  873000    249.05446    11900.453     2924.207     29.96436  0.055313761  -0.02655437  0.012720396 
  874000    253.33443    2610.4791     2924.207    30.079252 -0.0015683584 0.0065969967 -0.00025214062 
  875000    246.87316    12047.562     2924.207    31.636316 -0.0081349061 -0.017278759 -0.033555131 
  876000    253.74223    7076.2555     2924.207    32.266907 0.0066143276 -0.022150393    -0.026535 
  877000     239.6694    4706.4423     2924.207    33.433936 -0.0026055961 -0.0094471525  0.024983604 
  878000    222.47969    9074.3583     2924.207    35.161414  0.028834768  0.010560548  0.002466146 
  879000    242.44812    6771.1042     2924.207    34.432868  0.019952021  0.019602669  0.053361405 
  880000     243.4548    7255.3968     2924.207    31.604215  0.015344603 -0.019111666   0.01521986 
  881000    252.85722    8477.8976     2924.207    30.039409 0.0074077711 -0.011950933  0.010273992 
  882000    239.58899    3573.5806     2924.207    29.080637 0.0017769226 -0.021192009 0.0060115535 
  883000    251.98847    10620.958     2924.207    30.361803 0.0048136185 0.0057091407 0.0093009102 
  884000    237.46438    7228.5654     2924.207    32.518488  0.025950151 -0.0062240961 0.0024509486 
  885000    234.88821    7391.1787     2924.207    32.315396 0.0064143139  0.003028505 -0.043303747 
  886000    250.09137     9809.443     2924.207    32.889092  0.010016872 -0.0085320867 -0.021891233 
  887000    245.33459    5486.0339     2924.207    32.999449 -0.0035223124 0.0044539499 -0.015280437 
  888000    229.42138    7696.3376     2924.207    32.029337  0.023347749 -0.032843511 -0.010714401 
  889000    253.60881    9730.5884     2924.207     32.12315 -0.0041928672 -0.003687678  -0.01206399 
  890000    235.99265    5907.0144     2924.207    30.779487 -0.021968864 0.0078498128 -0.0040351167 
  891000    242.29547    3392.5534     2924.207    30.440697 -0.0061431059 0.0078794881  0.016998831 
  892000    245.96522    15154.045     2924.207    31.490393  0.017892027  0.012186333  0.010828177 
  893000    239.51978    4276.4784     2924.207    31.256903 -0.034178883 0.0090459483 0.0059391367 
  894000    224.32015    10289.305     2924.207    29.059828 -0.014669919  0.041080423 0.0079022361 
  895000    240.22273    7397.2227     2924.207    28.710597  0.020817953 0.0039507805 0.0048018022 
  896000    248.30164    5048.5437     2924.207    30.222965  0.028354553 -0.0050041125 -0.025541385 
  897000    248.94107    9911.3734     2924.207    32.585906 -0.0028816725 -0.048087905   0.04796912 
  898000    249.95845    11542.678     2924.207    34.075187  0.014482491 -0.0024306937  0.017484565 
  899000    249.64682    633.66501     2924.207    35.001875 -0.044810339 0.0037518211  0.015959998 
  900000    240.00086    5443.8142     2924.207    35.591691   -0.0179091   -0.0121131 -0.0042617158 
  901000    255.39922    7327.5905     2924.207    35.385208  0.024290283 -0.010100054  0.013861026 
  902000    250.46355    3516.9258     2924.207    34.396414 -0.025905184 -0.011813137 -0.029249654 
  903000    246.83518    13740.811     2924.207    33.590278 -0.0086219132  0.032356109 -0.014669142 
  904000    249.93849    12938.306     2924.207    33.559015  0.016232452 -0.048597521 -0.027589896 
  905000    250.17594    6034.9202     2924.207    33.136406  0.011923034 -0.021057822 0.0022097125 
  906000    248.00869    10970.502     2924.207    32.549395 0.0038233458 -1.882228e-05 -0.020667711 
  907000    243.70816    12517.174     2924.207    32.834131 -0.00078859566  0.007823937  0.061202191 
  908000    239.69609    8894.5045     2924.207     33.31469  0.027781691 -0.014701817  0.014405176 
  909000    256.02964    7115.4249     2924.207      34.0302  0.023664971   0.01823528  0.012955429 
  910000     240.8543    10023.296     2924.207    35.083683   -0.0197333  0.014610345  0.021557475 
  911000    249.70782    3845.3787     2924.207    34.530806 -0.019952441 0.0076719818 -0.024235795 
  912000    236.66023    11374.664     2924.207    33.058493  0.010797289 -0.010226905   0.02459039 
  913000    248.89809    6988.0593     2924.207     31.82356  0.015561494  0.029635886  0.013028291 
  914000    248.11535    6455.5466     2924.207    30.861097 -0.0054356196 -0.007837279 -0.005100951 
  915000    238.65882     11795.24     2924.207     30.29982 -0.0086454308 -0.042720593 0.0053929076 
  916000    227.89959     9177.183     2924.207    29.897608 -0.013197594 -0.021172737  0.023888486 
  917000    253.70881     4647.346     2924.207    31.177986 0.0064994963  0.041967182 0.0017028586 
  918000    253.07558    7922.6086     2924.207    30.256327  0.010244012   0.03607111 -0.013818624 
  919000    251.04633    7641.3827     2924.207    28.265071  0.012004941  0.012219772 -0.0090716829 
  920000    233.13676    7223.9308     2924.207    27.340395 -0.014818844  0.020850482 -0.034438974 
  921000    254.07777    10377.917     2924.207    26.134488  0.010507164 -0.019431351 -0.022547544 
  922000    251.95642    10302.184     2924.207    25.710798 -0.029261495 -0.010157248 -0.0081629722 
  923000    259.47576    1374.4875     2924.207    26.138508 -0.015801594 -0.028343199 -0.018246752 
  924000    256.20251    14690.711     2924.207    26.848377 -0.046269235 -0.021204862 -0.037301817 
  925000    226.56684    791.92128     2924.207    27.654451 -0.018324317 -0.020902246 -0.0032111331 
  926000    238.56343    2986.2266     2924.207    27.942963 -0.043115905 0.0046612543 -0.012211876 
  927000    243.39234    15005.139     2924.207    26.830008 -0.0045286769 -0.017891687  0.010802719 
  928000    251.22482     5681.313     2924.207    26.470695 -0.0020870183  0.015131874  0.019503529 
  929000    256.90206    8335.6214     2924.207     26.03726 -0.013518659  0.035127939  0.030684963 
  930000    255.56263    13372.934     2924.207    27.629257  0.013002542 -0.0064106385  0.013358977 
  931000    252.69506    9171.9493     2924.207    28.336557  0.022763257  0.022854813 -0.011198663 
  932000    252.47392    2713.3653     2924.207    29.556006  0.037146625  0.033116352  0.032550636 
  933000    254.95717    8698.9589     2924.207    29.340953 -0.032463013 -0.041579306  0.019592334 
  934000    258.44441    13860.897     2924.207    28.023817  0.011357151  0.001323335  0.032996575 
  935000    256.80048    5754.7464     2924.207    27.257798  0.028648187 -0.015560115 -0.015816707 
  936000    249.99764     8128.101     2924.207    26.428296 -0.034428872  0.021166119   0.03406828 
  937000    241.05542    10802.308     2924.207    25.612036 -0.029608921  0.030941363 -0.022832243 
  938000    243.22408     1918.962     2924.207    24.659367 -0.035715551  0.029929473  0.014965881 
  939000    248.51632    13576.107     2924.207    23.419446 0.0016497542 -0.020861862  0.013935238 
  940000    267.27524    11871.128     2924.207    22.100848 -0.017738623 0.00055125546  0.049596053 
  941000    247.62739    7018.4467     2924.207    21.887546 -0.016876203  0.038044953 -0.017433355 
  942000    260.29121    1383.3857     2924.207    23.747796 -0.027775363 0.0054599566 0.0037551694 
  943000    262.10027    12330.866     2924.207    24.334875 -0.029045505 -0.015956733 -0.026257197 
  944000    263.09496     3974.826     2924.207    21.910469  0.012035134 -0.019636488 -0.044812131 
  945000    239.25427    6236.5375     2924.207    19.998761 -0.031256579 0.00061877237 -0.029743689 
  946000    237.45252    14205.523     2924.207    20.255224 -0.019156195  0.017665165 -0.015595616 
  947000    240.07791    8609.0696     2924.207    20.982784    0.0156567  -0.01338324  -0.02346284 
  948000    240.23644    7739.8116     2924.207    22.701533 -0.017139152  0.020254354  0.010021532 
  949000    243.24407    13213.201     2924.207    23.424539 -0.0070017665 -0.032657273  0.037130161 
  950000    251.15077    5471.6498     2924.207     23.39848 -0.0085424935   0.02898661 -0.0011645355 
  951000    233.22906    4342.0749     2924.207    24.216632 -0.019673363 -0.0067522868   0.01631977 
  952000    251.88939    8564.3449     2924.207    24.048922 -0.042944605 -0.0070325594 -0.023588829 
  953000    236.59614    14222.349     2924.207    22.987791 -0.024838527 -0.011731209 0.0087268551 
  954000     227.6884    5687.9872     2924.207    23.486344  0.025321743  0.021119094 -0.029250998 
  955000    258.96502    7718.2847     2924.207    24.248724  0.012429437 0.0035164188 -0.018041657 
  956000    232.62906    11059.564     2924.207    21.018435 0.0063721624  0.021854932 -0.035957236 
  957000    248.94751    4115.0139     2924.207    18.587305 -0.005405661 0.0074868751 -0.011361432 
  958000     238.4701    13494.559     2924.207    19.792764  0.015173092 -0.0068948951 -0.047756536 
  959000     246.4211    8857.4492     2924.207    22.556547  0.013049743 0.0051672811 -0.051900796 
  960000    248.46188   -1965.5668     2924.207    27.265696 -0.015149863  0.009532195 -0.0053115692 
  961000    248.92048     10644.32     2924.207     31.96243 -0.0096750047  0.016675903 -8.8472234e-05 
  962000    249.55417    15103.915     2924.207    32.450305 -0.026005491  0.036376326 -0.0032464058 
  963000    250.53303   -1448.4427     2924.207    30.368989 -0.0076158625  0.018935617 -0.0053098142 
  964000    258.34963    8858.1003     2924.207    27.568523 -0.0069585721  0.017908097 -0.015762729 
  965000    251.00574    14196.735     2924.207    27.990778  0.033254068 -0.0070592313 0.0038906002 
  966000    250.04439    4489.8711     2924.207    28.778578 -0.014523422 -0.0088293216  0.039245391 
  967000    252.18167    5689.6142     2924.207    31.431207 -0.028837265 -0.0041875245  0.027790791 
  968000    241.41675    11215.063     2924.207    34.039563   0.01076625  0.010114026 0.0073935038 
  969000    228.58538    9298.6198     2924.207    34.307983  0.019239106 -0.022780734 -0.010018371 
  970000    239.56479    606.11996     2924.207    32.604043  0.016602974 0.00011067532 -0.0025942211 
  971000    253.53676     7124.364     2924.207    30.510278  -0.01664323 -0.023769605 0.0007156915 
  972000    232.29196    12210.079     2924.207    30.702937 0.0094329274 -0.035404313 0.0019980743 
  973000    252.76801    3716.8001     2924.207    31.674077 -0.0093303629 -0.020475208  0.013387646 
  974000    245.73929    9499.5053     2924.207    32.332709  0.013600254  0.018196311  0.006609604 
  975000    247.59429    3073.1407     2924.207    31.626322  0.023171985  -0.01345934   0.01481961 
  976000    243.90027    8184.9338     2924.207    31.625536  0.044315008 -0.0031122307 0.0009610011 
  977000    252.30486    6286.2784     2924.207    30.386618 0.0030551369  0.023063948 -0.021598447 
  978000     240.2249    3431.6171     2924.207    27.141614 -0.0098176626 -0.023729608 0.0078439884 
  979000    241.67401    8354.6989     2924.207    22.406553  0.030362311  0.016020145  0.027325389 
  980000    231.82646     13737.62     2924.207    17.748747 0.0032882178  0.027406698 0.0032351486 
  981000    244.94965    5282.5585     2924.207    18.506311 -0.016886211 0.0054471926 -0.011351337 
  982000    239.76874    3942.3554     2924.207    22.168604 -0.028128202 -0.014106289 0.0030730303 
  983000    233.26633    8876.5388     2924.207     26.45677 -0.0059546123 -0.012253935 0.0015951022 
  984000    245.34429     8265.445     2924.207    29.056513 0.0085390672 -0.0057681183 -0.0027115296 
  985000    253.39732    2791.9442     2924.207    29.890895 0.0066006553 -0.010375281   0.01794631 
  986000    230.11411    14999.889     2924.207     29.14407  0.020418424 0.00023454355 0.0087363014 
  987000    240.35971     4289.021     2924.207    29.576653  0.013356013  0.019692567  0.031536137 
  988000    240.13809    9878.1975     2924.207    30.707151  0.010963583 -0.013698222 0.0085252804 
  989000    235.44859    11396.102     2924.207    31.256357 0.0045033124 -0.039346066 -0.00060511122 
  990000    234.37589    6336.1037     2924.207    31.417926  0.011237285 -0.024767222  0.029031332 
  991000    258.22808    9910.3591     2924.207    32.619791 -0.026681932 0.0031938799  0.024590739 
  992000    244.80326    4702.5905     2924.207    33.979909 -0.025075111  0.022944864  -0.03825009 
  993000    245.43538    5023.8661     2924.207     33.49942 -0.0052052477 -0.006958424 -0.035202162 
  994000    265.37196    10890.761     2924.207    31.506384 -0.023779605  0.034699639  0.010634245 
  995000     247.5557    4583.9709     2924.207    29.069565 -0.0064797603 -0.0086838431 -0.0067595129 
  996000    246.91423    6512.5107     2924.207    28.415692 -0.028934303 -0.0032487743 -0.0088790002 
  997000    245.67376    8892.9505     2924.207    27.583712 0.0021196836  0.021494136 -0.030475759 
  998000    243.37571    5575.1373     2924.207    26.904208 -0.0087391613 -0.052040412   0.00971237 
  999000    241.68065    10941.584     2924.207    27.371663   0.01736032 -0.0057678057 -0.0070287215 
 1000000    237.32948    6651.2932     2924.207    28.185546 -0.008531804  0.014240749  0.023693857 
Loop time of 6825.68 on 2 procs for 1000000 steps with 240 atoms

Pair  time (%) = 6466.17 (94.733)
Bond  time (%) = 0.284194 (0.0041636)
Neigh time (%) = 20.557 (0.301172)
Comm  time (%) = 239.708 (3.51186)
Outpt time (%) = 0.439004 (0.00643166)
Other time (%) = 98.5197 (1.44337)

Nlocal:    120 ave 121 max 119 min
Histogram: 1 0 0 0 0 0 0 0 0 1
Nghost:    5033.5 ave 5044 max 5023 min
Histogram: 1 0 0 0 0 0 0 0 0 1
Neighs:    45622 ave 45784 max 45460 min
Histogram: 1 0 0 0 0 0 0 0 0 1
FullNghs:  91244 ave 91654 max 90834 min
Histogram: 1 0 0 0 0 0 0 0 0 1

Total # of neighbors = 182488
Ave neighs/atom = 760.367
Ave special neighs/atom = 0
Neighbor list builds = 4723
Dangerous builds = 0
#	run			10000
	unfix			1
	uncompute		myKE
	uncompute		myPE
	uncompute		myStress
	uncompute		flux
	uncompute		myDis
	unfix			JJ

	next seed
	next iseed
jump lmp.in.gk loop_seed
variable iseed loop 10
variable seed index 11111 22222 33333 44444 55555 66666 77777 88888 99999 11110
clear
###########################################################################
#x0
###########################################################################
units 			metal
atom_style		full
read_data		fort.26.nonbonded
  0 = max bonds/atom
  0 = max angles/atom
  0 = max dihedrals/atom
  triclinic box = (0 0 0) to (14.3 14.3 14.3) with tilt (0 0 0)
  1 by 1 by 2 MPI processor grid
  240 atoms
  0 bonds
  0 angles
  0 dihedrals
  0 = max # of 1-2 neighbors
  0 = max # of 1-3 neighbors
  0 = max # of 1-4 neighbors
  1 = max # of special neighbors
group         		C type = 1
60 atoms in group C
###########################################################################
#OLPS
###########################################################################

################################################################################
#### Pair potentials
################################################################################
pair_style hybrid/overlay tersoff lj/cut 12.0
pair_coeff * * tersoff C.4.tersoff 1 2 3 4
pair_coeff 1 2 lj/cut 0.0007000000 3.5500000000
pair_coeff 1 3 lj/cut 0.0007000000 3.5500000000
pair_coeff 1 4 lj/cut 0.0007000000 3.5500000000
pair_coeff 2 3 lj/cut 0.0007000000 3.5500000000
pair_coeff 2 4 lj/cut 0.0007000000 3.5500000000
pair_coeff 3 4 lj/cut 0.0007000000 3.5500000000
special_bonds lj 0.0 0.0 0.0 coul 0.0 0.0 0.0

#pair_style tersoff
#pair_coeff * * C.4.tersoff 1 2 3 4

#pair_style lj/cut 12.0
#pair_coeff 1 1 0.0700000000 3.5500000000
#special_bonds lj 0.0 0.0 0.0 coul 0.0 0.0 0.0
###########################################################################

#--------------------------------------------------------------------------
#variables
#--------------------------------------------------------------------------
variable   	dt 		equal 0.001
#--------------------------------------------------------------------------
#kappa parameters
#--------------------------------------------------------------------------
variable    	p 		equal 100000 	# correlation length
variable    	s 		equal 10  	# sample interval
variable    	d 		equal $p*$s 	# dump interval
variable    	d 		equal 100000*$s 	
variable    	d 		equal 100000*10 	

#--------------------------------------------------------------------------
variable 	T_run 		equal 300
#--------------------------------------------------------------------------

log 	log_heat_${iseed}.lammps
log 	log_heat_4.lammps
