	reset_timestep  	0
	fix 			1 all nve
	compute   		myKE all ke/atom
	compute   		myPE all pe/atom
	compute   		myStress all stress/atom virial
	compute   		flux all heat/flux myKE myPE myStress
	variable  		Jx equal c_flux[1]/vol
	variable  		Jy equal c_flux[2]/vol
	variable  		Jz equal c_flux[3]/vol
	fix       		JJ all ave/correlate $s $p $d c_flux[1] c_flux[2] c_flux[3] type auto file J0Jt_${iseed}.dat ave running
	fix       		JJ all ave/correlate 10 $p $d c_flux[1] c_flux[2] c_flux[3] type auto file J0Jt_${iseed}.dat ave running
	fix       		JJ all ave/correlate 10 100000 $d c_flux[1] c_flux[2] c_flux[3] type auto file J0Jt_${iseed}.dat ave running
	fix       		JJ all ave/correlate 10 100000 1000000 c_flux[1] c_flux[2] c_flux[3] type auto file J0Jt_${iseed}.dat ave running
	fix       		JJ all ave/correlate 10 100000 1000000 c_flux[1] c_flux[2] c_flux[3] type auto file J0Jt_1.dat ave running
	compute 		myDis all msd
	thermo_style 		custom step temp press vol c_myDis[4] v_Jx v_Jy v_Jz
	thermo			1000
	timestep		${dt}
	timestep		0.0010000000000000000208
	run			1000000
Memory usage per processor = 7.28915 Mbytes
Step Temp Press Volume myDis[4] Jx Jy Jz 
       0    257.10625     8384.085     2924.207 2.3610304e-30 -0.015835145 -0.0088446945  0.020901934 
    1000    273.46187    16639.853     2924.207    11.357739 0.0095907859 -0.014142712 0.0026249346 
    2000    271.27298    12100.527     2924.207    25.913667  0.013265383 -0.011185155 0.0094918444 
    3000    280.51515    11722.184     2924.207    28.338464  0.035844155  0.045153163 -0.012441017 
    4000    259.12262    13681.252     2924.207    26.646202  0.012186554 -0.031070262   0.03906672 
    5000    252.29982      15856.2     2924.207    26.783311 -0.0048587804  0.016700779  0.020861706 
    6000    281.57188     17052.53     2924.207     24.97287 0.0088638516 -0.030350503 -0.013891546 
    7000      250.966    15598.889     2924.207    20.055941 -0.025947814 -0.0026307172 0.0075922797 
    8000    285.42211    12899.099     2924.207    16.309494 -0.029283144  -0.02898971 -0.020782351 
    9000    236.03488    15652.581     2924.207    22.122544 -0.038423596 -0.010051297  0.041606781 
   10000    270.18977    12652.215     2924.207    30.641067 -0.011136086 -0.038450216  0.039845745 
   11000    281.16361    11628.756     2924.207    30.695673  0.013471587 -0.0026456323 -0.0086660271 
   12000    248.26108    15878.472     2924.207    27.082744 -0.0095425417 -0.011515241 -0.015891451 
   13000    278.35657    10610.351     2924.207    20.929068 0.0045135365  0.033188411  0.023637432 
   14000    247.62766    14548.623     2924.207    17.889995  0.023565564  0.003780798 -0.0085381197 
   15000    273.95685    16622.056     2924.207    16.405298  -0.01580516 -0.0061746901 -0.0080393614 
   16000    261.04943    14650.422     2924.207     22.38238  -0.04551133 -0.015754218 -0.019479134 
   17000    283.30888    7893.2072     2924.207    32.526731 -0.033044945   0.02437514 -0.013511909 
   18000    263.49745    16870.313     2924.207    34.290307 -0.027682448 -0.013808758  0.019552868 
   19000    272.61943    11489.941     2924.207    27.590859  0.038074706 -0.0057613467 -0.0096188396 
   20000    272.85899    7462.2838     2924.207    23.265934 0.0050959559 0.0030685872 0.0090819863 
   21000    261.60118    10744.314     2924.207    23.849386   0.02445247 0.00034528547 -0.0046415994 
   22000     287.9818    15012.616     2924.207     19.64437 -0.00037113519  -0.01831507  0.010897355 
   23000    282.43274    7692.0249     2924.207    12.356919 -0.0091915223 -0.011638688  0.029814583 
   24000    278.00721    13028.879     2924.207    18.946395 -0.027682761 0.0065497897  0.029704588 
   25000    250.45327    14463.668     2924.207    26.743044 0.0026819189 0.0051308645 -0.019357215 
   26000    266.08112    13810.613     2924.207    24.057797 0.0096038859 -0.011265286 0.0083422259 
   27000    261.32666    9987.1899     2924.207    26.361722 -0.024256238 -0.042028888 -0.020453427 
   28000     301.9013    14423.363     2924.207    33.260931 -0.032054885  -0.02956375 -0.016137811 
   29000    239.77301    9734.3447     2924.207    34.027724  0.028432627   0.02752498 -0.017787303 
   30000    239.19099    18837.522     2924.207    30.753883 0.0048801666 -0.013881943  0.022651804 
   31000    253.47193    14896.405     2924.207    30.722288 -0.019395076  0.026757212  0.028624937 
   32000    292.03187     9511.049     2924.207    32.033182  0.016589393  0.026576258  0.017986434 
   33000    240.23938    7666.1946     2924.207    32.376768 -0.0097551582 -0.017403739 -0.013821714 
   34000    254.54722    14867.028     2924.207    33.215501  0.029095265  0.014642698  0.040802981 
   35000    271.00905    13385.309     2924.207    32.180664 -0.018359397 -0.010367537 0.0054112038 
   36000    278.78944    11824.082     2924.207    31.616724  -0.01786805  0.017653452 -1.1185871e-05 
   37000    276.45627    21021.412     2924.207    30.493381 -0.017789401  0.025200373 0.0086102809 
   38000    273.25213    11319.078     2924.207    28.404309 0.0083488402 -0.022762909 -0.026340956 
   39000    272.46251    17952.853     2924.207    26.061839  0.020129742 -0.032502073  0.036148769 
   40000    254.04666    9251.5507     2924.207    26.796503  0.020023444 -0.014987445  0.027509988 
   41000    263.27628    15928.466     2924.207    28.949937 0.0043820917 -0.0068963368  0.025502161 
   42000      278.441    5937.9546     2924.207    28.383574 -0.025534255 -0.038342579 0.0096750006 
   43000    254.15038    14623.358     2924.207    25.298212 0.0061288828  -0.01016243 -0.021590389 
   44000    253.21126    11675.481     2924.207    23.790188 0.0029681738 -0.0043659966  0.013441612 
   45000    271.13771    15896.124     2924.207    26.146851 -0.0055947412 -0.015232877 -0.017498189 
   46000    269.92721    9897.8996     2924.207    29.153594 -0.0094496007 -0.010891002  0.023318293 
   47000    255.83844    12884.334     2924.207    28.500924  0.040665738   0.01976278 -0.013132366 
   48000     263.2423    14442.484     2924.207    29.969228  0.014511499 -0.0030193474  0.025396503 
   49000     255.2931    12718.305     2924.207    31.790747 -0.039328232 -0.00034319066 -0.0040432975 
   50000    279.60169    18077.875     2924.207    29.690507 -0.0012911884 -0.044991732  0.034740771 
   51000    250.76198    17118.438     2924.207    24.872805  0.014465789  0.011011857  0.021655985 
   52000    271.02592    8478.4154     2924.207    23.494366  0.002281084 -0.012882481  0.046780743 
   53000    259.89118    17267.823     2924.207    26.512658  0.028710827 -0.015042677 -0.0080846847 
   54000     287.0153   -201.80533     2924.207    30.398023 -0.0095552692 -0.014699746  0.010089755 
   55000    262.00451    17917.106     2924.207    32.324819  0.015432267 -0.0017997142 -0.0031565253 
   56000    261.11179    13830.797     2924.207    32.348465 -0.026292463 -0.040272435 -0.0010474793 
   57000     233.0631    13983.741     2924.207    32.327824 -0.00094115334  0.024665696 0.0031500848 
   58000     279.4143     11952.64     2924.207    33.930595 -0.051983453 -0.0085134531 0.0032333715 
   59000    279.97647    6341.7183     2924.207    33.618124 -0.0073989083 -0.022386176 -0.0041870603 
   60000    250.00894    21920.136     2924.207    31.197938 0.0058248412  0.015636721  -0.06048731 
   61000    265.93037    9811.1813     2924.207    28.472685 -0.0099538387  0.014992151 -0.015146873 
   62000    272.98174    7489.6836     2924.207    29.581267  -0.01306297 -0.010464774  0.027197886 
   63000     249.9308    14304.467     2924.207    33.240099 -0.017255836 -0.029299105 -0.0056753168 
   64000    256.34272     17818.98     2924.207    32.608061 -0.011674285 -0.030480195 -0.036671136 
   65000     261.5157    11294.937     2924.207    29.811635 -0.026490328   0.02253295 -0.0042382674 
   66000    285.95905    15183.606     2924.207    26.947554  0.016696593  0.031636761 -0.043999668 
   67000    291.73229    9504.8923     2924.207    29.217752  0.013561574 -0.026835368 -0.0061420167 
   68000    265.97818    12503.711     2924.207    33.521431  0.016217538 -0.0032538305  0.016328599 
   69000    288.33147    6288.6881     2924.207    35.260849 -0.039073188 -0.021995231 -0.053970267 
   70000    282.29603    9971.0778     2924.207    32.726898  -0.01249757  0.026883936 -0.049608294 
   71000    273.27492    11540.326     2924.207    28.298408  0.024586902 0.0084443199 -0.023284852 
   72000    270.11476    3770.1806     2924.207    26.078128 0.0051946361 -0.0049803799 -0.026504614 
   73000    252.46154    4581.3402     2924.207    29.618544 0.00062600165 -0.0053936357 0.0072540958 
   74000    280.84816    17363.397     2924.207    32.209949  -0.02760095 -0.015744355  0.039965131 
   75000     292.9849    2041.0911     2924.207    28.045977 -0.011188584 -0.0096533241  -0.04173871 
   76000    261.87093    16382.755     2924.207    22.821853   0.02226459  0.031275453 -0.00061286968 
   77000    268.43065    9409.0763     2924.207    24.341519 -0.0074993799  0.016232898 -0.024472357 
   78000    277.28093    9677.3884     2924.207    29.308033  0.019265501 -0.0019498001 -0.0033736362 
   79000    262.15665    12202.466     2924.207    32.342453  0.021133246 -0.012861388  0.010803834 
   80000    256.69215    6925.5434     2924.207    27.573985  0.042655859  0.022492973  0.013203039 
   81000    279.66351    11033.505     2924.207    21.195476 0.0097621992  0.019286437  0.023912337 
   82000    271.22137    9938.6974     2924.207     20.76171  0.023573472 -0.046189431  0.014032094 
   83000    264.07288    12140.088     2924.207    26.864273 -0.051472581  0.020610922  -0.01338904 
   84000    278.69384    24538.371     2924.207     32.31804 -0.0015109451  0.032521755 -0.024316444 
   85000    264.92418    5780.3662     2924.207    32.222978  0.018261563 -0.0055354957 -0.0047543302 
   86000    259.96767    15844.825     2924.207    30.491844 -0.001048447  0.030199711  0.018838391 
   87000    283.16986    7194.7035     2924.207    33.401239 -0.0058754516 -0.0052063231  0.013790726 
   88000    276.54903    9216.6255     2924.207    33.908121  0.019363231 -0.0040005095 -0.013783784 
   89000    262.89544    15578.664     2924.207    32.121422 -0.034047468 0.0099678778  0.021733195 
   90000     263.1961    12171.087     2924.207    33.565223 -0.034085915  0.019854693 -0.020658172 
   91000    282.40258    7486.5804     2924.207    33.324405  0.019010823  0.027146036 -0.0056098304 
   92000    273.25999    10333.911     2924.207    26.888052 -0.017156463 -0.017154904 -0.003085542 
   93000    243.08167    14324.182     2924.207    20.560885 0.0063814481  0.018049076  0.025796868 
   94000     271.4086    13935.858     2924.207    25.119834 -0.0098826371 -0.014969152 -0.0029226175 
   95000    274.67411    11429.034     2924.207    33.592107 -0.013238904  0.017560678 0.0017039521 
   96000    238.81652     16127.16     2924.207    31.772642   0.02936864 -0.0067029886 -0.028615068 
   97000    273.81349    3145.2157     2924.207    22.864573 0.0050365661 -0.036391274 0.00060423894 
   98000    269.00899    12528.516     2924.207    19.927116 0.0013764463 -0.027292173 -0.042918237 
   99000     264.4634    14404.254     2924.207     24.17843 -0.022546377 0.0023050579 0.00060766818 
  100000    258.36402    13725.682     2924.207    26.510846 -0.036345596  0.008378413  0.017994096 
  101000    266.17331    13024.014     2924.207    21.087151  0.014806445  0.033487371 -0.027438548 
  102000    281.17999    7020.7942     2924.207    20.037072 -0.0080519447 -0.015201393  0.011669356 
  103000    259.83049    14872.659     2924.207     24.59782 -0.002279457 -0.015095465 0.0038419513 
  104000    265.30924    10380.936     2924.207    24.604764 -0.028382448 -0.00050156199 0.00075566989 
  105000    267.02417    7973.6735     2924.207    20.194372 0.0083248731 0.0030958799  0.014490739 
  106000    262.97905    8689.9666     2924.207    17.776102 -0.0029021341 -0.017774575 -0.013034377 
  107000    249.11817    14041.682     2924.207    17.888302 -0.0021526293  0.024907388  0.050337301 
  108000    264.91124    12412.381     2924.207    21.743661 -0.016607648   0.01340917  0.011904908 
  109000    248.88742    14468.444     2924.207    23.864857 -0.026603099  -0.03529186   0.01885415 
  110000    281.72212    5644.4174     2924.207    23.321698 -0.021665347 -0.047758553 -0.0071845097 
  111000    261.20642    11558.274     2924.207    23.481175 -0.018405775 -0.029685215 -0.014830928 
  112000    262.05272    8636.1998     2924.207    23.361337 0.0062954682 -0.0042807578  0.017056993 
  113000    257.18006    12764.039     2924.207     21.13294 -0.024508849 -0.024854653   0.05679062 
  114000     253.9926    9237.4846     2924.207    19.426945  0.024022364 0.0034494242  0.014418221 
  115000    266.77598    21173.312     2924.207    22.158213 -0.025809757  0.022614653 -0.020753501 
  116000     258.6404    4896.8557     2924.207    29.397961 -0.0055696333 0.0056282806 -0.030469119 
  117000    281.42399    10638.508     2924.207    31.454556 -0.0068362708 0.0042927495 -0.0085259124 
  118000    243.56115    16686.509     2924.207    28.835873  0.022924802 -0.012175832   0.05214088 
  119000     260.2667    8717.0777     2924.207     29.55451   0.02412912  0.033153735  0.010081115 
  120000    261.18758    13146.581     2924.207    32.042507 0.0058055468 -0.011837342 -0.012478866 
  121000    270.09332    9423.2048     2924.207    31.797374 -0.028893639  0.024170483 -0.017029803 
  122000    269.68259    16519.922     2924.207    29.752505 -0.022413392 -0.012516323 0.00092594878 
  123000    267.37288    8180.0553     2924.207    26.286451  0.029577238  0.006570122 0.00060348781 
  124000    259.14738    15081.728     2924.207    20.767559  0.024776376 0.00070812338 0.0044851095 
  125000     254.0943    11644.545     2924.207    19.751941 0.0034988041  0.031591403  0.011324489 
  126000    280.32414    2431.6556     2924.207    22.621618  0.016102409 -0.014223859  0.008484918 
  127000    266.99262    16882.394     2924.207    25.996931  -0.02138187 -0.0057475384 -0.025043178 
  128000    260.58809    13181.618     2924.207    27.328535 -0.035701838 -0.0026399699 -0.0027527795 
  129000    295.50408    6421.7209     2924.207    25.037259 -0.019982749  0.033443507  0.018893518 
  130000    242.00565    9182.6235     2924.207    23.563197 -0.010238602 -0.049767172 -0.0093642693 
  131000    273.07747    11619.591     2924.207    21.104557 -0.011602929 -0.004392612 0.0036428033 
  132000    246.78275    9841.8693     2924.207    20.728924 -0.027710365  0.015880978   0.02392676 
  133000    280.69997    1188.1405     2924.207    23.763392 -0.016373986 -0.0063704041 -0.0051421047 
  134000    252.33411    16641.308     2924.207    26.967189 -0.0084356584 0.0038669031  0.042937692 
  135000     284.9965    5275.8523     2924.207     28.79118  0.020513449 0.0093603492 -0.011311677 
  136000    255.67597    3662.3924     2924.207    26.682777 -0.0086100329  0.034336434 -0.0033817615 
  137000    237.00639    17899.834     2924.207    18.511881 -0.00051961541 0.0013246136 -0.031473211 
  138000    253.29426    11995.165     2924.207    16.433751 -0.0013725343  0.034340772 0.00068521779 
  139000    248.86641    12638.087     2924.207    23.245499 -0.0093495163 -0.0079589616 -0.011884617 
  140000    245.07588    14874.175     2924.207     26.45701  0.015627994 0.0082474602 -0.0029400075 
  141000    282.84369    6050.6896     2924.207    24.281348  0.011376271 0.0076213268 -0.034157692 
  142000    262.18867    12584.672     2924.207    23.744165 -0.0069272335  0.040385996 -0.017318432 
  143000    275.15243    7351.2796     2924.207    26.880675  0.025642944  0.021914505 0.0014341645 
  144000    282.36886    12744.317     2924.207    29.584941  0.022103632  0.049329143  0.011037202 
  145000    254.30647    12498.292     2924.207    24.614094 -0.010043598  0.030795974  -0.03691178 
  146000    244.25183    18778.673     2924.207     14.53211  0.028533751  0.046689116  0.011057713 
  147000    272.56231    9177.8257     2924.207    12.928588  0.030526048   0.03317796 -0.0043374209 
  148000    260.95606    11968.154     2924.207    19.699217  0.014653034 -0.0058896927  0.028007416 
  149000    271.08761    9832.6717     2924.207    28.438675  0.014383655  -0.01143453  0.053481975 
  150000    263.13828    7938.3981     2924.207    29.329123 -0.0010029188 -0.037584706 -0.0014499674 
  151000     265.5735     11941.21     2924.207    23.323118 -0.027583929  0.016787402 -0.0040267276 
  152000    249.96649    19673.404     2924.207    17.952053 0.0016227721 -0.011889258 -0.0092076425 
  153000    246.41908    8819.9758     2924.207    16.812512 0.00042431156  0.023144388 0.0027555175 
  154000    256.69346    9514.5845     2924.207    22.898226 -0.009980406  0.023039376 -0.051252113 
  155000    243.28672    15035.232     2924.207    28.625835  0.035636458  0.032678326 -0.0066395368 
  156000     237.8028    3643.1803     2924.207    29.633504 0.00020935063 -0.019781161 -0.0061864201 
  157000    237.29065    20518.143     2924.207    27.229098  -0.02184611  0.014007628 0.0051395889 
  158000    275.12616    9667.1848     2924.207    25.426185  0.048584746  0.014320007 -0.021702774 
  159000    280.80621    11650.807     2924.207    28.188759 0.0013147751 0.0061106872 -0.038230294 
  160000    235.67688    17601.168     2924.207    27.769263 -0.027718806  0.024293894  0.015811646 
  161000    249.10423    5075.4868     2924.207    29.899083 -0.022407575  0.012603678 0.0062690406 
  162000    253.43101    19031.385     2924.207    34.568943 0.0092667708 -0.0015511174 0.0053666959 
  163000    274.47494    12121.109     2924.207    34.494915  0.041675378 -0.016463696  0.010600189 
  164000    245.41867    11983.766     2924.207    31.083358 -0.0055865339 -0.0053053427 -0.0085882894 
  165000    279.65414     8462.079     2924.207    30.664535  0.013826661 0.0017696269  0.008321389 
  166000    265.94262    10149.856     2924.207    31.662172  0.011466239 0.0099476157 -0.026087318 
  167000    267.70225    12987.348     2924.207    30.702089 -0.019965818 -0.027048864 0.0022403419 
  168000     259.5737    9259.4138     2924.207    27.422773  0.014904897 -0.0041663264 0.0064017923 
  169000    255.30795    11782.627     2924.207     26.59765 -0.016145136 0.0021180696  0.024005924 
  170000    276.29161    8439.7735     2924.207    32.768114 -0.0067927888  0.013024127 -0.021044449 
  171000    280.37305    8991.8247     2924.207    30.928514 -0.0034638673 0.0051683584  0.012091893 
  172000     280.0244    6610.5086     2924.207    27.184169  0.010452941 0.0025700061  0.017947092 
  173000    269.97426    8342.0065     2924.207    29.994871 -0.014204722 0.0010851911 0.0076522578 
  174000    261.80606    14489.199     2924.207    27.741634  0.035905586   0.03237746  0.047370341 
  175000    270.67164    14192.937     2924.207    21.571175 -0.024269498 -0.014563398 0.0088105276 
  176000    255.95952    3386.4074     2924.207    26.870631  -0.03757881  0.014941477  0.016046912 
  177000    262.90272    11939.341     2924.207    29.904157 -0.0097403035 -0.046745876  0.024247991 
  178000    265.90139    15530.589     2924.207    24.715432  0.029029004 -0.0076939708 -0.031958909 
  179000    268.20034    4286.4259     2924.207    17.453206  -0.01393094 -0.0057204709 -0.014540724 
  180000    257.59541    14694.979     2924.207     16.93523  0.016244261 0.0043233738 -0.0037669079 
  181000    255.78871    7002.1733     2924.207    20.405111 -0.019727054  0.058408393 -0.0065476913 
  182000    249.58567    13586.249     2924.207    20.325488 -0.020654493 0.0040703414  0.065489261 
  183000    234.62748    14367.842     2924.207    21.368107 -0.021956827 0.0016305026 0.0074740466 
  184000    253.36345    9602.4671     2924.207    21.507151 -0.0016159245 0.00077102878 -0.031624105 
  185000    268.09264    15297.105     2924.207    23.122284 -0.033722311  0.070948304 -0.012455235 
  186000    258.40377    -230.7601     2924.207    27.081777  0.023385516 0.0010241506  0.017447195 
  187000    254.59045    14383.585     2924.207    29.250078 -0.0067574694 -0.024157563  0.049531865 
  188000    259.24625    10262.812     2924.207    27.868795 -0.011602155  0.012265757 -0.0097552613 
  189000    265.70173    10600.583     2924.207    29.736626 0.0047347126 -0.009218587   0.01456351 
  190000    259.78782    19775.313     2924.207    34.398987 -0.013345802 -0.011265799 -0.0017057873 
  191000    263.43709    6281.4068     2924.207    33.021912 -0.00086191797  0.044214929 -0.023193978 
  192000    262.95486    12221.801     2924.207    26.643556  0.053380549  0.031827498 -0.028624792 
  193000    273.34461    7175.3725     2924.207    24.911899 -0.022221155  0.029102618 -0.0012628378 
  194000    269.60447    10152.047     2924.207    26.812037 -0.0051448678  0.018168321 -0.060075825 
  195000    249.27444    10497.399     2924.207     25.98992  0.020063613  0.013889861 0.00047061454 
  196000    272.71559    14692.904     2924.207    24.233907  -0.03260079  0.012332958 -0.027709595 
  197000    252.64853    9070.6069     2924.207    25.114029  -0.00610359 -0.0037310294 -0.021752805 
  198000    265.26742    14983.231     2924.207     31.17887  0.018470925 0.0066610065 -0.025495842 
  199000    272.57647    7769.1355     2924.207    35.212955 -0.024182249  0.042964093  0.032612829 
  200000    259.73172    12370.291     2924.207    29.430416  0.022524032   0.01846733  0.018653737 
  201000     241.0037    13093.464     2924.207    27.242544 0.0023975616  0.034723093 -0.019361634 
  202000    257.20396    10110.942     2924.207    31.148156  0.012305912 -0.017601315 -0.0091129836 
  203000      280.399    14276.653     2924.207    31.782158 -0.025169623 -0.0015874234 -0.021410478 
  204000    260.74518    7473.5601     2924.207    27.408864 -0.0093032451  0.015578856 0.0054969687 
  205000    260.16424    12254.943     2924.207    27.300986 -0.0049215884  0.024173817  0.014202284 
  206000    262.90474    6362.0733     2924.207    28.382965  0.031578752  0.021645056  0.034089103 
  207000    262.07426    3835.7837     2924.207    24.583548 -0.032900498  0.042902363 -0.0097290543 
  208000    269.99695    12427.012     2924.207    17.464293 0.0021777073   -0.0217559 -0.021721275 
  209000    262.30236    11227.808     2924.207    18.461431  -0.03054203  0.023035048 0.0047951129 
  210000    252.98829    5949.8812     2924.207    28.445932 -0.030343857 -0.022368459  0.019687892 
  211000    258.59225    7958.3269     2924.207    33.176776 -0.010602509 -0.00043409203  -0.03506615 
  212000    258.59484    10773.622     2924.207    27.064433 0.0077754444 0.0064462155 -0.065214961 
  213000    252.44087    5995.1205     2924.207    15.736967  0.044235525  0.017225343 -0.029127309 
  214000    266.38196    3306.1814     2924.207     12.90706 -0.029928601 -0.0095046951  0.010303137 
  215000     267.6779    13235.128     2924.207    22.913446 -0.00023904178 -0.007672962 -0.034043138 
  216000    246.48602    12348.667     2924.207    35.126212  0.013539672  0.035323416 -0.010686878 
  217000    256.76667    13332.817     2924.207    32.828876 -0.0050762017  0.049490877 0.0083402261 
  218000    263.33777    10736.711     2924.207    21.938758 -0.025954716 -0.014457294 0.0011965444 
  219000    276.90282    9807.2339     2924.207    18.654066 -0.023119271  0.028870333   0.02134664 
  220000    258.43929    10244.738     2924.207    24.318258   0.02612364  0.020946732 0.0009357783 
  221000    267.45025    5910.4307     2924.207    30.878218  0.039892343 -0.024675724 -0.0014625021 
  222000    238.18304     12156.22     2924.207    30.708832 0.0098145352  0.013655344 -0.010149185 
  223000    280.77487    9565.2028     2924.207     23.17912   0.01587098  0.001117093 -0.00078358789 
  224000    271.91465    13130.562     2924.207    18.524171 -0.059354167 -0.0084865426  0.014349639 
  225000    273.10383    5209.0184     2924.207      22.4669  0.019870448 0.00083348278  0.011329881 
  226000    268.38046      7970.92     2924.207    31.052441  0.017780256  0.011892352  0.054066557 
  227000    263.78768    14694.231     2924.207    30.902939 -0.030709816  0.016288684 -0.0028583606 
  228000    275.96703    7368.7768     2924.207    19.719072  0.033248378   0.01037105  -0.02555246 
  229000    264.31565    9274.3873     2924.207    15.711846  0.026093143 0.0060481965  0.042991995 
  230000    268.78024     13644.04     2924.207    24.235761 0.0065710008 0.0025754064  0.019195446 
  231000     261.5066    4553.4523     2924.207     33.66242 -0.022507161 -0.0072442912 0.0097040254 
  232000    276.34314    9186.2529     2924.207     31.56067 -0.041669256  0.021267973  0.015482382 
  233000    258.57425    15958.421     2924.207    22.929305 -0.011015961 0.0095009106  0.017139655 
  234000    259.77168    5612.5743     2924.207    18.810846 -0.030445568  0.033230819  0.040299927 
  235000    264.19449    11499.094     2924.207    22.479487  0.036564365 0.0094608096 -0.011163657 
  236000    264.89168    17071.491     2924.207    25.334136 -0.0067579998 -0.021049815  0.024515109 
  237000    267.95137    9693.0087     2924.207     25.24588 -0.0053980183  0.015039371  0.043106849 
  238000    278.22275     11168.18     2924.207    27.388945  -0.02081972 -0.011179941 0.0096177204 
  239000    263.73429    1447.8213     2924.207    30.626471 -0.022948169  0.026125745  0.029405431 
  240000    262.43307    16691.966     2924.207     29.99152  0.011211055   0.04943815  0.015347528 
  241000    263.35401    7455.3205     2924.207     27.66347 0.0017042273  0.016285926 -0.0026707939 
  242000    246.02476    15683.618     2924.207    26.320767  0.017274507  0.018203413  0.013381765 
  243000    255.08372    7083.3548     2924.207    25.213274 -0.0016326835 -0.023493284   -0.0265797 
  244000    262.98373    6588.1962     2924.207    23.998026  0.022250203  0.022518561  0.009006286 
  245000    267.96332    10562.331     2924.207    25.489346  0.030758679 -0.00079936195  -0.01789488 
  246000     270.7263    11168.739     2924.207    30.577195 -0.011979892 0.0062599737 -0.018311808 
  247000    241.06501    5115.8674     2924.207    32.257051 -0.018825038 -0.0069685036  -0.01965356 
  248000    255.02198    10582.987     2924.207    29.122116 -0.0032033332 -0.022682735 0.0059790241 
  249000    274.49667    8903.5628     2924.207     24.32751 -0.023270489  0.017677969 -0.023274903 
  250000    253.25019    9603.7755     2924.207    19.440537  0.032197396 0.0047079245 -0.012562046 
  251000    246.79841    13307.204     2924.207    18.184486  0.017335825 -0.0073775633 -0.013129889 
  252000    266.36648    5219.2428     2924.207    22.113201 -0.0053165347 -0.0084981395 -0.0092916321 
  253000    255.97329    8007.7107     2924.207    27.697502 -0.016066097 -0.0042850879 0.0047940143 
  254000    256.53604    13746.839     2924.207    28.858657  0.030346328 -0.004206496 0.0034610507 
  255000    258.76525    9959.7585     2924.207     25.77399 -0.0042549342 0.0016625458  0.016045423 
  256000    268.57059    7026.9308     2924.207    24.879005  0.049255639 -0.0086564574  0.019341028 
  257000    253.99426    14867.904     2924.207    30.139213 0.0090134387 -0.010397298 -0.028317885 
  258000     261.5709    6096.3727     2924.207    33.680068 -0.021911977  0.010597997 -0.011969975 
  259000    262.26381    10060.434     2924.207    27.399628    0.0303922 -0.0078550784  0.013420039 
  260000    247.18679    11913.422     2924.207    20.103829  0.021162877  0.019817456  -0.01271748 
  261000    259.70153    4653.8435     2924.207    22.305041  0.011538871  -0.01087842 -0.031497283 
  262000     272.3902    12798.257     2924.207    26.458809  0.018438155  -0.01987582  0.031101245 
  263000    250.64675    11306.851     2924.207    24.692825  0.052435025 0.0099131343 -0.010453105 
  264000    266.76207    6691.4939     2924.207    20.409459  0.021275462 0.0082822957  0.060568308 
  265000     272.5347    14828.308     2924.207    22.090354 0.0044595071   0.01184297  -0.00399888 
  266000    261.93214    9238.2084     2924.207    27.471528  -0.03056868 -0.032758606 0.0066349158 
  267000    268.89006    10900.511     2924.207    29.794732   0.02107647  0.031655024  0.039587576 
  268000    260.50357    12367.823     2924.207    28.063329  0.012503034 0.00036948996 -0.0038188912 
  269000    248.13162    8604.6953     2924.207    25.589756 -0.0048601987 0.0046641806 -0.0018851611 
  270000     262.7563    10338.793     2924.207    23.572301 -0.0029042237 -0.012639479 0.0067386008 
  271000    251.37303    4925.1301     2924.207     25.49361 -0.0037688829  0.012331227 0.0092538334 
  272000    257.53892    14737.672     2924.207    28.514098  0.018001434 0.00070971379  0.020830873 
  273000    261.24943    12198.385     2924.207    30.762466 -0.016161851  -0.03534452 -0.0039379394 
  274000    270.25308    6805.3788     2924.207     31.16678  0.018156451 -0.017656435 -0.0089710084 
  275000    262.21485    13419.305     2924.207    32.206591 -0.021769581   0.01474786 -0.0001037548 
  276000    258.89949    8588.5371     2924.207    33.313618 -0.047136722  0.015289234 -0.0020128265 
  277000    236.32286    11391.085     2924.207     34.90549  0.018181792 0.0054577031 -0.018356278 
  278000    277.71175    12018.577     2924.207    35.737906 -0.0094261073 -0.018272405 -0.012171271 
  279000    268.31451    3639.1363     2924.207    34.345405 -0.012088213  0.011773562 -0.0059104235 
  280000    240.67432    12466.352     2924.207    29.103214  -0.02484388  0.022128473 -0.012253759 
  281000    270.17959    8428.2893     2924.207    23.895221 -0.017224804  0.018149115 -0.027730412 
  282000      256.141    8763.1387     2924.207    25.586929 -0.028932769  0.002036454  0.042462471 
  283000    236.74379    13681.237     2924.207    28.928356   0.01472131 -0.011093383 -0.0092685321 
  284000    259.60767    15486.135     2924.207    32.148815 -0.0036580132 -0.036085213 -0.025076551 
  285000    252.04747    15834.323     2924.207    33.711103 0.0037190936 -0.0056801538 -0.021359057 
  286000    269.80514    8015.2695     2924.207    32.929396 -0.023770028 -0.0023091252 -0.010857329 
  287000    242.18855    9295.0722     2924.207    31.407851 -0.0017685602 -0.0013623788  0.010433771 
  288000    265.53093    3784.0803     2924.207    31.767462 -0.018256796 -0.012406791 -0.00066064316 
  289000    275.98523    16222.973     2924.207    33.428392 -0.013173392 0.0037173009  -0.02495485 
  290000    242.57857    9588.0591     2924.207    35.417065  0.010163836   0.02205769   0.04915176 
  291000    272.48458    6695.8183     2924.207    34.556477  0.021445148  0.011937769 -0.027771409 
  292000     249.7554    9920.9754     2924.207    32.092433 -0.007496835 -0.051694397 -0.0095440612 
  293000    262.02111    9676.6643     2924.207    29.295198 -0.001030437 -0.017769311  0.038902261 
  294000    270.58909    16237.685     2924.207    28.318721 -0.030443678  0.020693635 -0.016464414 
  295000    257.84588    12368.815     2924.207    30.341313 -0.011216976  0.025652213 -0.017738679 
  296000    251.19162    10022.201     2924.207    31.629164  0.030679091  0.012475848  0.023630325 
  297000    247.37795    7245.6262     2924.207    30.619246   0.03000618  0.038734454 -0.026483283 
  298000     257.0701    6242.0491     2924.207    27.306132  0.030594098 0.00061759176 -0.00035245528 
  299000    262.35962    14962.943     2924.207    27.874455 -0.0011671825 -0.012061824  0.016297489 
  300000    268.50453    11906.409     2924.207     31.27958  0.015711703 -0.047106208   0.01274073 
  301000    257.70003    8321.4452     2924.207    31.855033  0.017264359 -0.0067805588  0.020890986 
  302000    265.16762    4739.1864     2924.207    26.788149 -0.0062857986  0.019364177  0.012735531 
  303000    260.27473    11529.989     2924.207    27.098821  0.014625941 -0.0010315141  0.026323734 
  304000    247.65563    8813.5068     2924.207    32.116313 -0.0050727764  0.013769452 5.8074879e-05 
  305000    259.12686    11956.198     2924.207     35.32082  0.028148726  0.019650306  0.027722959 
  306000     230.6934    17527.056     2924.207    35.876926  0.017105002 0.0020318544 -0.021096567 
  307000    262.42824    7372.5978     2924.207    34.762498  0.012724347 -0.0063500633  -0.02263185 
  308000    255.60911    10809.721     2924.207    32.949483 0.0017757801 0.0083510076 -0.013243505 
  309000    247.20323    14575.531     2924.207    32.584309 0.00059043489 -0.011857464 -0.043757244 
  310000    257.65578    2669.6767     2924.207    31.648808 -0.017478279 -0.0040790085 -0.0051119554 
  311000    244.95514    16267.435     2924.207    30.519688 0.0067887168  0.042813693 -0.025736367 
  312000    253.11384    10496.327     2924.207    32.754796 -0.032114709  0.015860056 -0.013604167 
  313000      255.209     9760.008     2924.207    33.131444 -0.013691829 -0.003079201  0.021917004 
  314000    233.83081    23793.479     2924.207    33.147508 0.0067107454  0.012796997 -0.0021666478 
  315000     242.9198     7995.137     2924.207    32.927368 -0.0096943406  0.017759971 -0.026010166 
  316000    270.27245    11966.489     2924.207    33.578715 -0.0085885875  0.019536491  0.015299292 
  317000    227.50725    13062.546     2924.207    32.272044 -0.030364213 -0.0012927863  0.020798928 
  318000    253.67693    13198.066     2924.207    30.737076 0.0045808267  0.020137486 -0.0090272806 
  319000    235.45707    9082.9424     2924.207    31.093212  0.029887051 0.0076239623  0.031586426 
  320000    276.02358    9256.3428     2924.207    31.707887 -0.0012364356 -0.0028957616  0.037719645 
  321000    241.31725     9006.724     2924.207    32.975057  0.028580364  0.003535179 -0.012607488 
  322000    240.43787    12200.998     2924.207    33.683523   0.01869599 -0.010364755 -0.019574474 
  323000    228.30904    13660.984     2924.207    34.743414  -0.02235097 -0.025068783  0.020372682 
  324000    247.92517    8092.6637     2924.207    34.784111 -0.016950326  0.032647428  0.031505328 
  325000     249.3873    10229.127     2924.207    32.932169  0.015441574  0.011861814 0.0043309406 
  326000    245.42659    10758.567     2924.207    29.758533 0.0028497905  0.011690841 -0.010893979 
  327000    266.74784    9345.7164     2924.207    27.715142 -0.010688774 -0.016934245 -0.0060054022 
  328000    260.95501    13810.887     2924.207    27.873869  0.042683515 -0.022318697  0.022152183 
  329000    250.30121     6000.163     2924.207    28.880336 -0.042307958 -0.013686287  0.020486614 
  330000      230.906    16050.441     2924.207    27.815404 0.0076683287 -0.039380566  0.010848791 
  331000    251.43917     8104.636     2924.207    28.259718 -0.0050135314 -0.032021482 -0.0040508557 
  332000    258.53267    10165.279     2924.207    27.770313 -0.035179452  0.019133201 0.00089208975 
  333000    249.50305     8938.812     2924.207    28.286958 -0.014495746  0.010960284 -0.022583255 
  334000    245.62947     9586.896     2924.207    28.535957  0.028646563  0.011592333 0.0055637269 
  335000     266.7792     16582.67     2924.207     28.42932 -0.033943141 0.00040261578    0.0113645 
  336000    236.37102    7122.1984     2924.207    27.147102 -0.027264105 -0.032102448 0.0040280524 
  337000    268.74634    10731.765     2924.207    26.628606 -0.009590099 -0.0081522101 -0.016538413 
  338000    257.83227    16107.099     2924.207    27.649151 -0.0048569902  -0.01591305 0.0066026844 
  339000    261.34206    7697.9514     2924.207    27.247883  -0.04866925 0.0012780345 -0.014779225 
  340000    258.39249     7580.375     2924.207    25.065924  0.023526558 -0.020602591 -0.013830373 
  341000    253.70496    7458.7811     2924.207    22.749914 -0.016152843 -0.019062252 -0.0016375007 
  342000    244.26847    20543.961     2924.207    22.363318 0.0074272209  0.033437366 -0.018119539 
  343000    269.00801     5119.558     2924.207     23.52335  0.020774794 -0.0087937234 -0.015789484 
  344000     246.9314    18269.598     2924.207    25.058725 -0.014915213  0.030687967 -0.020269848 
  345000    255.35571    10612.024     2924.207    25.674163 0.0069230144  0.019848813  0.019915958 
  346000    255.71346    9806.0254     2924.207    22.999177 -0.018423411 -0.0074244324  0.011701668 
  347000    240.14838     16558.25     2924.207    17.313941 0.0043009395 -0.023236409 -0.011987712 
  348000    244.12323    4201.8182     2924.207    16.202962 -0.0090014178 -0.0026602037 -0.0079299981 
  349000    238.42356    7914.3914     2924.207    22.082069 -0.011732718 -0.006310342 0.0025176791 
  350000     229.0548    17715.879     2924.207    29.535686 -0.0044109937 -0.0031251317 -0.038416808 
  351000    232.74141    12009.118     2924.207     33.93313  0.023883948 -0.028360577  0.033347892 
  352000    251.89966    8635.6643     2924.207     35.24234 0.00070989505 -0.016313197  0.012586606 
  353000    256.94132    13564.252     2924.207    33.283759 0.0077599802   0.02684107  0.013025687 
  354000    255.49459    13912.431     2924.207    28.726765 0.0017809127 0.0019248354 -0.0047205757 
  355000    229.44421    10628.293     2924.207    26.258897 -0.0022059007 0.0084849903  0.003126612 
  356000    242.47856    12920.183     2924.207    22.746906 -0.0030081092 -0.019203262 0.00082134613 
  357000    261.09392     8000.551     2924.207    17.731537 0.0088848842 -0.015169162 0.0092364534 
  358000    250.67014    16582.061     2924.207    16.708143 -0.008548709 0.0061852381 -0.019749747 
  359000    242.69456    1409.9666     2924.207    17.582879 0.0060147337 -0.0078876589 0.0058671478 
  360000    256.03563    10802.555     2924.207    18.651392 -0.019753063  -0.01338372 -0.011263306 
  361000    267.48173    11607.959     2924.207    21.143238 -0.0027725902 -0.00036224128 -0.036381753 
  362000    250.10481    10492.457     2924.207    26.643319 -0.036334606 0.0059465432 0.0012660668 
  363000    261.72142    14235.534     2924.207    31.684338 -0.013781745   0.02833585 -0.018623778 
  364000    230.19852    7618.3973     2924.207    33.332086 -0.0046949526 -0.00084078137 -0.029679237 
  365000    263.40787    10878.681     2924.207    28.383512 -0.044642129  0.007209159 0.0036172838 
  366000     252.9232    9760.7382     2924.207    21.998849 -0.018491343  0.013833038 -0.0081646718 
  367000    255.25705    12371.046     2924.207    19.436953 -0.028538225  0.012821182  0.010105051 
  368000    258.71433    476.30196     2924.207    20.865782   -0.0163255 -0.021433777 0.0079244597 
  369000    254.51222    18347.858     2924.207    25.411224  0.015336587  0.037390519  0.021382758 
  370000    245.25305    15205.044     2924.207    27.759686 -0.014925534  0.015607566 0.0053925914 
  371000    245.19248    5502.6002     2924.207    25.847591  0.003703362 -0.014426568 0.0037430723 
  372000    259.31488      21859.2     2924.207     24.63243 -0.0025417128 0.0062386959 -0.00076281359 
  373000    271.29499    338.57091     2924.207    23.446494  -0.03001021 -0.0052314686  0.023874944 
  374000    258.64344    10198.716     2924.207    24.869392  0.014476277  0.025795265  0.026276071 
  375000    245.78737    17466.456     2924.207    25.642361  0.024357896  0.039484663  0.013476354 
  376000    235.68709    12833.839     2924.207    25.229236 0.0094453645 -0.015743065  0.018434153 
  377000    263.35531    6965.7232     2924.207    25.096083 0.0067173973  0.010828091 -0.006398364 
  378000    236.58491    15693.937     2924.207    28.367774 -0.0057311809  0.011934399  0.011828006 
  379000    247.81673    1017.0695     2924.207    28.902699 -0.00063452701 -0.024818367  0.048825233 
  380000    263.11589    17196.821     2924.207    28.415271 -0.0013918608  0.015747104  0.018300272 
  381000    239.31708    10338.686     2924.207    29.651782 -0.0071302388 -0.037905444 -0.013170869 
  382000    247.16784    9664.1815     2924.207    29.289744 -0.022329215  0.044307456 -0.004483468 
  383000    249.93091    10932.528     2924.207    27.647027   0.01444043  0.034033878 0.0028073633 
  384000    244.77259    6378.5775     2924.207    27.211585 0.0097746708 -0.0011506688 -0.021994103 
  385000    248.42283    11054.139     2924.207    29.480555  0.021427946 -0.001317806  0.018145498 
  386000    259.87046    11923.259     2924.207    31.437862  0.020616251 0.0032042673 -0.049510425 
  387000    252.89743    6445.0536     2924.207    29.791041  0.027330945  0.053016374 0.0064018528 
  388000    230.04019     10293.84     2924.207    27.099679  0.029389944 0.0020912681 -0.018500148 
  389000    255.64042    6924.6115     2924.207    25.075447 0.0042393948 0.0043935148 -0.032186026 
  390000    249.59393    11054.309     2924.207    25.204843  0.029641826 -0.037975908  0.016272488 
  391000    245.96213      17700.4     2924.207    26.585884 -0.026209826 0.0037288234 -0.00041402882 
  392000    248.48185    6334.7941     2924.207    28.452199  0.011670466 -0.0062623058  0.010015533 
  393000    242.08062    10880.601     2924.207    27.762723  0.022523225 0.00047035575 0.0057988398 
  394000    258.84053    7739.0306     2924.207     27.34924  0.011346106  0.014043419 0.0030590038 
  395000    240.28242    16314.141     2924.207    27.362528 -0.0032250356 0.0038157988  -0.04733031 
  396000    262.48403    5740.9139     2924.207    25.011667  0.032270235  0.016748471 -0.013514572 
  397000    257.19177    3991.0611     2924.207    21.093878 -0.0041800227 -0.017679694   0.03423876 
  398000    252.81657    15218.762     2924.207     20.18471 -0.013952051 0.0036136992 -0.022983411 
  399000    232.90561    8618.2115     2924.207     23.28439  -0.00427191 -0.0081885048 -0.036020511 
  400000    255.80225    10545.492     2924.207    27.130865  0.014703507 0.0051603007 -0.032478735 
  401000    252.21561    16734.316     2924.207    30.756261 0.0078875685 -0.021226515  0.050530253 
  402000    241.18398    6176.7675     2924.207    34.189907   0.02722761 -0.014661553  0.011478322 
  403000    257.95068    15228.033     2924.207    34.628936  0.020908052 -0.0013289757 -0.032014405 
  404000    258.55389    10987.493     2924.207     30.66353  0.010807567 0.0039947152  0.018247405 
  405000    249.20243    354.62584     2924.207    24.055409  0.025095585 0.0043629908 -0.0048413939 
  406000    268.74546     10486.06     2924.207    19.638522 -0.0055053884 -0.042127923  0.028393395 
  407000    247.47875    6874.7991     2924.207    19.504194 -0.010278537 -0.0029527033   0.00836321 
  408000    255.15909     11919.07     2924.207     23.68486 0.0029275573  0.032802665   0.02174625 
  409000    243.20934    9897.5728     2924.207    28.104268 -0.0004672241 0.0045152269  0.015039295 
  410000    249.21832    10901.161     2924.207    31.238582 0.0038966355 -0.007834322  0.013177984 
  411000    239.70596    9020.1316     2924.207    33.778166  0.036390515  0.012404006 -0.017426491 
  412000    257.51972    11182.331     2924.207    35.589925 0.0034729189  0.014787941 0.0091675141 
  413000    239.99959    12817.605     2924.207    34.615255  0.024281494 -0.030863091 -0.024649845 
  414000    226.48615    8693.9571     2924.207     31.70815 -0.017970132 0.0097861947 -0.021720542 
  415000    250.72739     16414.93     2924.207    29.616311 0.0056135506 -0.010693152  0.001684216 
  416000    244.13507    1556.1232     2924.207    29.721497  0.011194718  -0.01973393  0.024600556 
  417000    249.22007    11888.805     2924.207    29.493752  -0.01788212 -0.015070165 -0.012967814 
  418000    261.90257    7102.2094     2924.207    29.449035 -0.046973225  0.018594944 -0.0055714723 
  419000    252.13234    13979.492     2924.207    29.092551  0.010809372 -0.0059884614  0.010007018 
  420000    246.14128    15984.642     2924.207    26.914129  0.023179314 -0.015755518 -0.019225949 
  421000    267.42411    1384.9446     2924.207     24.16768  0.022320818  -0.01158726 -0.014078031 
  422000    272.91869    12797.027     2924.207     20.62773 -0.0046622202 -0.019899477  -0.01758834 
  423000    262.97527    1187.5588     2924.207    18.938952 0.00052720391 -0.045917751 -0.028381575 
  424000     251.1856    6351.8234     2924.207    19.452761 -0.0058119964 -0.012173167 -0.011254284 
  425000     257.7933    18156.788     2924.207    19.896361 -0.013839157 -0.019011759  0.021857298 
  426000    276.26928    10512.228     2924.207     22.69872 -0.024637463 -0.0072061424  0.013759443 
  427000    257.69913    9492.5709     2924.207    27.913137 -0.0081263117 -0.0085640479 0.0059586962 
  428000    240.98385    14133.594     2924.207    32.352521 -0.019971299  0.010534846 -0.027325723 
  429000     260.8982    6153.6979     2924.207    33.103302  0.021902114 -0.020609684   -0.0218734 
  430000    254.84935    12025.362     2924.207    29.828717  0.023670125 -0.014872344  0.032035789 
  431000    235.31725    10809.837     2924.207     26.21419  0.019881279 0.0016723636 -0.019841451 
  432000    246.09285    6155.8939     2924.207     24.57288 0.0056433763  0.010005356  0.012608496 
  433000    243.60997    10453.166     2924.207    26.415305  0.020512848  0.017300143  0.039322944 
  434000    228.67457    6125.6247     2924.207    28.710255 -0.00028890452  0.034090823  0.045942721 
  435000    260.87673    12471.082     2924.207    28.944179 0.0094304183   0.02641722 -0.012585286 
  436000    250.63603    8959.3023     2924.207    30.028946 -0.0064925283 -0.011023166 -0.041750902 
  437000    238.90563    8960.9581     2924.207    32.825657 -0.0016923157  0.006556178    0.0138203 
  438000    238.82873    13843.778     2924.207    32.747201 -0.015596793  0.010387879 0.0019270042 
  439000    258.96345    4563.8168     2924.207     31.71257 -0.0019508045 -0.014888498  0.024771803 
  440000     246.5278    12369.883     2924.207     29.48435 -0.022506355 -0.031451182 -0.024887282 
  441000    239.18889    6243.2952     2924.207    28.680357 -0.010865215 -0.0089037737  0.018606458 
  442000    255.51046    14080.461     2924.207    29.948257   0.04917778 -0.004357141 0.00034346621 
  443000    262.42369    11477.075     2924.207    32.265265 -0.026339122  0.031395263  0.030233665 
  444000    268.66438    3952.8114     2924.207    34.826235 -0.013082117 -0.032582176 -0.00011680595 
  445000    262.24616    11853.723     2924.207    34.162795 -0.00078357397 0.0043213683  0.033279842 
  446000    268.87521    11116.393     2924.207    32.676352  -0.01498087 0.0070518868  0.041150526 
  447000    241.75733    9075.1009     2924.207    32.178731 0.0079675288 0.0049165109 -0.022868711 
  448000    256.74134    11067.411     2924.207    32.901537  0.013625628 -0.021530079 -0.007774521 
  449000    242.91821    8388.3642     2924.207    34.881289  0.017617262 -0.0030879734 -0.015897371 
  450000    247.71557    8611.2472     2924.207    35.561131   0.01182804 -1.0011581e-05 -0.0022119441 
  451000    255.90164    1945.3581     2924.207    35.608651 0.0072790671 -0.026483592   0.02546452 
  452000    239.33528    13167.492     2924.207    35.342555 -0.0048682707 -0.047526182 -0.0035902589 
  453000    248.34585    15191.945     2924.207    32.434021 -0.025458873 -0.027120216 -0.027112066 
  454000    241.25169    3979.1071     2924.207    27.891425 -0.0094387405  0.017831987  0.018977528 
  455000    241.56803    20497.465     2924.207    25.080564 -0.0080537556 -0.004551072  0.017371789 
  456000    244.75648    2915.4652     2924.207    25.658659  0.022894019  0.038012209 -0.048723625 
  457000    254.36466    11525.381     2924.207    29.031422 0.0022055459 -0.0075171426 0.0018834426 
  458000    238.40332    9037.8086     2924.207    33.052401  0.025516504  0.030373951 -0.0067379218 
  459000    263.17184    6391.3132     2924.207    35.992426 -0.038735229 0.0034132083 0.0024143029 
  460000    242.40542    10623.649     2924.207    34.742905  0.030828693 0.0053393764 0.0091512978 
  461000    272.05138    7462.1275     2924.207    31.400685 -0.008021808  0.011309812  0.024900995 
  462000    240.35769    10320.067     2924.207    28.327283 -0.042006076 -0.025861353 -0.033785926 
  463000    257.84378    7822.5724     2924.207     28.05108 -0.009941567  0.015099557  0.015999042 
  464000    235.99248    13953.667     2924.207    29.376039 -0.023712324 -0.024185295 -0.032559776 
  465000    267.90069    8026.0146     2924.207    29.564669 -0.037876799 0.0012073245 -0.046456207 
  466000    251.90833    11982.422     2924.207    30.903146 -0.022949885 0.0033456933  0.033898033 
  467000    250.12143    7508.7336     2924.207    32.900257 -0.011451334 -0.011016417 -0.00018762622 
  468000    254.05214    12952.918     2924.207    33.488283  0.020011381 -0.0057809859  0.026753145 
  469000    235.22875    12967.435     2924.207    32.115676  0.016659926  0.025714398  0.018934421 
  470000     255.1499    2088.1589     2924.207    30.480684 0.0053039677  -0.01496557 -0.012001706 
  471000    248.58876    7517.4072     2924.207    30.402146 0.0094946779 0.0078404535 -0.011492141 
  472000    252.25727    11908.798     2924.207     31.34085  0.016463467 0.00047968316  0.014048462 
  473000    249.73177     3745.748     2924.207    32.943603 -0.0082714482 0.0069145035 -0.025420331 
  474000    240.31874    19150.151     2924.207    31.927789 0.0020044138 -0.00015908845  0.038058488 
  475000    253.04979    1657.4765     2924.207    30.208328 0.0047850651 -0.0011485074 -0.0074273155 
  476000    238.20311    16555.142     2924.207    30.181119  0.022106206  0.018813672  0.017019466 
  477000    254.37556    13248.657     2924.207    30.544741 -0.0012474088  0.013751161  0.061407207 
  478000    255.12885    1727.7643     2924.207    30.187009 0.0022634129 -0.018300713 -0.00017390899 
  479000    237.54045    9362.6362     2924.207    27.794832 -0.0096489557 -0.012177808 -0.012932491 
  480000    244.82826    8432.3764     2924.207    26.859593 -0.039341622  -0.01887129  0.012816567 
  481000     252.7713    7186.5612     2924.207    26.520585  0.016521012 -0.021067294  0.020802327 
  482000    256.80985     6819.551     2924.207    28.111174 -0.012584735 0.0053205297 -0.0050469662 
  483000    217.25128    17412.095     2924.207    27.507823  0.002324089   0.00350041  0.026055364 
  484000       244.87    7750.1927     2924.207    24.841371 0.0046773295 -0.0012062781 -0.021182993 
  485000    254.98732    12546.557     2924.207    23.363293 -0.013067629  0.021499133 -0.037825579 
  486000    268.63023    14261.692     2924.207    22.798185 0.0047923751  0.015723768 -0.011598533 
  487000    227.68428     4576.286     2924.207    24.018906  -0.01671356  0.015891795  0.014125428 
  488000    254.45703    17176.817     2924.207    26.171209 0.0007043779 -0.014344324 -0.007876889 
  489000     238.1837    10917.912     2924.207     27.28542 0.0055175179  0.014633444 -0.0047040515 
  490000    242.40774     7114.885     2924.207    27.990083  0.012262471 -0.014605823 -0.0049570679 
  491000    246.85593    13753.644     2924.207    28.282471  0.010434888 0.0087728282 0.0072908419 
  492000    260.29169    7606.9952     2924.207    28.846321 0.0021216292  0.047984958 0.0042581367 
  493000    245.96307     12380.76     2924.207    30.718245 -0.011582032 -0.010828182 0.0045826878 
  494000    254.71369    14822.891     2924.207    33.450878  0.028188769  0.059195595  0.030897873 
  495000     252.4745    6922.3849     2924.207    34.511616 -0.012463732 0.0032643293  0.011246528 
  496000    224.70877    3936.4941     2924.207    32.700643 -0.0091450031  0.011743188  0.032730438 
  497000    251.66788    15338.125     2924.207    30.641591 0.0014163118 -0.015551507 -0.007717377 
  498000    244.43229    11782.904     2924.207    28.052887  0.024585158 0.0017901261  0.012744031 
  499000    259.50682    5872.8383     2924.207    26.649595  0.015914942  0.053246656 0.0011962677 
  500000    245.41074    12017.109     2924.207    27.908879  0.012431335 -0.022296756  0.014684967 
  501000    249.86781    3702.3821     2924.207    29.847787 0.0034627573 -0.035523835 -0.019764616 
  502000     261.3958    4767.2248     2924.207    28.733087  0.016031118 -0.011823276 -0.042012688 
  503000     252.2768    19334.563     2924.207    27.174021  0.010171251 -0.004544444  -0.02663013 
  504000    249.44665    8712.9908     2924.207    24.590514 -0.035740884  0.016701535 -0.010617111 
  505000    251.34305    7325.2437     2924.207    24.114003  0.022130463 0.0051442566 0.0034191538 
  506000    231.98466    15501.753     2924.207    26.787178  0.026428145 -0.0021823914 0.0032313832 
  507000    231.39954    11975.738     2924.207     29.55966 -0.016739198  0.012133907 -0.020671324 
  508000    248.59288    8979.5255     2924.207     29.56022  0.028014817  0.025030244   0.01863712 
  509000    257.67231    11806.911     2924.207    26.621891 -0.015155885 -0.014849676 -0.0066552405 
  510000    238.57737     5829.498     2924.207     22.46108 -0.0034392989 -0.017065277  0.041239121 
  511000    230.07098    7512.8684     2924.207    23.242982 0.0013036888  -0.01547759 0.0037708893 
  512000    243.66896    9450.9755     2924.207    25.967615  0.022887187 0.0026603495 0.0037908675 
  513000    233.50045    13661.824     2924.207    27.827733 -0.028779901  0.016865636 -0.0097263127 
  514000    251.36158    8260.7225     2924.207    28.105455  0.013762033 -0.003397434 -0.034880506 
  515000    262.39528    8381.8394     2924.207    27.652976  0.034426849  0.016869245 0.0053418058 
  516000    248.68516    13278.757     2924.207    26.092622  0.048342822 -0.036885275 0.0018636396 
  517000    255.74766    7945.9395     2924.207    27.414835 0.0085492294 -0.028575714 -0.020969014 
  518000    253.70886    10106.647     2924.207    28.663106  0.015598272 -0.015523402  0.013612335 
  519000     251.1362    8555.8416     2924.207    26.604872 -0.034160868 0.0033314231 -0.0022045069 
  520000    244.95159    19655.698     2924.207    23.012913 0.0052994493 -0.025572007 -0.012804733 
  521000    245.72563    3044.8827     2924.207    21.365699 0.0031482275 -0.022143317 -0.0060304978 
  522000    255.69454    7188.7712     2924.207    20.669706  0.016841708  0.040162264 -0.012398217 
  523000    265.02995    9145.8285     2924.207    20.554022 -0.00067622314 -0.013495603 -0.034077153 
  524000    262.71523    8743.7212     2924.207    21.771791  0.051650933  0.025144336 -0.0096758209 
  525000    257.90971    7002.4842     2924.207    24.348502  0.014725825 0.00091178038 -0.034575696 
  526000    248.27441    8044.7095     2924.207    26.739287   0.01326027 -0.0037404835 -0.002477654 
  527000     250.4589    10775.006     2924.207    29.669619 -0.00018227399 -0.036508795 0.0078691353 
  528000    250.67485    13303.603     2924.207    31.426903 -0.00043648891  -0.02734215 -0.011266166 
  529000    247.45812    5997.5111     2924.207    31.560291 0.0080580176 0.0014277602 -0.035651941 
  530000    255.48896    10614.116     2924.207    28.774661  0.012715533  0.018869764  0.002978262 
  531000    244.79282     13662.68     2924.207    25.960068 0.0038568941 0.0057784647  0.018724376 
  532000    261.12335    8468.4865     2924.207    25.051713 -0.0061213926 -0.002924525 0.0072871591 
  533000    261.52523    10889.447     2924.207    26.365096 -0.021764002 -0.0044774398  0.020375018 
  534000    246.66149    5767.5365     2924.207    27.033928 -0.012096555 -0.0016903206 -0.024165608 
  535000    263.10235     10788.26     2924.207    24.995613 -0.00095304357 -0.016204858  -0.01653547 
  536000    248.69504    5132.1173     2924.207    23.272561 0.0020955443 -0.016052602  0.004095239 
  537000    273.74868    7158.3112     2924.207     21.52858 -0.0071564494 -0.0012299088  0.016831629 
  538000    251.26097    5677.9138     2924.207    24.839105  0.024846631 -0.030465655 -0.014154449 
  539000    264.74301    13628.817     2924.207    30.905919  -0.01626158 -0.0021778914 -0.033186898 
  540000    262.03901    4012.6388     2924.207    33.683119 -0.026310199 0.0040432541  0.042518841 
  541000    248.53292    11301.986     2924.207    30.951683  0.028267018 -0.013188712 -0.0034485482 
  542000    268.51202     9634.214     2924.207    26.944023 0.0076465496 -0.0085709766   0.02209494 
  543000    249.35675    10664.899     2924.207    25.417086  0.025322228 -0.013258507 0.0074967793 
  544000    266.56056    12176.223     2924.207    27.519624  0.022730143 -0.020772305  0.017785418 
  545000    259.42634    5125.2043     2924.207    31.084262  0.026798623 -0.017542484 0.0007932519 
  546000    253.71638    6033.1629     2924.207    30.707172 0.0017440862 0.0081527066  0.013873024 
  547000    238.88164    7169.3826     2924.207    27.174817 0.00064170875 0.0011156513   0.01507609 
  548000     256.3521    11620.894     2924.207    22.395298 -0.015818609 -0.0001451962 -0.038310373 
  549000     243.4191    5923.3589     2924.207     22.65136 -0.0055901782 -0.034132167  0.030405154 
  550000    258.49772    12811.313     2924.207    27.889727 -0.00059727542 -0.0031248324  0.019424923 
  551000    246.62751    6986.4666     2924.207    32.524225 -0.013416527 0.0054361635 -0.0075087397 
  552000    240.09037    9806.4998     2924.207    32.042374 -0.0067930635 -0.019564647 -0.0044256821 
  553000     259.9632    11371.199     2924.207    29.402021 -0.0015802051 -0.023939721  0.021911244 
  554000    252.78813    7618.4908     2924.207    27.263154 -0.030366454 0.0050821082  0.032336245 
  555000    221.18491    10724.115     2924.207    27.002589 -0.034744999  0.051243885 0.00073085649 
  556000    256.11308    9221.8077     2924.207    25.869636  0.010032062  0.025413369  0.018954098 
  557000    258.49061     7877.521     2924.207    27.279118  0.044492214 -0.014937683 -0.0061152461 
  558000    242.73976    7806.6941     2924.207    27.165854  0.048696765  -0.02079282  0.051623378 
  559000    250.23764    12775.058     2924.207    24.581772 0.0043904575  -0.01017662   0.02251762 
  560000    252.40824    12819.691     2924.207    24.154225   -0.0128412  0.020382148 0.0090004044 
  561000     258.0136    4333.9326     2924.207    25.315424 -0.012953642  0.024659903 -0.025095198 
  562000    251.07501     15939.04     2924.207    28.994062 -0.0028820568 0.0039644233 -0.030825594 
  563000    257.89605     12869.12     2924.207    31.838025 0.0017109893 0.0070093764 -0.034745278 
  564000    255.20441    7123.8145     2924.207    32.775978  0.014249595 -0.018911433  0.025775602 
  565000    245.59979    12486.351     2924.207    33.340398 -0.0065391047 0.00031635431  0.015218635 
  566000    245.44211    13828.329     2924.207    32.802339 -0.044328371  0.014751084 -0.019855428 
  567000    242.95071      8106.84     2924.207    29.545076 0.0085628389 0.00019089933 -0.0091219218 
  568000    265.48709     10323.45     2924.207    24.932143  0.012780349  -0.01193421 -0.027232686 
  569000    266.54154    8927.2185     2924.207    21.120134 -0.011676995  -0.04210752 -0.0093312237 
  570000    239.38452    12012.675     2924.207    20.022877  -0.01577797 -0.037949067 -0.0061215922 
  571000     269.3713    3244.8134     2924.207    22.839746 -0.012070027 -0.018293416  0.020037557 
  572000    263.63684    18159.948     2924.207    24.946786 -0.003753622 -0.018050291  0.043032998 
  573000    261.66502    3974.4481     2924.207    25.818111 -0.022742037   -0.0344573 -0.013379627 
  574000    254.66344    11639.363     2924.207     25.88642 -0.029081511  0.029587165 -5.5834144e-05 
  575000    258.59408    5389.1594     2924.207    26.321079 -0.0090192881    0.0120432 0.0060859585 
  576000    254.33105    8009.6488     2924.207    26.801616  0.013632501 -0.0066156495 -0.012122008 
  577000     269.9886    10406.273     2924.207    26.020624 0.0058484803 -0.037215127  -0.01031225 
  578000    255.61899    7902.1421     2924.207    25.525966  0.016030821 -0.0077236576 -0.024584317 
  579000    271.65604   -2905.8264     2924.207    26.153697  0.018014447 -0.0079022141 0.0040967392 
  580000    248.22789     13499.31     2924.207    27.781781 -0.027478895  0.050220864 -0.013540644 
  581000    244.76535    10399.039     2924.207    30.930899 -0.0076489979 -0.014473703 -0.0049133898 
  582000    262.05689    2824.1315     2924.207    32.382328  0.008801585  0.020544286 -0.015509484 
  583000    233.13064    16270.454     2924.207    33.125597  0.048127686 0.0080955906 -0.0079712509 
  584000    247.41395    4487.4303     2924.207    31.155604  0.040576289 -0.010202471  0.031864148 
  585000    258.21102    12315.238     2924.207    27.808475  0.011813335 -0.044548267 -0.014511308 
  586000    232.29509    12703.035     2924.207    25.767095 -0.022791044 -0.031907984 -0.0062721019 
  587000    252.88448     8392.595     2924.207    22.677023  0.028685026  0.026604163  0.020472144 
  588000    258.94964    10628.155     2924.207    20.435191 0.0013069246  0.013272019 0.0062028044 
  589000    239.45453    4826.7512     2924.207    21.183551  0.012856436  0.020215332 -0.0064564423 
  590000    257.66766    7216.7461     2924.207    24.131623 0.0027684195  0.017471516 -0.019203766 
  591000    250.77376    12602.998     2924.207    26.720667 -0.0038877384  0.014214403 -0.017621519 
  592000    249.63222    4027.4941     2924.207    26.896796 0.0015660001 0.0096859008 -0.0078362117 
  593000    267.47238    13786.692     2924.207    27.258826  0.027135695  0.017955403 -0.018975433 
  594000    269.19981    14906.642     2924.207    26.769588  0.038634241  0.018109006 -0.013656687 
  595000    235.97857     4738.781     2924.207    26.878273 0.0022016115 -0.014167779  0.030669881 
  596000    252.48015    6281.5649     2924.207    26.421962 -0.021826997  0.039822883 -0.038933638 
  597000    259.37862    8051.2537     2924.207    28.519685 -0.034685399 -0.042493943 0.0093381336 
  598000    258.53694     11202.27     2924.207    31.799266 -0.005592818 -0.0051147076 0.0031044671 
  599000    234.40048    8605.9558     2924.207    32.623865 -0.00017092579  0.040215138  0.031165499 
  600000    253.71001    13347.537     2924.207    31.746381 0.0075616536  0.010168602  0.036854613 
  601000    250.31736      9271.76     2924.207    30.464081 -0.0081987809   0.02973091 -0.009223497 
  602000     259.3118    10197.744     2924.207    30.785639 -0.015585897 0.0035356546 0.0021879523 
  603000     258.6693    11264.906     2924.207    32.960759 -0.0046656923 -0.016206426 -0.040329511 
  604000    254.03392    3622.4624     2924.207    34.044948 -0.0029185701   0.01973552 0.0040729194 
  605000    253.63682    5925.6396     2924.207    31.149317   0.04218232 -0.031303283 -0.016541592 
  606000    245.90333    9098.8578     2924.207    29.599735  -0.01376396 -0.018530086 -0.007251443 
  607000    252.63165    8796.2255     2924.207    28.380219 -0.016907159 -0.010462258 0.0087546116 
  608000     253.0695    9041.2756     2924.207    26.357652 -0.0059138699  -0.01407795  0.015683006 
  609000    264.90422    8093.8996     2924.207    22.510579 0.0013741131  0.035728185 -0.0065865042 
  610000     259.6317     7754.486     2924.207    18.680788   0.01876815 0.0029595084 -0.030715865 
  611000    243.38413    12852.821     2924.207    18.347567 0.0077564446 -0.022276597 -0.037262749 
  612000    251.10648    7877.1703     2924.207    22.607764  0.021917107 -0.011382254 0.0075892889 
  613000    258.81674    10268.447     2924.207    25.984412 0.0062987914  0.014908826  0.032725239 
  614000    244.50296    3067.5379     2924.207    29.420054 -0.035416284 0.0022730875 -0.020989168 
  615000    244.23999    6489.4861     2924.207    31.203285 0.0072723154  0.030665002 -0.0065077954 
  616000    256.63896    11296.531     2924.207    29.767519  0.015298011  0.017814565 -0.012253874 
  617000    262.23281    17026.937     2924.207     29.13869  0.020309052  0.017579087 -0.017520031 
  618000    268.85524    4316.9806     2924.207    29.783928 -0.0048532258  0.031954097 0.0025056942 
  619000    247.39017    7083.9346     2924.207    29.529483 -0.018762873  0.014042684 -0.020623451 
  620000    249.33427    11756.298     2924.207    30.298798 -0.029522347  0.032062635 -0.0091213583 
  621000    237.05107    11480.288     2924.207    30.102273  0.018082734 0.0031377589  0.013892529 
  622000    250.48064    5300.6105     2924.207    27.340609  0.036010221 -0.0068887978 -0.010361146 
  623000    245.72667    9132.1159     2924.207    24.688726  0.034372787 -0.060933293 -0.032623435 
  624000    262.67861    14732.132     2924.207    23.485351  0.031795175 -0.013763067  0.011479259 
  625000    254.78527    1498.2232     2924.207    26.315826 0.0072972065  0.017965881 0.0045825324 
  626000    262.81022    9616.5392     2924.207    30.851291 0.0053193104  0.028667237 0.0033405817 
  627000    257.66462    11260.814     2924.207    32.903095 -0.0018608247 0.0074051094 -0.011730506 
  628000    259.69753    1256.1899     2924.207    32.851801  0.041207138  0.013194846 0.0010718791 
  629000    254.29211    10946.614     2924.207    30.753975  0.026743379 -0.0087421818  0.023291195 
  630000    233.08003    5340.2192     2924.207    26.947375 0.0008282014 0.0017063758  0.031370116 
  631000     248.4099    7538.2717     2924.207    23.854845 0.00073330868 -0.0013219108  0.011080451 
  632000    256.08954    10225.035     2924.207    24.860697 -0.018214762 -0.013811354 0.0037497268 
  633000    247.20986    4729.8961     2924.207    28.862929 -0.017521848 -0.006925926 0.0087840047 
  634000    258.36163    12636.281     2924.207    31.431298 -0.0056951666 -0.0022449963  0.022166893 
  635000    239.76621   -767.86983     2924.207    28.207365 -0.019615556 -0.051010684 -0.017160492 
  636000    252.71678    7446.1558     2924.207    23.271389 -0.025240833  0.023858502  0.020338962 
  637000    244.64013    7012.4364     2924.207    20.793494 -0.0024781112 -0.025316832  0.012680429 
  638000    258.80457    6055.0448     2924.207    24.036011 -0.027130066 -0.0038097689 -0.012932259 
  639000    249.40725    10483.955     2924.207    29.481085  -0.01811137  -0.02502687 -0.036081066 
  640000    254.97811    8775.6245     2924.207     31.71642 -0.00016669859 -0.045618808  0.044243435 
  641000    252.86386    7603.3793     2924.207    32.785812 0.0049808654 -0.0077148417 -0.019682888 
  642000    236.08552    6811.7913     2924.207    31.282107 0.0048514289  0.044719764 -0.026100822 
  643000    247.73085    13541.787     2924.207    28.454877  0.014309513  0.012789767  0.020468072 
  644000    251.31262    9467.6674     2924.207     24.89775 -0.0026017602 -0.0072723797 -0.0091034865 
  645000    253.34427    1217.4474     2924.207    23.985321  0.016436873  0.019044811 0.0044662868 
  646000    260.11512    7050.8677     2924.207    26.081703 -0.0051642747 -0.0019828459 -0.011546268 
  647000    248.92121    10532.019     2924.207    29.049894 -0.0094970114 0.0050583868 0.0052990987 
  648000    256.36604    9205.0979     2924.207    30.673825 -0.00028731431  0.029349017 -0.030959332 
  649000    245.92913    7013.9869     2924.207    28.171309   -0.0351953   0.01620399 -0.016124056 
  650000    256.84735    10151.144     2924.207    24.930768 -0.0053592608  0.016668627 -0.0016251774 
  651000    271.58016    5457.4983     2924.207    24.561165  0.024276529 -0.012011004   0.01200993 
  652000    261.89045    8709.4277     2924.207    24.553002  0.031173528  0.035834421  0.032524918 
  653000    258.85155     12012.01     2924.207    24.253501 -0.019432449  0.016833922 0.0045810658 
  654000    241.36621    6227.3473     2924.207    21.590914 -0.019547528  0.025494802  0.015371168 
  655000    261.29997    8199.4781     2924.207    19.707817 -0.032105762  0.019727896 0.0056918149 
  656000    258.92334    8174.7132     2924.207     26.10073 -0.018253886  0.031781045 0.00059031867 
  657000    250.62329     6243.549     2924.207    31.214841  0.010472913  0.031547422 -0.033333738 
  658000    250.28549    5392.5067     2924.207     33.55236 -0.031895224 0.0025143941 -0.019410256 
  659000    262.98964    13375.629     2924.207    32.703904 -0.0020722057 -0.013662201 -0.017487728 
  660000    248.60649     10102.64     2924.207     29.64387 -0.0035820234 0.0028023714 -0.025440766 
  661000    264.65206      8857.67     2924.207     26.56798 -0.011515446  0.061277903 -0.066779089 
  662000    255.99292    6723.5363     2924.207    25.007257 0.0047785275  0.010255785 -0.022203288 
  663000    251.84909    3297.3665     2924.207    26.114641  0.015792989 -0.0087236156  0.015899994 
  664000    251.98511    16469.896     2924.207    28.088725  0.016180015  0.025496484 0.0014630672 
  665000    252.57463   -2107.3025     2924.207    27.486749 0.0037913809 -0.014039112 -0.0016434621 
  666000    235.28319    15601.883     2924.207    24.375929  0.018639309 -0.017242844 -0.023303482 
  667000    258.23923    12165.602     2924.207    22.657811 0.0043596533  0.010747789 0.0040470251 
  668000    262.97776     515.4292     2924.207    26.500398  0.021890717 0.0016153573  0.013576174 
  669000    245.18437    7053.6156     2924.207    32.226474 -0.022521061 -0.006611695  -0.02824751 
  670000    251.64034     9340.053     2924.207    33.558945 -0.0065319246 -0.0080656171  0.021541378 
  671000    246.98668     9895.739     2924.207    29.578754 -0.014470548 -0.010040465  0.036469243 
  672000    252.61733     6733.308     2924.207    22.464452  0.016404345 0.00037820064  0.010381701 
  673000    247.35409      6057.66     2924.207    20.978035  0.034812096  0.014235133  0.027986993 
  674000    247.57896    11061.367     2924.207     24.70898  0.009972933  0.025031749 -0.014715678 
  675000    256.72888    15225.692     2924.207    28.868133  0.013911657 -0.0015347809 -0.025042379 
  676000    257.33329   -2313.8614     2924.207     30.39881 -0.0041929923 0.0097935324  0.015419374 
  677000    234.55478    8406.3292     2924.207    30.917158  -0.03913656 -0.0099357315 0.0011170532 
  678000    250.25721    20409.212     2924.207    32.562436 -0.058424272 0.00012657105  0.013485094 
  679000    257.61801    27.826795     2924.207      34.2492 -0.0024665304  0.015305704  0.010529803 
  680000    253.87493    3535.1971     2924.207    34.668128  0.045335655 -0.007934453 0.0031820568 
  681000    270.43197    8105.7596     2924.207    33.023893  0.018361278 0.00050333043 -0.0044044371 
  682000     264.9571    10471.257     2924.207    31.798111 -0.0048804718  0.026170806 -0.016222644 
  683000    262.18892    8586.4375     2924.207    32.472531 0.0028988378  0.020261965 0.0027582893 
  684000    262.33409    8431.0657     2924.207    32.881635  0.062813072  0.017506551    0.0265724 
  685000    255.30596    8053.3484     2924.207    31.761463   0.01326148 -0.012304099  0.016821782 
  686000    257.50829    9230.0723     2924.207    28.734294  0.015885016 -0.010978078 0.0029856821 
  687000    252.89882    11674.029     2924.207    25.696764 -0.0079896967  -0.03148519 0.0060102613 
  688000    251.14151    4474.3457     2924.207    21.562606 -0.0078825119 0.0022318176  0.013981903 
  689000    252.08913    8801.4622     2924.207    19.846293 -0.030031095 0.0093991778 0.0098539261 
  690000    256.02329    8655.9513     2924.207    22.183643 -0.026116311 0.0049614672 -0.007135393 
  691000    250.48819    13001.354     2924.207    28.254984 -0.041493302 -0.0027161817  0.040308115 
  692000    252.63591    168.67783     2924.207    33.386734 0.0099986168 -0.015660384 0.0038892651 
  693000    238.01407    9580.0241     2924.207    34.766128  0.022714382 -0.0071515856 -0.035867865 
  694000    253.29486    19707.206     2924.207    31.810006 0.0049736728 -0.00084849777  0.013745385 
  695000    274.93932    -1774.927     2924.207    25.738329 0.0044016331 0.0002391254 0.0098700575 
  696000     243.3203    6788.5231     2924.207    19.885016  0.008398288 -0.066224342 -0.042955506 
  697000    264.89698    11770.007     2924.207    18.720594 -0.012456539  0.024103359 -0.019255594 
  698000    247.51417    5181.9225     2924.207    21.221933  0.012137492 -0.021825186 -0.015840021 
  699000    266.15713    8871.7256     2924.207    25.522661 -2.1915425e-05 -0.015306133  0.010578994 
  700000    257.95434    8109.2707     2924.207    28.883918 -0.016177728 -0.047730991 -0.0074374601 
  701000    259.26987    8303.2428     2924.207    29.391419 0.0092707505   0.02198992 -0.0083988561 
  702000    261.97475    6570.9082     2924.207      28.0955 -0.012405295 -0.0044541745  0.012339397 
  703000    245.27257    10658.277     2924.207    25.248467 0.00069896455  0.027250415  0.020246377 
  704000    244.18548    -1240.975     2924.207    24.395289   0.02703251  0.029123317  -0.01094504 
  705000    256.13012    16084.559     2924.207    25.916583 0.0054900557 -0.0016381662 0.0095051755 
  706000    251.91027    1734.8351     2924.207    26.564689  0.014647602  0.027565722  0.020727716 
  707000    259.26326    9053.8813     2924.207    27.643338 -0.021323742 -0.028777414 -0.0089222964 
  708000    264.57339    8503.9878     2924.207    29.439936  -0.01202492  0.017887559 -0.026954437 
  709000    253.19811    3355.4426     2924.207    28.578378   0.02568441  0.026370404 -0.012983029 
  710000    255.84154    11623.834     2924.207    22.047059  -0.01305511 -0.0069484853 -0.035453248 
  711000    262.74473     7270.778     2924.207    18.666013 -0.016306849 -0.0044713264  0.037387011 
  712000    249.66622      9062.29     2924.207    20.574276 0.0080972522 -0.020315434 0.0068881029 
  713000    238.46355    7404.7599     2924.207    24.810999 -0.016491452 0.0011557863  0.017709021 
  714000    250.04664    12798.426     2924.207    29.696862   0.01710092 -0.025755987  0.025474766 
  715000    251.23013    5005.3916     2924.207    31.542951 -0.0043323336  -0.00600044  0.034096092 
  716000    249.29521    14451.673     2924.207    28.305837 -0.024740999 -0.0029454489  0.011672878 
  717000    257.07913    1265.1145     2924.207    24.055302  0.021494318 -0.023642917 0.0066206076 
  718000    271.56686    16473.447     2924.207    23.484933 -0.021319163 -0.005205221 0.0043380544 
  719000    248.69296    11698.691     2924.207    26.769085 -0.0085178474  0.013247117 -0.0074463533 
  720000    256.04349    3065.4512     2924.207    29.561724 -0.016370669 0.0044281581 -0.021302284 
  721000    259.07174    7100.0575     2924.207    29.593163  0.030675136 -0.0076049605 0.0087649338 
  722000    258.04287    8464.0666     2924.207    27.211367   -0.0162131  0.018139282 -0.010085295 
  723000    260.91733    10449.251     2924.207    27.107363 -2.9982183e-05 -0.036921057 0.0085896558 
  724000    253.77479    8038.4767     2924.207    28.466985 -0.023880278  0.019935631  0.012163258 
  725000    256.92554    9202.2781     2924.207    30.282993  0.018373841 -0.013631406 -0.023928392 
  726000       246.06      5301.42     2924.207    29.962788 0.0095296542  0.018770116  0.021437705 
  727000     265.2226    11286.993     2924.207    29.033676  0.020801716  0.019791131 -0.019366218 
  728000      257.017    4620.5915     2924.207    29.799742 -0.023478119  0.013375854 -0.007970294 
  729000    249.44018    8583.8127     2924.207    29.518306  0.021168922 -0.0041848821 -0.018180341 
  730000    263.31194    10883.407     2924.207    29.324657  -0.01070315  0.012617283 -0.021256149 
  731000    244.55144    9734.4693     2924.207    29.868401  0.015379657 -0.015505449  0.025682958 
  732000    247.83276    18492.068     2924.207    27.981075 -0.021770094 0.0024951187  0.021136133 
  733000    256.33653     1323.748     2924.207    24.862044 -0.050139274  0.037417562 -0.012403332 
  734000    259.52718    6136.1957     2924.207    22.396102 -0.010471042  0.028273326 0.0085058465 
  735000     252.2945    8098.0639     2924.207    22.290969  0.002447478  0.017609079  0.013999177 
  736000    242.61448     7066.266     2924.207    26.225811  0.013247299 -0.029265547 -0.007564824 
  737000    250.04666    11550.264     2924.207    29.901276 -0.015744391 -0.027174007 -0.0076074204 
  738000    249.02259   -488.41326     2924.207    30.582695 -0.0095740115 -0.015033571  0.018570337 
  739000    254.40505    14307.511     2924.207    26.284978 0.0012262904  0.014631666 -0.0049601224 
  740000    249.66623    6625.8774     2924.207    19.012156  0.037666359 -0.0024962368 -0.00098242978 
  741000    257.96038    10831.616     2924.207    16.972902 -0.0040397148  0.016264562 0.0036615534 
  742000    250.48412     5255.446     2924.207    20.203676 -0.0066534086  0.018583016  0.038712325 
  743000    244.91844    8300.9717     2924.207    26.932121 0.0042636775 -0.0038758806  0.011405204 
  744000    265.13011     11815.13     2924.207    32.580547 -0.0025522507 -0.008715436 -0.00066688399 
  745000    258.45227    6786.2035     2924.207    35.467799    0.0191203 -0.010453983 0.0010655428 
  746000    254.23196    6427.0211     2924.207    33.920514  0.028884909  0.044055772 0.0078654997 
  747000    257.01692    13089.844     2924.207    29.440514  0.011972527  0.030809818 -0.025184093 
  748000      266.505     6266.856     2924.207    25.330679  0.030988837  0.013073219  0.016760596 
  749000    253.16885   -267.31725     2924.207    25.209402 0.0065962938  0.043406393  0.027252259 
  750000    226.72115    14727.792     2924.207     26.76819  0.014755199 0.0026324182 -0.013856806 
  751000    243.21331    5763.1185     2924.207    27.548735  0.012719684 -0.047224511  -0.01659277 
  752000    259.17421    7509.8911     2924.207    27.153761  0.041807029  0.044424338 -0.013035494 
  753000    242.72763    5650.5901     2924.207     25.19874  0.033065748 -0.035305801 0.0081064598 
  754000    244.17147    9755.0188     2924.207    23.424146 -0.0038829647  0.022631954   0.04578968 
  755000    246.53773    8860.7143     2924.207    23.951333  0.040545672 -0.0043641296 -0.009536345 
  756000    241.94074    8573.6499     2924.207    25.947887  0.019373632 -0.0024109035 -0.024485425 
  757000    236.54868    9214.7756     2924.207    29.489459  0.016108687 -0.010791948 -0.011589079 
  758000    244.51335    4443.3319     2924.207    33.561691 -0.033125548 -0.019473288 -0.027879568 
  759000    255.51578    8462.6891     2924.207    34.295634 0.0050982535 -0.022759799 -0.040596874 
  760000    254.44509    8803.1772     2924.207    30.800391 -0.0017562528 -0.049653145 -0.016511186 
  761000    254.46926    1073.4857     2924.207    24.780828 0.00084388571 -0.013914228 -0.019553408 
  762000    240.85516    8193.7973     2924.207    22.938188 -0.014276376 -0.0016684381 -0.016622955 
  763000    246.34663    15994.147     2924.207    25.456365  0.016733743 0.0013925058 -0.012341178 
  764000    256.30405    5736.8967     2924.207    29.431307 -0.016041255 -0.013389611 0.00036534407 
  765000    239.03712     3973.512     2924.207    30.599794  -0.03635496  0.025333506  0.013833453 
  766000    246.14788    10651.019     2924.207    29.526273 0.0073785225 -0.0057330698 -0.013024898 
  767000    216.79184    18838.539     2924.207     28.25757 -0.051295637 -0.032192321  0.017621517 
  768000    238.96628    6714.5925     2924.207    25.015907 -0.0061302064 0.0012924858 -0.0033143678 
  769000    243.42217    11875.519     2924.207    23.415838 -0.0047087897 -0.0087913322 0.0072299821 
  770000    236.82445     7302.223     2924.207    25.365089  0.010357196 -0.014223395 -0.013289823 
  771000    232.35707    6553.7222     2924.207    28.763424 -0.00066839764 -0.020498541 -0.037972552 
  772000    254.19295    9382.9803     2924.207    31.995403 -0.025248914 0.0012283356 0.0041526243 
  773000    246.37738    9013.2528     2924.207    32.765174 -0.016896727 -0.0028453121   0.02809011 
  774000    229.44192    9342.4511     2924.207    30.557874 -0.012416295 -0.0050875162 -0.010748397 
  775000    247.28122   -2492.7403     2924.207    28.569894 0.0046752352 -0.019005509 -0.027233145 
  776000    245.05052    11546.302     2924.207    29.014997 0.0038384414 -0.052477388 -0.011268813 
  777000    230.59005    11892.957     2924.207    31.462256 -0.019813791 -0.035391679 0.00015570692 
  778000    246.56594    190.51945     2924.207    31.856123 -0.024733305 -0.022855375  0.013612342 
  779000    238.39154     6447.542     2924.207    30.088335  0.023420354 -0.0054625644 0.0040393448 
  780000    247.11008    14303.609     2924.207    27.406156 -0.011283241   0.01982679 0.0033516539 
  781000     253.1546    918.20901     2924.207    23.922787  0.017392307  0.018906978 0.00055389399 
  782000    237.80318    6202.1043     2924.207    22.810701 0.0060034533 -0.0056613132 -0.012563215 
  783000     259.6116     15216.95     2924.207    24.647888  0.051810655 0.0084296604 7.4483367e-05 
  784000    248.59959    8336.3948     2924.207     26.40196  0.016401564 -0.0020020658  0.013830999 
  785000    269.81132     10176.98     2924.207     27.25127  0.022878797 -0.0032564576  0.011467242 
  786000     260.4208   -327.10697     2924.207     26.45391 -0.0045180495 8.3054659e-05 0.0037713912 
  787000    256.47613    10407.303     2924.207     23.98209  0.024236555  0.032952918 -0.015257718 
  788000    249.56198     6345.304     2924.207    22.519657 -0.012450671 -0.016624979 -0.0033832546 
  789000    246.12845    11268.539     2924.207    22.025533 -0.017585838 0.0045725581 0.0012436237 
  790000    281.48451     2453.517     2924.207    23.230449  0.020394716 -0.011559614  0.001026882 
  791000    256.56327    10654.343     2924.207    25.815783 -0.0060667472  0.029870869  0.018572799 
  792000    228.82371    2442.3496     2924.207    29.938388 -0.030304541 -0.0060170831 -0.0050218075 
  793000    256.16941    11367.747     2924.207    32.230697  0.042734611  0.036768615  0.014302891 
  794000    241.31305    13266.982     2924.207    32.069147  0.005024726    0.0236374 -0.021200982 
  795000    261.11964    7755.6779     2924.207    30.559577 -0.00086103084 0.0086022964  0.035315817 
  796000    249.93977     8202.669     2924.207    30.028918  0.022145194  0.029677045  0.012509751 
  797000    248.49659    10711.759     2924.207     30.91074 -0.012503237 -0.0025986958  0.016856282 
  798000    255.62953    9221.9774     2924.207     32.51792 0.0053349692 -0.032484661 -0.002349277 
  799000    243.26202    9083.8981     2924.207    33.403419 -0.063756429 0.0037554452   0.01251779 
  800000    244.63722    8319.6303     2924.207    32.337045 -0.014642415 -0.0054837189 -0.012380193 
  801000    249.02521    15768.952     2924.207    31.082856 0.00042319967 0.0071002072  0.023709413 
  802000    251.46771    6208.3343     2924.207    32.387288  0.015216657 -0.033357342  0.024801794 
  803000    231.23779    1467.4883     2924.207    32.618966  0.040917196  0.015297999  0.037175156 
  804000    248.17451    13242.094     2924.207    31.817859  0.014776952  0.066665113  0.026719477 
  805000    251.18971    8747.7071     2924.207    33.457487   0.01935774  0.045520081 -0.0044181842 
  806000    246.00138    5682.4907     2924.207    35.182878 -0.011324561  0.010316087 -0.012943101 
  807000    275.99484    10111.967     2924.207    34.679672 0.0015659326 -0.0074114464 -0.014230962 
  808000    255.48961    8190.3984     2924.207    31.493635 -7.3096337e-05  0.016336997 -0.014583714 
  809000    255.67633    15792.149     2924.207    26.703164 0.0093362982  0.005118139  0.026813798 
  810000    259.41389    2229.1985     2924.207    22.492163 -0.013969195 0.0028361231  0.010018022 
  811000    253.36764    5038.6378     2924.207    19.599025 -0.023642109 -0.0017172583 -0.019358904 
  812000    253.24587    9690.7855     2924.207    19.685334  0.016257221 -0.016756333 -0.027522477 
  813000    264.60364    1636.7167     2924.207    21.414751 -0.011028071  0.017550161  0.014244871 
  814000    254.89164    16190.759     2924.207    24.009553  0.031217323  0.015383652 0.0085188624 
  815000    263.32962    2816.2889     2924.207    28.254983  0.045748711  0.020346902  -0.01936014 
  816000    260.16896    7868.2098     2924.207    28.848234 0.0075840197 -0.017454237  0.024620233 
  817000    240.91978    8184.1931     2924.207    25.980095 0.0067511271  0.010111965 0.0024530879 
  818000    259.43558    9491.8625     2924.207    25.381118  0.055901207  0.011176615 -0.0032868849 
  819000    255.39427    409.12414     2924.207    28.384729  0.015045986 0.0092954806 -0.030146731 
  820000    253.07818     17988.67     2924.207    29.702025  0.031914772  0.024831372 -0.050941181 
  821000    249.73027    12747.672     2924.207    30.085015 -0.022018318 -0.025788197 -0.025863941 
  822000    243.60387   -3159.2428     2924.207    27.465919 -0.019779416 -0.0067277824 4.4190671e-05 
  823000     260.4241    10374.565     2924.207    24.421914 0.0099153133   0.01850158 -0.028163928 
  824000    245.46638    12458.387     2924.207    22.660366  -0.01122575  0.047216035 -0.024598788 
  825000    244.23144    7008.9279     2924.207    26.100812 -0.034764211 0.0086484494  0.019757308 
  826000    250.19826    7363.3307     2924.207    31.343319 0.0050220511  0.019659179  0.014836803 
  827000    233.40595    7887.2775     2924.207    33.632722 -0.023608671 0.0098833078 -0.0038639454 
  828000      250.952     8871.231     2924.207    31.608649  -0.04656315 0.0080946299 -0.027393459 
  829000    243.20741    5980.0526     2924.207     26.58203  0.030665577 0.0051529343  0.023739656 
  830000    239.26011    7817.8604     2924.207    22.485096 -0.027413686  0.010413839  0.019970481 
  831000    245.29953    7837.7623     2924.207    19.653057 0.0041998243 -0.0019263324 -0.00063980466 
  832000    250.27986    11828.822     2924.207    20.853695 -0.044374881  -0.03821692  0.026858948 
  833000    257.81124    7117.6706     2924.207     26.07405 0.0033398794  0.036581722 -0.0028920818 
  834000    261.27721    6966.1776     2924.207    30.919673  0.010810525  0.035563434 -0.011223441 
  835000    255.03032    10025.659     2924.207    35.125777 0.0036279792 0.00062098469 0.0032009536 
  836000    245.17013    7214.8274     2924.207    35.079894 -0.010242857 -0.012720291  0.016893271 
  837000    260.23239    5333.1284     2924.207    30.574771  0.007660556 -0.004172509 0.0011250548 
  838000    231.68597    13592.192     2924.207    25.434655 0.0015339255 -0.015588256 0.0093463296 
  839000    245.37657     7792.415     2924.207    24.170237  0.033761254  0.011217861 -0.0031609561 
  840000     262.2096    14312.062     2924.207    23.636887 -0.029613964 -0.013719121 -0.019006129 
  841000    260.42736   -168.00818     2924.207    24.029395 -0.017074247 -0.0019674134  -0.02386671 
  842000    246.26853    3638.7992     2924.207    25.428865 -0.026830575 -0.0024436158 -0.025585153 
  843000    246.46565    15211.857     2924.207    28.877985 -0.00035977892 0.0073152723 -0.025763898 
  844000    254.08063    4592.6822     2924.207    32.215415 -0.025605973 -0.0046000604 0.00055666231 
  845000    242.37693    10134.939     2924.207    33.621251  0.016105936  0.034213543  0.045024111 
  846000    234.37484    2384.6813     2924.207    34.389296 0.0056595449 0.0055106129 0.0070619714 
  847000    246.59028    16723.027     2924.207    34.139342  0.049041774 -0.024322733 -0.013307288 
  848000    234.63342    14728.431     2924.207    32.084413  0.013156203 -0.049564631 0.0087613726 
  849000    237.96549    5148.1164     2924.207    29.153745 -0.014535385 0.0017616156 -0.018443614 
  850000    246.83092    8516.0406     2924.207    27.894547  0.016319051 -0.0046870926 0.0037505595 
  851000    228.74513    12936.088     2924.207    27.359389  0.011437386 -0.028555359 -0.045642239 
  852000    260.12933    8177.6678     2924.207    28.821785  0.023911173 -0.010693085 -0.0063260456 
  853000    249.84216    5684.8506     2924.207    33.015661 0.0033683092  0.016168174 -0.018629214 
  854000    234.80589    7167.7842     2924.207    34.807204 -0.026311168 0.0068311554  0.030329008 
  855000    250.26343     17222.47     2924.207    34.774619 0.0027642846  0.015330745 -0.010264631 
  856000    241.52218    4274.6397     2924.207    32.863934 -0.0027900317 -0.040441642 -0.001654253 
  857000    262.97352    3977.4685     2924.207    28.250784  -0.02921154 0.00039395803 -0.022478401 
  858000    238.19709    11068.854     2924.207    24.742388 0.0064373257  0.008234239  -0.01328568 
  859000    237.61629    11667.966     2924.207     21.86509 -0.022544888   0.01022734 -0.011910536 
  860000    260.48311    6898.6293     2924.207    24.474893  0.024099218 0.0055138014   0.00553853 
  861000    245.03724    6397.6444     2924.207    28.133727  0.023175089  0.020281932 -0.013192799 
  862000    255.68857     17393.48     2924.207    31.114387 -0.015570486  -0.01920404  0.013342195 
  863000    243.16371    1741.5313     2924.207    33.365448  0.026664262  0.018989187  0.014692984 
  864000    235.67645    4422.3545     2924.207    35.092169   0.01782218 -0.0083835411 -0.040498715 
  865000    246.25513    12866.178     2924.207      33.8596  0.010933768   0.01104601 -0.012783312 
  866000    236.15908   -3529.6227     2924.207    28.919718   0.02573677 -0.011383889  0.010636263 
  867000    233.53735    16489.555     2924.207    23.707706 -0.029077301 -0.0085039252  0.032896031 
  868000    241.56818     14257.39     2924.207    22.686736  0.013385165 0.0022385532  0.024918903 
  869000    268.04163    1112.2491     2924.207      26.9638 0.0062721579 -0.035382304  -0.02471552 
  870000    255.09071     8719.099     2924.207    29.865669 0.0029028409 0.0030252187 -0.0082673514 
  871000    239.03593    7907.6381     2924.207    27.979928 0.0088565444 -0.034486948 -0.015687789 
  872000    223.11153    15697.229     2924.207    23.284814 -0.008777441 -0.024068109 -0.042012841 
  873000    244.98282     5840.592     2924.207    21.831554 -0.00049317058  0.017770321 -0.0048724397 
  874000    249.80189    8565.7905     2924.207    26.094998  0.016832254 -0.020009908  0.027757838 
  875000    254.10492    4940.2637     2924.207    31.703317 0.00075597727  0.012346395 -0.0096794547 
  876000    232.95996    5301.0598     2924.207    33.756237  -0.01520479 0.0044001094 -0.0086238868 
  877000     238.5122    3757.2113     2924.207    30.708212 -0.0042706558 -0.014234252 -0.0046132448 
  878000    264.84917    9325.4814     2924.207    27.584087 -0.0030057254 -0.028716164 -0.015401189 
  879000    240.17528    8217.6791     2924.207    28.719942 -0.001879371 -0.022181033  0.006692532 
  880000    245.60582    1151.9735     2924.207    32.696184  0.011609604 0.0018873878 -0.0075244875 
  881000    255.11589    11660.166     2924.207    35.787254 -0.031777756 -0.0037169062 -0.035900324 
  882000    251.07715     7512.389     2924.207    35.386748  0.011931032 -0.054839216 -0.019694795 
  883000    240.86454    3783.3127     2924.207    31.470223 -0.0050722217 -0.011825627 -0.00026413805 
  884000    252.15399    17448.034     2924.207    26.421747 -0.011926483 -0.010540003 -0.021627745 
  885000    241.57741    10832.516     2924.207      24.6889  0.036371462 0.00040456983 0.0011816342 
  886000    234.16027   -7099.0666     2924.207     28.07807 -0.035770912  0.010432149 -0.0012682829 
  887000    258.30425    3671.3605     2924.207    30.512092  0.021665862   0.04108756  0.017368678 
  888000    255.03817    11705.011     2924.207    27.220105  0.017718126 -0.028673598  0.028955907 
  889000    249.98452    9445.2236     2924.207    20.360454  0.016905345 -0.010610773 -0.033633703 
  890000    250.21952    723.20387     2924.207    14.729603  0.016608721 0.0027320396 -0.0047206894 
  891000    254.66033     14007.86     2924.207    15.841091  0.031851083 -0.011121935  -0.02062671 
  892000    247.53067    6533.3174     2924.207    20.467926 0.0051838436  0.016839687 -0.0016366757 
  893000    245.95199    8950.1546     2924.207     25.99322 -0.016392782 0.0034042052 -0.020539494 
  894000     255.4417    17071.868     2924.207    30.472163 -0.0053154895 -0.022972544 -0.024335928 
  895000    241.31609   -2169.7787     2924.207    31.947256 -0.031593098 -0.0048286512  -0.02851476 
  896000    260.16722    10654.235     2924.207    31.163416 -0.0048700231 0.0068852412  0.044484422 
  897000     267.9501    2429.1127     2924.207    27.706431 -0.0014932222 -0.023503804  0.019256746 
  898000    241.38206    7047.7761     2924.207    26.378424  0.022557733 -0.0094895769    0.0313135 
  899000    245.11848    5031.3753     2924.207     27.08044 -0.0030665225 -0.013874377 -0.015719498 
  900000    271.17855    18073.912     2924.207    25.941182 0.0053850984 -0.00014956318  -0.03526631 
  901000    247.24692    3771.3664     2924.207    26.470563 -0.0035607529 -0.026277622 -0.0094896435 
  902000    245.07316     4365.578     2924.207    28.880891  0.036880556 0.0081432861 -0.0099217856 
  903000    255.50224    9011.7162     2924.207    28.604043 -0.024698857 -0.031083839 -0.0054092615 
  904000    260.15323    6426.7271     2924.207    26.465541 -0.016361292 -0.0086547346 -0.0076025838 
  905000    228.68703    9815.9021     2924.207    24.672794 0.0013928167  0.012532136 -0.018337959 
  906000    253.14644    7534.5453     2924.207    25.332981 -0.018379041  0.042297905  0.023903708 
  907000    267.90534    11595.237     2924.207    26.205565  0.014692394  0.021331478 -0.027811465 
  908000    251.66159    7669.9791     2924.207     25.80415  0.010795532 0.0004441877 0.0051739262 
  909000    249.54997    8636.4124     2924.207    24.179351   0.02065701  0.025578821 0.0043833314 
  910000    261.35719    6587.2973     2924.207    23.658467 0.0054405369 0.0056558384 -0.0032690665 
  911000    242.09031    5356.0464     2924.207    24.515782 -0.026436355 -0.0043534958 0.0097462936 
  912000    249.90917     10520.53     2924.207    26.889274 -0.0054233384 -0.013748037 -0.017308732 
  913000    242.46002    15640.189     2924.207    29.840402 -0.00081382632 -0.0053007029 -0.011176507 
  914000    240.68012   -3927.8522     2924.207    28.728298 -0.014602857 -0.041542835 -0.025734772 
  915000    244.52136    12546.268     2924.207    26.232917 -0.019265187 -0.020583969 -0.0037298398 
  916000    252.27227    8138.6647     2924.207    24.823306 0.0041488387 0.0078361067  0.033018595 
  917000    259.46967    4518.6016     2924.207    25.615517 -0.0050379534  0.012078852  0.031744531 
  918000    242.61376    5962.8582     2924.207    26.853971 0.0044813836 -0.012138707  0.038289305 
  919000     247.6934    13962.975     2924.207    26.486635 -0.015764187 7.9662001e-05  0.018681886 
  920000     237.5145    3438.8752     2924.207    27.745683  0.031450948 0.0055162434  0.010286307 
  921000    256.40754    9601.4641     2924.207    30.668378 -0.019730224  0.025290418  0.023878961 
  922000    257.54187     14363.39     2924.207    33.679346 0.0081283495  0.019560224  -0.02536626 
  923000    251.60435    4305.5962     2924.207    34.751873 -0.029829958 0.00026371109 0.0027227644 
  924000    249.38652    7041.7188     2924.207    31.985422  0.015448597  0.010644233 -0.012393806 
  925000    240.92072     4953.294     2924.207    28.777584 0.0020216976  0.021455408 0.00036549766 
  926000    246.52266    10345.068     2924.207    28.916684  0.016880325 0.0040490367 -0.019623513 
  927000    257.28163    12855.341     2924.207    32.053342 0.0081068762 -0.032211973  0.033845193 
  928000    258.37819    2663.2143     2924.207    33.957602 -0.015761954  0.018086351 -0.022573664 
  929000     258.7655    5711.2175     2924.207    32.027646 -0.018972984 0.00089951595  0.011936488 
  930000    251.57452    13581.145     2924.207    26.878002   -0.0217122 0.0033198584  0.063758207 
  931000    255.08449    14206.248     2924.207    19.033037 0.0053915489 0.0028239428 0.0078439165 
  932000     259.2345    389.08109     2924.207    14.684188 -0.017644333   0.05795624 0.00099253461 
  933000    244.52251    3201.6844     2924.207    17.066841 -0.024165059 0.0049954205 -0.00022105105 
  934000    253.91249    14118.002     2924.207    23.839033  -0.03123522 -0.0076631063 0.0027069707 
  935000    261.27868    9512.8877     2924.207    30.184463  0.020079408  0.010181008  0.049876976 
  936000    245.56279    5520.5425     2924.207    30.928962 -0.0076944175 0.0047289146 -0.0029653395 
  937000     260.4476     11382.79     2924.207    26.855017 -0.025882778   0.02131353 -0.0040753529 
  938000    240.90083    6702.6063     2924.207    24.852107 -0.016147029 0.0062815647 -0.0091509123 
  939000     252.9395    2429.0179     2924.207    25.591316 -0.011945975 0.0017866625  0.019657376 
  940000    245.36233    10555.578     2924.207    28.568747  0.034686444 -0.022429824 -0.019464184 
  941000    260.54428    8627.5693     2924.207    29.693316  0.010777535 -0.021946598 -0.016974181 
  942000    256.91665    6781.5716     2924.207    29.663647 0.0021484598 -0.033563769  0.046246654 
  943000    250.32813    9011.1729     2924.207    27.123941  -0.05790687 -0.028058185  0.015089311 
  944000    257.97304     4079.487     2924.207    24.030181 -0.027409263 0.0034630214 -0.015829947 
  945000    245.60983    7041.9575     2924.207    20.875897 -0.015514905   -0.0221362  0.032772657 
  946000    253.40106    2636.6499     2924.207    20.260009 0.00096195922 -0.041328425 -0.035653492 
  947000    256.74761    8160.5312     2924.207    22.610183 -0.032944615 0.0079989039 -0.0034681345 
  948000    265.66227    3991.5333     2924.207    26.103582 -0.016135844 0.0017468021 -0.0040912939 
  949000    248.37343    9307.2947     2924.207    28.804191 -0.027117611 0.0088904226  -0.01898722 
  950000    259.80437    5287.7802     2924.207     28.81812 -0.0046140852  0.011205395 -0.020393917 
  951000    239.23014    10161.154     2924.207    27.054222 -0.014881648 -0.018570383 -0.012032986 
  952000    250.20426    14233.401     2924.207    25.705577  0.018076802 0.00036010141 -0.010662562 
  953000    246.44548    2702.7489     2924.207    24.484955  0.018409582 -0.029116885 -0.012873494 
  954000    257.53781    10375.583     2924.207    22.713651 -0.0042159439 -0.019298503   0.01106458 
  955000     250.0693     11011.52     2924.207    20.920942 -0.0088541886 -0.0088275955 -0.018404442 
  956000    246.52596    3977.4451     2924.207    22.187965 -0.001850378 -0.0025652868 -0.0050506511 
  957000      240.636    6930.7332     2924.207    25.589039 -0.016028421  -0.01015169  0.017879361 
  958000    265.88422    9194.0851     2924.207    28.552112  0.032644164 -0.019303384 -0.019413651 
  959000    262.92506    6706.2466     2924.207    28.593617 -0.026039361 0.0096357497 0.0076543362 
  960000    245.93324     7877.675     2924.207    26.243925  0.013542844  0.020576937  0.017721279 
  961000    237.93926   -1730.8487     2924.207    23.730272 0.0047309831  0.010785843  0.028142113 
  962000    262.12384    11910.606     2924.207    20.743233 -0.0082340396 -0.019102557 -0.015338281 
  963000    247.40058    8822.7993     2924.207    21.154725   0.02253664  -0.01643163 -0.0036350521 
  964000    253.75879    6967.9725     2924.207    23.381879 0.0096205523 -0.013273574  0.026615375 
  965000    232.00228    9105.5821     2924.207    25.394278  0.012871264 -0.021564567 0.0063388222 
  966000     243.7176    3611.7078     2924.207    27.911925 -0.032906089 -0.046903122 -0.030942989 
  967000    248.01144    11900.058     2924.207    30.219122 -0.036045421  0.026163541 -0.00090985272 
  968000    254.52242    9022.7647     2924.207    33.090706 0.0094587202 -0.010790051 0.0093792397 
  969000    253.26157    4515.6343     2924.207    32.995555  0.019667459  0.022338156  -0.01525392 
  970000    251.09073    11614.648     2924.207    31.262324  0.020844359 0.0050702762 -0.00070740257 
  971000     268.5271     395.1012     2924.207    27.167132  0.016782541 -0.015456751  0.004140079 
  972000    243.65683    10159.496     2924.207    20.840998 -0.0072100794  -0.03021078  0.030507649 
  973000    252.28617    9575.5686     2924.207    15.623561  7.89838e-05  0.032934255  0.028339415 
  974000    249.45289    7230.8384     2924.207    13.371911  0.016666527 0.0078090365 -0.0024842169 
  975000     249.3686    6221.3678     2924.207    14.652177 0.0051499491  0.016993433 -0.00090583726 
  976000    235.86722    11534.024     2924.207    19.607081 -0.0048253491   0.01821573 0.0098918842 
  977000    228.90134     13058.77     2924.207    24.812604   0.01668912  0.011263938 -0.034593097 
  978000    245.04434    6098.8158     2924.207    27.352783 -0.025259628 0.0011823554 -0.010206913 
  979000    259.90408    5639.5325     2924.207    29.846169 -0.029863485  0.012374911 0.0067207458 
  980000    259.88778    6091.7355     2924.207    32.795444 -0.030490593 0.0044272665  0.039162502 
  981000    251.96939    2872.3779     2924.207    33.960578   0.02716912 -0.0023105688 -0.032783014 
  982000    234.03889     6056.936     2924.207    30.127976  0.030669096  0.045144974 -0.017832497 
  983000    241.15417    17047.088     2924.207    24.383156 0.0011085158  0.053754982 -0.0086086506 
  984000    258.03172    1642.9157     2924.207    17.987609  0.021724819 -0.0038612732 -0.0020181259 
  985000    243.01579    9881.1236     2924.207     12.91928 -0.043338623 -0.0043253467 0.0030494934 
  986000    238.47408    10369.395     2924.207    12.874815 -0.047335518 -0.023192722 -0.0074703426 
  987000    248.20549    554.98748     2924.207    17.582283 -0.016191432 -0.010796673 -0.0033534878 
  988000    253.39613    9421.0502     2924.207    24.537632  0.013203177 -0.030271358 -0.021719308 
  989000    263.28277    10607.333     2924.207    28.561648  0.018739809  0.032736119 -0.033124405 
  990000    260.44061     2524.802     2924.207    29.417768  0.023772081 -0.040200276 0.0066748134 
  991000    254.23783    4043.2865     2924.207    26.941206  0.045268872 -0.022820774   0.02734838 
  992000    234.43128    12849.805     2924.207    24.713474 0.0090037921 -0.020529975 -0.037102306 
  993000    245.50156    8802.5939     2924.207    24.430932   0.01030787 0.0001911705 -0.027499445 
  994000    244.35756   -1845.9278     2924.207    25.363048  0.014310143 -0.029410198 -0.064299941 
  995000    251.40565    7978.0975     2924.207    28.807803 -0.014736759 -0.015907671 -0.014591087 
  996000    244.48228    10801.566     2924.207    31.927827  0.013490591 1.3610329e-05 0.00087204604 
  997000    249.89576    780.04071     2924.207    29.917992  0.023451969 -0.016355438  0.016745798 
  998000    239.81228    8492.6435     2924.207    25.707631  0.039120774 -0.0051854681  0.029462162 
  999000    243.78913    8447.2808     2924.207    20.971538   0.01552248 0.0064266637  0.022724508 
 1000000    244.28535    5617.2658     2924.207    19.499014 0.0054606299  -0.01426772  0.028213105 
Loop time of 6820.57 on 2 procs for 1000000 steps with 240 atoms

Pair  time (%) = 6452.46 (94.6031)
Bond  time (%) = 0.309845 (0.00454281)
Neigh time (%) = 25.0505 (0.367278)
Comm  time (%) = 243.289 (3.56699)
Outpt time (%) = 0.437645 (0.00641655)
Other time (%) = 99.0154 (1.45172)

Nlocal:    120 ave 120 max 120 min
Histogram: 2 0 0 0 0 0 0 0 0 0
Nghost:    5039.5 ave 5051 max 5028 min
Histogram: 1 0 0 0 0 0 0 0 0 1
Neighs:    45616.5 ave 45680 max 45553 min
Histogram: 1 0 0 0 0 0 0 0 0 1
FullNghs:  91233 ave 91314 max 91152 min
Histogram: 1 0 0 0 0 0 0 0 0 1

Total # of neighbors = 182466
Ave neighs/atom = 760.275
Ave special neighs/atom = 0
Neighbor list builds = 5597
Dangerous builds = 0
#	run			10000
	unfix			1
	uncompute		myKE
	uncompute		myPE
	uncompute		myStress
	uncompute		flux
	uncompute		myDis
	unfix			JJ

	next seed
	next iseed
jump lmp.in.gk loop_seed
variable iseed loop 10
variable seed index 11111 22222 33333 44444 55555 66666 77777 88888 99999 11110
clear
###########################################################################
#x0
###########################################################################
units 			metal
atom_style		full
read_data		fort.26.nonbonded
  0 = max bonds/atom
  0 = max angles/atom
  0 = max dihedrals/atom
  triclinic box = (0 0 0) to (14.3 14.3 14.3) with tilt (0 0 0)
  1 by 1 by 2 MPI processor grid
  240 atoms
  0 bonds
  0 angles
  0 dihedrals
  0 = max # of 1-2 neighbors
  0 = max # of 1-3 neighbors
  0 = max # of 1-4 neighbors
  1 = max # of special neighbors
group         		C type = 1
60 atoms in group C
###########################################################################
#OLPS
###########################################################################

################################################################################
#### Pair potentials
################################################################################
pair_style hybrid/overlay tersoff lj/cut 12.0
pair_coeff * * tersoff C.4.tersoff 1 2 3 4
pair_coeff 1 2 lj/cut 0.0007000000 3.5500000000
pair_coeff 1 3 lj/cut 0.0007000000 3.5500000000
pair_coeff 1 4 lj/cut 0.0007000000 3.5500000000
pair_coeff 2 3 lj/cut 0.0007000000 3.5500000000
pair_coeff 2 4 lj/cut 0.0007000000 3.5500000000
pair_coeff 3 4 lj/cut 0.0007000000 3.5500000000
special_bonds lj 0.0 0.0 0.0 coul 0.0 0.0 0.0

#pair_style tersoff
#pair_coeff * * C.4.tersoff 1 2 3 4

#pair_style lj/cut 12.0
#pair_coeff 1 1 0.0700000000 3.5500000000
#special_bonds lj 0.0 0.0 0.0 coul 0.0 0.0 0.0
###########################################################################

#--------------------------------------------------------------------------
#variables
#--------------------------------------------------------------------------
variable   	dt 		equal 0.001
#--------------------------------------------------------------------------
#kappa parameters
#--------------------------------------------------------------------------
variable    	p 		equal 100000 	# correlation length
variable    	s 		equal 10  	# sample interval
variable    	d 		equal $p*$s 	# dump interval
variable    	d 		equal 100000*$s 	
variable    	d 		equal 100000*10 	

#--------------------------------------------------------------------------
variable 	T_run 		equal 300
#--------------------------------------------------------------------------

log 	log_heat_${iseed}.lammps
log 	log_heat_2.lammps
