	reset_timestep  	0
	fix 			1 all nve
	compute   		myKE all ke/atom
	compute   		myPE all pe/atom
	compute   		myStress all stress/atom virial
	compute   		flux all heat/flux myKE myPE myStress
	variable  		Jx equal c_flux[1]/vol
	variable  		Jy equal c_flux[2]/vol
	variable  		Jz equal c_flux[3]/vol
	fix       		JJ all ave/correlate $s $p $d c_flux[1] c_flux[2] c_flux[3] type auto file J0Jt_${iseed}.dat ave running
	fix       		JJ all ave/correlate 10 $p $d c_flux[1] c_flux[2] c_flux[3] type auto file J0Jt_${iseed}.dat ave running
	fix       		JJ all ave/correlate 10 100000 $d c_flux[1] c_flux[2] c_flux[3] type auto file J0Jt_${iseed}.dat ave running
	fix       		JJ all ave/correlate 10 100000 1000000 c_flux[1] c_flux[2] c_flux[3] type auto file J0Jt_${iseed}.dat ave running
	fix       		JJ all ave/correlate 10 100000 1000000 c_flux[1] c_flux[2] c_flux[3] type auto file J0Jt_5.dat ave running
	compute 		myDis all msd
	thermo_style 		custom step temp press vol c_myDis[4] v_Jx v_Jy v_Jz
	thermo			1000
	timestep		${dt}
	timestep		0.0010000000000000000208
	run			1000000
Memory usage per processor = 7.28915 Mbytes
Step Temp Press Volume myDis[4] Jx Jy Jz 
       0     290.2972    12064.162     2924.207 2.339766e-30  0.020656439   0.01604579 -0.038785978 
    1000    297.54854    14400.916     2924.207     11.54755 -0.018755653  0.022739168  0.019526634 
    2000    302.39511    13645.857     2924.207     30.19391 -0.020630339 -0.022505356  0.011015199 
    3000    293.36939    14821.209     2924.207     31.52427  0.027506753  -0.04353789 -0.024109306 
    4000    285.00504    12021.231     2924.207    18.032587  0.029721318 -0.019343986   0.03490334 
    5000    308.21589    11139.478     2924.207     13.02458 -0.024478314 -0.035492594 -0.034091049 
    6000    311.85303    7766.5136     2924.207    24.260363  0.016402806  0.028480703 -0.021743291 
    7000    267.05633    22262.935     2924.207    33.822929  0.012283534  -0.01188448  -0.03403495 
    8000    298.73091    10047.877     2924.207    29.699346  0.049591426  0.018868461 -0.046983281 
    9000    289.20133     10311.88     2924.207    17.948666  0.036742695 -0.032504109 0.0067247715 
   10000    293.81697    14752.525     2924.207    16.047301  0.015489175 -0.014729574 0.00034134635 
   11000    297.30596     10439.98     2924.207    25.830231  0.022905821  0.009620832 0.0089635351 
   12000    290.31743    11346.664     2924.207    26.022652 -0.0085166327 -0.0092944954 -0.016444654 
   13000    303.76362    14806.229     2924.207     31.11131 -0.019987469  -0.01341832  0.037035234 
   14000    296.17494    9060.3534     2924.207    33.398067  0.010975412  0.014706748  0.023197563 
   15000    302.49827     10000.51     2924.207    25.043297 -0.0042988907  0.017131317 0.0045327354 
   16000    286.28551    12704.025     2924.207    25.657702  0.030271309 0.0056693692  0.034251144 
   17000    282.05124    20332.861     2924.207    28.388731 -0.018017692 -0.0069169743  0.051930274 
   18000    305.05944    10858.213     2924.207    24.127135   0.02966245 -0.0028396977  0.031978844 
   19000    269.14302    7132.8826     2924.207    24.959819 -0.029021517 -0.031562742 -0.021302357 
   20000    294.28569    15394.191     2924.207    30.319004 -0.010042034 -0.027377453 -0.011085473 
   21000    256.21557    14027.123     2924.207    31.721336 0.0010055629 -0.018403967  0.011721848 
   22000    295.02455    11406.876     2924.207    29.169386 -0.00043156016 -0.022757618  0.022501363 
   23000    302.96485    9425.7003     2924.207    28.466649  0.024781337 -0.041787604 -0.010083174 
   24000    261.31801    15728.929     2924.207    28.592711   0.01132199 -0.016318056  0.025202737 
   25000     309.9995    8638.0852     2924.207    28.005988 -0.0084193124 -0.024658382  0.062124245 
   26000    279.33655    7743.1361     2924.207    29.153904 -0.018173945 -0.015010595  0.012928047 
   27000    275.60064    16804.032     2924.207    29.799326  0.036934126 -0.034428998  0.031978515 
   28000    296.47517    11413.767     2924.207    30.504771 -0.025903612 -0.012258507 -0.0065412954 
   29000    292.72939    16541.201     2924.207    33.259818 0.0016294005 -0.0052292853  0.021118598 
   30000    281.43385    12561.776     2924.207     33.07652  -0.02018193 -0.025257581  0.020340424 
   31000    290.34127    6594.9899     2924.207    29.554162 0.0032045696  0.031331684 0.0035556408 
   32000    273.05257    18001.282     2924.207    27.616517  0.017617548 -0.031905718  0.011835219 
   33000     293.6472     9384.942     2924.207    29.948215   0.01811397  0.021572314  0.018652855 
   34000    295.93749    12973.977     2924.207    32.019223 -0.0068304398 -0.0083089449 0.0079417591 
   35000     265.5095    19937.886     2924.207    32.023396 -0.0058208261 0.0016156961  0.030851732 
   36000     291.0776    11318.519     2924.207    29.250151 0.0034188471 -0.012012664   0.01406816 
   37000    311.20114    10191.524     2924.207    27.751771 -0.010319207  0.024678371 -0.0056394851 
   38000    290.18769    6882.6669     2924.207    27.091556  0.034611793 -0.013238298 -0.024580766 
   39000    276.20206    9063.6832     2924.207    28.782525 -0.0063402184 -0.015442451 -0.021977282 
   40000    306.73987    10250.991     2924.207     30.42795 -0.0044889072  0.024601254 -0.0046591106 
   41000    287.84698    11777.577     2924.207    31.003813 -0.0064009421 0.0069582973  0.046346961 
   42000    269.30475     12303.24     2924.207     29.10397 -0.038659884 -0.031430167 0.0058101641 
   43000    276.61542    14796.605     2924.207    30.363619  0.032941644 -0.014644471 -0.020214061 
   44000    307.42827    14436.891     2924.207    32.909663 -0.00093204723 0.0070062365  0.018382251 
   45000    234.46527    18865.328     2924.207     33.62637  0.041750584 -0.028543256 -0.0020277603 
   46000    267.06839    15943.901     2924.207    34.855084 -0.0037936361  0.039814453 -0.0024478565 
   47000    274.34601    8081.2326     2924.207    34.350798 -0.024364184  0.015196462 -0.0052276208 
   48000    278.37907    16025.058     2924.207    30.968881 -0.011877274  0.004056454    0.0553692 
   49000    295.73942    16659.524     2924.207    30.217597  0.023427253 -0.00089194348 -0.0091297811 
   50000    277.06697    16491.986     2924.207    32.872942  0.023587833  -0.01909598 -0.0039888089 
   51000    269.44219    12414.053     2924.207    33.819377  -0.01039994 0.0046211256 -0.0048790376 
   52000    284.92765    15105.613     2924.207    31.572927  0.049725856  0.012156638  -0.02849967 
   53000    318.91205    7779.3044     2924.207     25.74797  0.025206039   0.01324013 -0.017222122 
   54000    265.92849    10814.917     2924.207    22.896919  0.034450063 -0.044276539  0.011889547 
   55000    289.13993    11565.174     2924.207    25.386417 0.0092100894 -0.0066196545  0.015581537 
   56000    262.40348    21402.009     2924.207    29.985353 -0.001401444 0.0060268021 -0.0026028968 
   57000    239.15991    10699.784     2924.207     32.62191 -0.026107548 -0.010674285 -0.017501744 
   58000    287.93086    11266.457     2924.207    30.742887 -0.0086090748 -0.020512006 -0.0064378848 
   59000    283.28048    11209.096     2924.207    28.942682  0.033269772 0.0075533924 -0.005422013 
   60000    304.88379    7811.2728     2924.207    32.068185 -0.00078624659 -0.006842819 -0.0013134098 
   61000    273.54638    17568.858     2924.207    35.278316 -0.038901794 -0.018909265  0.018829695 
   62000    270.25596    12968.553     2924.207    31.068837 0.0093665638   0.02896376 -0.0030768431 
   63000    272.99221    17223.046     2924.207     26.37804 0.0094086329  0.066104243 -0.028382152 
   64000    304.20869    13057.259     2924.207    27.984163  0.034873042 -0.025116913 -0.062902735 
   65000    272.86193    11492.972     2924.207    31.073036 -0.016499583  0.033190963 -0.0097672974 
   66000    302.22597    11665.188     2924.207    31.351356 0.00011437881 -0.017846182  0.034151578 
   67000    288.43794    6714.6531     2924.207    29.406825 0.0069206256 -0.015091136  0.010128207 
   68000    263.19672    14043.871     2924.207    25.941343 -0.016369652  0.018531331 -0.014373387 
   69000    257.77777    10750.762     2924.207    23.834132   0.01677699 0.0038650969  0.014435863 
   70000    247.12766    20562.281     2924.207    24.522439  0.004898019 0.00014437786 0.0090428042 
   71000    277.46566    8365.3683     2924.207    28.752534 -0.007019824  0.015242466 0.0045731247 
   72000    303.91641    10746.685     2924.207    29.754222  0.021582804 -0.017419835  0.014262176 
   73000    253.87791    16004.356     2924.207    27.078218 0.0037524213 -0.012016213   0.02010761 
   74000    290.98977    16311.441     2924.207    23.958744  0.036597644  0.016820985  0.028220319 
   75000      284.843    3611.4574     2924.207    25.435716  0.017230663  0.045330095  0.027491634 
   76000    259.39566    23263.981     2924.207    29.760385  0.043320782  0.011121951  0.011079983 
   77000    269.79465    8421.2928     2924.207    32.484384 -0.052586685  0.038819709 0.0031796731 
   78000    276.18338    14347.927     2924.207    30.783084  0.013223995 -0.022046549  0.040761495 
   79000    296.11156    12370.794     2924.207    29.705585 -0.017002854 0.0079735907 -0.0017552546 
   80000    246.79335    12645.311     2924.207    28.062828  0.011821577 -0.0033829794 -0.038859989 
   81000    293.89623    9133.7798     2924.207    27.408549 -0.011718871 -0.024658204  0.002721264 
   82000     261.8736    12924.641     2924.207    27.325576  -0.02712928 -0.032117917  0.029183991 
   83000    248.83736    18576.338     2924.207    25.406361 -0.0083690329  0.010186085 0.0055330659 
   84000    261.69815    13169.293     2924.207    23.341135 -0.012514021  0.012562209  0.018583352 
   85000    301.73267    8055.6034     2924.207    20.219858  0.015241378 -0.026341049  0.022606746 
   86000    277.23035    8658.4332     2924.207    19.430758 0.0051670353 -0.010586218 -0.010583212 
   87000    262.93888    12496.357     2924.207    22.492637 -0.017783333 9.5192225e-05 -0.00075257338 
   88000    298.44029    13642.741     2924.207    27.832793  0.043062983 -0.010379084 -0.013719643 
   89000    295.73578    8629.0165     2924.207    32.136223 0.0090242293 -0.021302185 -0.0029754415 
   90000    266.38184    22335.959     2924.207      27.0757 0.0018603254 -0.014874189  0.010178288 
   91000    286.69203    4129.3133     2924.207    23.059339  0.012724547 -0.016335647   0.01884105 
   92000    269.75038    13020.117     2924.207    26.415735  0.018775753 -0.020535207  0.012245456 
   93000      296.244    14949.437     2924.207    27.903331 -0.00077848581 0.0072089809 -0.002065234 
   94000    276.45191    10856.997     2924.207    25.560829 -0.025221579 -0.014363387 -0.018969016 
   95000    286.98527    12960.037     2924.207    24.772326  0.011238758 -0.014082941 -0.012136494 
   96000    273.05555    12594.189     2924.207    27.433931  0.011404532 -0.016700178 0.0017817321 
   97000    268.53831    8976.3793     2924.207    30.109291 0.00069785976 -0.014058058 -0.014743105 
   98000    309.83961     13039.58     2924.207    29.639123 0.0035627887  0.013170167  0.034274915 
   99000    245.75109    18106.247     2924.207    29.550214 0.0014758445 -0.024885987    0.0203122 
  100000    271.23545    13448.056     2924.207    26.090825 0.0018715675 -0.027908241  0.011180538 
  101000    273.66841    6627.3545     2924.207    24.644932 -0.014504155 -0.013243567 0.0086283115 
  102000    307.65551    10490.187     2924.207    26.842057 0.0028657202 -0.0041996878 -0.011264687 
  103000    296.73738    12548.832     2924.207    27.769797 -0.021414942 0.00021880811 -0.016033591 
  104000    250.12618    13183.618     2924.207    25.415278 -0.025348355 -0.0016953537 -0.012838781 
  105000    272.24626    13976.077     2924.207    22.316498  0.035093589 0.0088916037 -0.0066792502 
  106000    287.55301    14145.747     2924.207    18.595329  -0.01152511  0.014127078 -0.0054527177 
  107000     289.5885    8552.9121     2924.207    23.299793   0.00232539 -0.0092277223  0.041560155 
  108000     289.8292    14701.374     2924.207    28.422722 -0.026609724  0.016293675 -0.030071854 
  109000    274.97597    15345.942     2924.207    27.668164 0.0095920696  0.023541487  0.030821425 
  110000    259.96554    16742.759     2924.207    24.973773  0.010267737  0.015468264 0.0098602123 
  111000    277.63911    7475.5343     2924.207     22.62348 0.0039954585  0.010909898 0.0065917543 
  112000    281.78923      14364.9     2924.207    22.651913 0.0066622658 -0.037881429 -0.0081177541 
  113000    258.73205    12009.434     2924.207     25.21697 0.0003897929 0.0093337317  0.032060368 
  114000    297.22608    10374.724     2924.207    29.387214 -0.040045198 0.0080029102 0.0041940485 
  115000     295.8408    13081.576     2924.207    31.324977 0.0042254904 -0.0076936276 -0.0015923245 
  116000    261.98992    13874.417     2924.207    31.470616 -0.024876449  0.030562373 -0.0049909919 
  117000    305.36301    10853.462     2924.207    30.807156 -0.018231273 -0.012862426 -0.023980392 
  118000    285.33131    9542.9104     2924.207    32.079384  0.020866252  0.030282658  0.020021861 
  119000    308.82435    18297.395     2924.207    32.757617 -0.057935875 0.0026959048  0.016081887 
  120000    291.00844    12789.806     2924.207    30.693889 -0.032278774 -0.0029646531 -0.0041619497 
  121000    307.03515     12389.35     2924.207    26.462599 -0.0041773696 -0.0037119135 0.0006802175 
  122000    277.67155    13609.516     2924.207     23.32751   0.00958865 -0.0084339065 0.0098107808 
  123000    293.86231    8099.5273     2924.207    23.481985 -0.0064825754  0.011532321  0.018853494 
  124000    312.65631        13084     2924.207    28.185163  0.000834431 -0.003763644 -0.019916522 
  125000     285.5244    9338.7244     2924.207     33.65433 -0.0098132161  0.016829212 -0.0042331847 
  126000    285.19753    7565.7965     2924.207    33.940134 0.0015066636 -0.015760604  0.003751113 
  127000    304.11158    11337.171     2924.207    31.105188  0.004893984 -0.0078011136 0.0098899966 
  128000    273.72456     15009.02     2924.207    27.200665  0.016187419 0.0025787727 -0.0011737158 
  129000    294.88191    10986.644     2924.207     23.17469 0.0051720094 -0.021120405  0.034679076 
  130000    301.18904    6477.6585     2924.207    22.919261 -0.042819557 -0.0077399122 0.0033511703 
  131000    249.91489    20262.933     2924.207    23.948035  0.015669574 -0.028914362 -0.026434597 
  132000    301.88259    5865.9881     2924.207    25.261818 -0.0097464832 -0.013945668  0.015485893 
  133000    296.76883    9049.9945     2924.207    23.179241  0.033684949 -0.0057032264 0.0047022918 
  134000    284.15646    15291.346     2924.207    20.395816 0.0072633386 -0.016479453  0.035712563 
  135000    279.51236    5039.4488     2924.207    24.125656  0.012855042   0.01882078  0.013363693 
  136000    292.42844    10394.724     2924.207    28.174986  0.027331428 -0.022065351 -0.011255827 
  137000    297.13024     16245.48     2924.207    20.724926  0.028985858 -0.026626213 -0.019648556 
  138000    277.18186    8763.4701     2924.207    16.578695 -0.017882924  0.033835955  0.026288016 
  139000    295.94853    9942.7178     2924.207    22.335378 -0.010859814 -0.020038411 -0.055084931 
  140000     300.0879     14163.59     2924.207    30.268821  0.027696202 -0.014919673  0.026411412 
  141000    278.00242    6407.7908     2924.207    31.881913  0.052183133   -0.0430944 -0.021147318 
  142000     284.4514    13525.481     2924.207    23.579206  0.010338903 0.0054675703  0.020096416 
  143000    298.45983     5863.056     2924.207    14.182588  0.036288219  0.031642651 -0.017439847 
  144000    278.15122    14784.078     2924.207    15.484107   0.04723204  0.022624693 0.0092605926 
  145000    316.24523    5038.2251     2924.207    23.323969  0.020727117   0.01163693  -0.02869375 
  146000    294.33318    10105.904     2924.207    30.143428 0.0044753759 -0.014584128 -0.063126043 
  147000    303.63212      11206.3     2924.207    27.875349  0.014021324 -0.028535164 -0.030781636 
  148000    276.23855    16417.029     2924.207    22.251713  0.013996826 -0.0065319871  0.017276769 
  149000    303.98812    12097.253     2924.207    18.844156 -0.0051616816  0.037304222 -0.0015869366 
  150000    280.03688    7125.1862     2924.207    20.212488  0.038666887 0.0091690407 0.0087426611 
  151000    286.92554    14854.775     2924.207    20.286434  0.013439793  0.010383171 -0.036098814 
  152000    278.05739      11168.1     2924.207     15.20606   0.01645075 -0.012254585  0.015813645 
  153000    284.05037    9102.3764     2924.207    16.220041  -0.03801006 -0.00064740188 -0.046407967 
  154000    281.70568    16353.672     2924.207    23.211698 0.0014759083 -0.054445221 -0.012400499 
  155000    286.69514    5924.8479     2924.207     24.43105 0.0077977126  0.018841789  0.030525074 
  156000    280.18039    16994.986     2924.207    21.846903  0.015983508 -0.0062947986  0.013842565 
  157000    288.38489    9902.6208     2924.207    21.047458  0.049643943 -0.0083911733  0.030894932 
  158000    275.80226    6492.4695     2924.207    23.114932 0.0099680976  0.020124535 -0.014141391 
  159000    302.95525     4399.423     2924.207    25.604405 -0.0070156997 0.0093506689 -0.0035812533 
  160000    284.91619    12912.282     2924.207    24.401377 -0.018703227 0.0016565424  0.011569877 
  161000    297.02557    10174.888     2924.207    20.066818 -0.012953729  0.046209165   0.03065469 
  162000    295.29649     14329.12     2924.207    18.027937 -0.0071017917 -0.013177335   0.02344845 
  163000    239.43785    13922.013     2924.207    21.218786  0.019567198  0.002592053 0.0076461428 
  164000    289.99764    11121.866     2924.207    24.023059 -0.0020910603  -0.00626143 -0.029208343 
  165000    275.06307    11745.849     2924.207    23.445546  0.036221497 -0.015147932  0.037234965 
  166000    292.22674    13314.803     2924.207    22.853088 -0.0013806127 -0.036183961 0.0053891144 
  167000    263.08029    14045.612     2924.207    24.268327  0.019616014 -0.0066892192 -0.014170761 
  168000    291.07169    17794.997     2924.207    25.215883 -0.010765597  0.014847333  0.021914899 
  169000    284.19075    4521.5447     2924.207    28.962169  0.006898828 -0.0003517857  0.035930911 
  170000    258.92027    13758.239     2924.207    31.001408  0.023700163 0.0049605074 0.0088366701 
  171000    276.82584    14908.064     2924.207    28.515696   -0.0139459 -0.010379945  0.046913192 
  172000    266.33407    17337.716     2924.207    22.735361  0.025048584 -0.0060478582  0.024055177 
  173000    295.73874    8134.3092     2924.207     22.12621 0.00089122836 -0.017604965 -0.0044436866 
  174000    260.60662    12393.076     2924.207    26.302038 -0.0098296129 -0.048166767  0.020849099 
  175000    292.17124     13118.24     2924.207    29.641177  0.016866498 -0.038047421 -0.031488914 
  176000     295.6001    8301.4758     2924.207    30.597279  0.032763544  0.015508068 -0.037694046 
  177000    268.71279     8638.941     2924.207    27.168079  0.034389912 -0.014226914 -0.041917882 
  178000    276.50474    14755.068     2924.207    22.067194 -0.0024503751  0.003278359 -0.025532738 
  179000    271.38451    9284.5442     2924.207    19.342441  0.034358662 -0.0042213608 0.0059348767 
  180000    259.47069    15016.545     2924.207    19.655125 0.0038508215  0.026784952 0.0034092522 
  181000    292.29462    5102.6772     2924.207     22.95674 0.0096840858 -0.0040332678 0.00099454729 
  182000    275.97155    10299.237     2924.207    25.346455 0.0036142481 -0.0086628671 -0.025440517 
  183000    266.36194    11242.704     2924.207    26.571589 -0.018817001  0.016057861  0.017737519 
  184000    278.00162    9847.0816     2924.207    26.093807 -0.0021292585 0.0039757564 -0.015502281 
  185000    274.09704    11163.839     2924.207    26.431528 -0.0020954424  -0.04891995 -0.0039002113 
  186000    292.34223    15800.997     2924.207    27.402581 0.0070922847 0.0095520966  0.031129976 
  187000    293.24046    7908.9793     2924.207    31.932638 -0.025281703  0.018371151 -0.022904018 
  188000    288.68597    15898.249     2924.207    34.546544 0.0087533377 0.0019029132 -0.060086865 
  189000     271.1838    5816.4879     2924.207    33.688005  0.021267309  -0.02272516 -0.026201828 
  190000    281.21631    9571.9266     2924.207    30.417063 -0.023474086  0.013049534 -0.010026517 
  191000    282.47392    10092.753     2924.207    27.790275  0.045016903 -0.023711271 -0.010156417 
  192000      282.455    16879.062     2924.207    24.880921  0.022906016 -0.014132866 -0.020121291 
  193000    266.79355    12211.963     2924.207    24.869821 -0.021650446 -0.026535035  0.014306849 
  194000    282.15254    16972.514     2924.207    24.623923 -0.0084339146  0.029628259 -0.021450259 
  195000    291.68196    8886.0215     2924.207    23.341153 -0.041204432 -0.0077156262 -0.0066007246 
  196000    242.20516    18221.082     2924.207    23.756167 -0.025740112 -0.013861745  0.032598236 
  197000    296.25375    7233.1163     2924.207    21.160002 -0.0067071786 0.0089493537  0.001767266 
  198000    277.40737    18591.565     2924.207    21.041353 -0.035400833 -0.012556249 0.0097060109 
  199000    310.64931    2431.5649     2924.207    29.185927  0.054120046 -0.032858165 -0.0024398725 
  200000    264.47353    15453.362     2924.207    35.655586 -0.014108278  0.030812313  -0.02875735 
  201000    298.55064    13003.723     2924.207    32.848395 -0.0061325596 -0.017317525  0.012292579 
  202000    277.65791    8451.6308     2924.207    23.500585  0.027176092 -0.012748069 -0.033131659 
  203000    253.09186     13434.67     2924.207    20.349721 0.0033593389 0.0057519286 -0.0095423927 
  204000    264.63404    10905.406     2924.207    27.137045  0.020548368 -0.0012251269  0.014631521 
  205000    288.43326    11895.134     2924.207    33.190085  0.038366189  0.021147091 0.0095260029 
  206000    257.08097    16439.989     2924.207    33.582087 -0.0081649594 -0.014840356   0.02857274 
  207000    283.84324    13923.499     2924.207    28.527275  0.040988702 -0.042930426  0.032231003 
  208000    270.10577    13027.619     2924.207    22.441557 -0.016405055 -0.0057845752 -0.0015802036 
  209000    276.74175    11666.247     2924.207    21.352634  0.050915913  0.010003057 -0.022752775 
  210000    275.68915    10108.613     2924.207    21.027629  0.014479984 -0.0016150613 -0.022680554 
  211000    261.39742    16623.397     2924.207    22.432334  0.016227154 -0.028936532 -0.0028682594 
  212000    269.89301    13274.821     2924.207    25.658165  0.024430293 0.0038379488  0.033979717 
  213000    300.47714    13024.936     2924.207    30.345013 -0.049204087  0.019035186  0.023941829 
  214000    283.04094    12447.823     2924.207    35.344126  0.008095002  0.020849158 -0.030843535 
  215000    278.07544     12063.57     2924.207    35.192776 0.0020056153 0.0012884945  0.014622982 
  216000    268.04345    10902.815     2924.207    30.678785  0.023800131  0.023702759  0.029212461 
  217000     279.4471    9382.4421     2924.207     26.51681 -0.015707432 -0.021592315 -0.00038390524 
  218000    282.49099    9235.6646     2924.207    26.629123  0.011282272  0.036997438  0.011151113 
  219000    281.72023    10945.175     2924.207    26.990872  0.013183862 -0.019810188  0.024998465 
  220000    266.81255    12048.409     2924.207    23.454841  0.018058398  0.014709554  0.052539566 
  221000    276.93904    13947.623     2924.207    24.226993  0.004207054 0.0026287047  0.025954302 
  222000    265.87113    5398.1007     2924.207    30.644125  0.021173558   0.02108671  0.019568758 
  223000    285.00903    11481.473     2924.207    33.746481 0.0046377776  0.011509994 -0.019911656 
  224000    268.22932    15651.997     2924.207    30.312181  0.010329967 -0.026966873 -0.0061180964 
  225000    278.22226    5715.0983     2924.207    25.395236 -0.010575359 -0.030071506  0.020333197 
  226000    253.88628    17302.666     2924.207    25.705768 -0.024626226 -0.0099533548 -0.012974157 
  227000    266.48033    17168.005     2924.207    29.387092  -0.01680862 -0.0099796181 -0.031969128 
  228000    264.77784    9977.3224     2924.207    27.835307 -0.026936437 0.0044261727 0.00082887874 
  229000    284.82655    10434.145     2924.207    24.782797 -0.016516402 -0.037298591  0.015754636 
  230000    272.02202    6351.8891     2924.207    25.066273  0.017184962  0.022235673 -0.011723907 
  231000    256.40012    20984.201     2924.207    26.699842  0.008276751 -0.025612213  -0.01918977 
  232000     284.8741    13987.028     2924.207    27.328291 0.0053207594 -0.029477202 0.0069778851 
  233000    272.43079    17147.516     2924.207    27.316571 -0.041083365 0.0095820343  0.024527363 
  234000    261.16128    9222.4532     2924.207    26.355996 -0.0030610488   0.02368296 -0.035463404 
  235000    289.71642    12850.712     2924.207    25.678531 -0.0063260778  0.011245459 0.0063931822 
  236000    279.55859    11353.332     2924.207    26.837924 0.0064761304  0.037361964  0.011652755 
  237000    270.41842    8734.5922     2924.207    25.629173 -0.0061437367  0.004463347  0.061981329 
  238000    276.73634    12017.687     2924.207    26.161089 -0.0015544344 -0.020938572 0.0032818561 
  239000    286.88911    8564.6232     2924.207    26.494339  0.016053752 -0.042391166 -0.063522735 
  240000    269.81606    10059.044     2924.207    28.194733  0.013723247 -0.058866955 -0.0033543398 
  241000     277.6872    10333.649     2924.207    28.489781  0.042386583  0.049649066 -0.031819988 
  242000     266.9439    9935.7751     2924.207    30.977694 -0.0012977786  0.029873485  0.018265923 
  243000    282.14485    6596.7806     2924.207    33.398584 -0.0015589611  0.013679852 -0.0081191983 
  244000    286.11739    12117.215     2924.207    33.557108 0.0047178545  0.055857503 -0.0092982729 
  245000    246.47152    19300.671     2924.207    33.567564 -0.032110265   0.04058174 -0.00015341389 
  246000    281.67252    4255.8096     2924.207    33.288736  0.015515789 -0.005652289 -0.018530714 
  247000    260.55203    20328.439     2924.207    32.230302 -0.017060716 -0.0082150143  -0.02350334 
  248000    276.30648    11472.788     2924.207    29.136673 -0.0033779959 0.0042299979  0.042027501 
  249000    266.62994    13428.392     2924.207    26.005134 -0.035736464 -0.0077767256  0.005796013 
  250000    285.99584    7910.9099     2924.207    25.868613 -0.0001103581 0.0017560732 -0.017241788 
  251000    268.12418    7839.9697     2924.207    28.837001 -0.028958019 -0.030850205 -0.012972079 
  252000    295.73617    14506.582     2924.207    30.836976 -0.017609096  0.011093448 0.0072295515 
  253000    259.91681    17032.359     2924.207    26.996806   0.02654628  0.010311371 -0.040619283 
  254000    279.21541    11243.627     2924.207    24.051018  0.003031224  -0.03592297  0.027549703 
  255000    287.70035    6589.0737     2924.207    23.648726  0.012325709 -0.0049174134 -0.011772197 
  256000     291.2354    10600.468     2924.207    25.680851 0.0019687541 -0.020039521 -0.028644315 
  257000    277.02333    5679.3914     2924.207    27.106866  0.024123278 0.0039678497 -0.0046902745 
  258000    290.52587    11860.877     2924.207    30.404978 0.0063302327 -0.042306505  0.016101475 
  259000     294.6334    9964.1789     2924.207    32.242328  0.016127832 -0.0077881457 0.0073031686 
  260000     295.7264     8208.584     2924.207    28.386863 -0.034631945  0.028746123  0.015154341 
  261000    288.10727    12440.068     2924.207    22.803032 0.0050069674 -0.018281428 -0.00028659827 
  262000    298.51467    10609.281     2924.207    21.544644 -0.016450823  0.013044331 -0.029487588 
  263000    273.53844    3414.7287     2924.207    22.727155 0.0049497251  0.034463427 -0.018125305 
  264000    269.82156    12891.287     2924.207    23.289963  0.040359122 -0.016499451 0.0021563014 
  265000     287.0071    9816.9656     2924.207    28.513806 0.0096081934 -0.0017233756 -0.025079728 
  266000    276.68135    7454.2529     2924.207    33.553854 -0.049352464  0.011791869 -0.012868435 
  267000    263.25752    12864.164     2924.207    31.934853  0.011317617 -0.0015124322 0.0032423235 
  268000    291.26605    4765.7856     2924.207    29.619672 0.0089881911 -0.0049671948  0.016317372 
  269000     275.4715    10554.292     2924.207    30.031836 -0.0046383258  -0.03042379  0.016403003 
  270000    269.68311    12350.466     2924.207    28.880767 -0.049037992   0.03085051 -0.0057318627 
  271000     285.3225    13741.441     2924.207    27.785568  0.037614274  0.023467757 -0.039043389 
  272000     296.3985    12061.734     2924.207    28.152462 0.0096787558 -0.0028157976 -0.020428413 
  273000    265.70887    9775.3373     2924.207    30.190144 -0.0058140237  0.020617713 -0.00078200809 
  274000     286.3574    10380.107     2924.207    30.549927  0.035780919 0.0031199036 -0.011516309 
  275000    248.19289    9048.0569     2924.207    29.036015 -0.033637806   0.01508138  0.047673361 
  276000    282.25925    19022.233     2924.207    28.397587 0.0040731671 -0.021718938  0.032195756 
  277000    270.39416     11076.06     2924.207    30.179618 -0.011756846 -0.027690351  0.034340341 
  278000    277.08433    12860.272     2924.207    32.358932   0.03335114 -0.045912776 -0.023470213 
  279000    258.57699    7685.0346     2924.207    32.493348 0.0044728002 0.0040864112 0.0061287619 
  280000    278.29358    16554.861     2924.207    29.393237  0.041763592 -0.0019621479 -0.0070860549 
  281000    257.10837    15889.071     2924.207    27.095931  0.067611307  0.032690638 -0.0092713528 
  282000    264.50808    6601.0839     2924.207     27.77897  0.026678341  0.052841329 -0.023317305 
  283000    270.26392    16686.564     2924.207    30.461844 -0.027918656  0.028234371 -0.0073433592 
  284000    278.26955    10722.123     2924.207    31.872348 -0.017471893 -0.0019953081  0.010734505 
  285000    299.96993     4856.683     2924.207    28.710139 -0.022810229  0.083123882 -0.041906556 
  286000    289.38926    10823.234     2924.207    27.273277 -0.032226909   0.01866099  0.010308061 
  287000     294.0186    8088.1419     2924.207    28.907102  0.029243454  0.046467649  0.016773861 
  288000    279.28712    6409.2878     2924.207    28.947686  0.030153716 -0.0018932381 -0.0031671563 
  289000    274.83295    12082.982     2924.207    23.596424 -0.012763037  0.013899646  0.014333423 
  290000    287.01695    6585.5064     2924.207     18.68121 -0.029095976  0.037647876 -0.0085488476 
  291000    273.91142    9737.4516     2924.207    21.135212 -0.010884385 -0.013352548 -0.060802502 
  292000    285.54546    5547.8629     2924.207    27.553706 -0.0045697612  0.012422631  0.010243154 
  293000    273.37885    13056.858     2924.207    29.157469 0.0082902405 -0.00073618232  0.023283384 
  294000     289.3651     9627.506     2924.207    28.479293  0.027068318 -0.019402993 0.0094082255 
  295000    281.93743    4161.9744     2924.207    29.614439  0.021094897 -0.0010852186 0.0087120259 
  296000    276.43177    6585.3881     2924.207     27.79383  0.013888103 0.0055874318 0.0080857919 
  297000    277.81701    12327.368     2924.207     22.19526 -0.038620203 -0.0010854365 -0.024081191 
  298000    279.26581    7687.5755     2924.207    19.356371 -0.039970661   0.01660012 -0.021377225 
  299000    282.86877    4343.6024     2924.207      22.4064 -0.028411782 0.0058147903  0.015896777 
  300000    271.76409    18170.066     2924.207    28.419345  0.012310679  0.024802922  0.017179575 
  301000    291.36792      5109.86     2924.207    30.876462   0.01322093  0.025886842  0.012114995 
  302000    277.48476    15139.538     2924.207    30.048902 0.0069317217  0.027207901 -5.0076383e-05 
  303000    312.87264    3088.6559     2924.207    28.639735  -0.02327519 -0.0082991666 -0.011951945 
  304000    269.78869     8049.426     2924.207    30.272595   -0.0204919  0.016550106  -0.02617736 
  305000     271.7889    16670.614     2924.207    31.571135 -0.0074855455 -0.029885835  0.029474463 
  306000    283.85016    13383.879     2924.207    29.307742  0.025190212 0.0064295043 -0.0037832324 
  307000    290.42771    6424.3688     2924.207    23.705087  0.026684077  0.008994018 -0.0020469792 
  308000    287.15915    9587.8356     2924.207    21.364295 -0.005993108 0.0083801062 -0.022442914 
  309000    288.35014    12545.018     2924.207    26.794314 0.0035030211 -0.042791837 0.0051943549 
  310000    280.75947    11653.913     2924.207    33.492841  0.020907436 -0.0085720928 -0.018836875 
  311000    279.02886    2366.3663     2924.207    30.798769 -0.017042827  0.019570479  0.034231865 
  312000    302.72093     5366.874     2924.207    25.643125  0.013401778 -0.021584803 -0.013571965 
  313000    292.50375    9191.2849     2924.207     26.26069  0.039452475  0.022235794 -0.019457973 
  314000    270.80128    12346.257     2924.207    27.464741     0.032196 -0.024568534 -0.00031637813 
  315000    290.06285    9991.5427     2924.207    23.262154 -0.0036213142  0.014132032   0.01685192 
  316000    287.33978    7908.5191     2924.207    19.215523  0.018919218 -0.036124594  0.039096268 
  317000    276.30597    9121.9647     2924.207    19.897158  0.020026189 -0.015036889 -0.034879561 
  318000    288.05002    13235.258     2924.207    22.730006  0.054584843  0.018753077  -0.02579543 
  319000     284.7538    4223.9459     2924.207    26.192319 0.0010473342  0.015517361 -0.0017688166 
  320000    270.10667    15435.785     2924.207    30.124049   0.02205868   0.03222276  0.013333241 
  321000    292.13946    10434.999     2924.207    31.705933  0.014190643 -0.012807893 -0.021641553 
  322000    284.32073    4103.7818     2924.207    31.623361 -0.003601688 -0.0048513287 -0.011225771 
  323000    281.04252    15497.696     2924.207    30.675444 -0.022685177  -0.01832763  0.022354118 
  324000    275.62252    10555.031     2924.207    31.998749 -0.043350699  0.014368323  -0.01533808 
  325000    286.67871    8244.8334     2924.207    32.561091 -0.049747687  0.011665229  0.012718475 
  326000    257.94887    13004.411     2924.207    34.808034 -0.033793213 -0.058030185  0.017208623 
  327000    271.29153    2598.2197     2924.207    35.905475  0.025127571  0.017613599 -0.0013910791 
  328000    278.09902    13667.981     2924.207    35.451514 0.0092028819 0.0067678794 -0.016757671 
  329000    282.18043    12456.975     2924.207    31.980002 -0.0065927467 -0.0087756284  0.014265175 
  330000    278.50827    5531.2718     2924.207    27.810055 -0.012485869 0.0089810045 -0.0029614386 
  331000    290.84217     18905.13     2924.207    27.924422  0.014227604 -0.010277488 -0.015979396 
  332000    285.82079    11409.759     2924.207    30.273669 -0.018841113 0.0066904165 -0.028456928 
  333000     254.5944    7417.2695     2924.207    29.020399 -0.015379162  -0.02810787 -0.030989845 
  334000    296.63205    9954.9229     2924.207    25.990731 -0.0026787032 -0.0081349615  0.041610174 
  335000    288.59966    10721.971     2924.207    26.547459   0.01111665 -0.033067593  0.023558912 
  336000    267.91031    8695.0927     2924.207     29.06932 -0.0080495363  0.003054183 -0.011350752 
  337000    290.26422    3385.7116     2924.207    30.544298  -0.02415787  0.011061053 -0.020438543 
  338000     285.5367    13217.169     2924.207    33.056238 -0.035259205  0.024881533   0.01730628 
  339000    275.35368      10665.6     2924.207    32.751108 -0.024477106  -0.01912001  0.015308607 
  340000    262.06349     7326.912     2924.207    31.317164 0.0092693537  0.020720152 0.0039400187 
  341000    262.94054    12896.903     2924.207    29.779894 -0.012219069 -0.051588104  0.024039703 
  342000     277.3699    6673.9143     2924.207    26.874611  0.017113156 0.0010905366  -0.00741614 
  343000    277.70604    19379.673     2924.207     24.41032 -0.010173999 0.0026255608 0.0026543379 
  344000     273.4333    6491.7245     2924.207    24.523204 0.0037042437 -0.037672668  0.017279945 
  345000    276.01264    13592.689     2924.207    27.639659 0.0011365111  0.032696422  0.013880201 
  346000    282.97507    10174.544     2924.207    30.134482 0.0087040482 -0.0075037252  0.024848717 
  347000    264.96903    10539.675     2924.207    32.408702 -0.031228494 -0.023066406  -0.04452756 
  348000    298.33597    6229.9738     2924.207     31.77044 -0.013596935 0.00013098937 -0.0051627962 
  349000     287.8755    13728.124     2924.207    33.292728 -0.005220802 -0.020678724 -0.018719671 
  350000    266.41261    10447.316     2924.207     33.37706  0.037959309 -9.4359221e-05 -0.012603905 
  351000    272.83744    8348.1644     2924.207    31.856884  0.025572776 -0.0087208284 -0.012714496 
  352000    289.74653    13341.891     2924.207    29.198212 -0.0011009481 -0.036316295 -0.026430139 
  353000    267.55996    11585.314     2924.207    26.335629  0.017500928  0.017674184   0.02316525 
  354000    275.67397    7317.8421     2924.207    20.429711 -0.0078290378  0.016149445 -0.0025158671 
  355000     292.1904    17118.738     2924.207    16.126444 -0.028428198 0.0026453289 -0.0054330603 
  356000    278.36404    11084.176     2924.207    19.442019 -0.016247149 -0.012578096 -0.031736381 
  357000    292.17958    9339.4994     2924.207    27.508536 -0.0029378591 0.0031986431  0.020370591 
  358000    267.13826    14694.342     2924.207    33.129469  0.013579443  -0.02718367 -0.035009741 
  359000    275.12553    8525.7396     2924.207    31.848695  0.016669833  0.007746876  0.016329763 
  360000    289.32875    6896.5915     2924.207    25.764066  0.028091106 -0.023505865 0.0034370133 
  361000    275.62473    14582.668     2924.207    22.351214  0.016594766 0.0024790146   0.01737279 
  362000    270.23355    6156.5582     2924.207    24.464053 -0.029653524  0.011165718 -0.024256031 
  363000    270.40718    18808.815     2924.207    30.936076 0.0067952519 0.0036019481 -0.030054255 
  364000    270.09994    10010.506     2924.207    33.613577 -0.0024709059  0.011313821 -0.0053812798 
  365000    271.47112    16313.406     2924.207    28.639991 -0.00049141323 0.0013476797 0.0084190827 
  366000    246.78315    16345.822     2924.207    21.665419 -0.010700831 0.0032009801   0.02768572 
  367000    265.84132    10164.798     2924.207    16.981518 -0.052206361  0.043174823 0.0015720285 
  368000    263.23981    12790.041     2924.207     13.67354  0.017669697  0.011267549 -0.017582733 
  369000    277.27814    14235.887     2924.207    14.228578  0.033576258 0.0061155121 -0.022137158 
  370000    253.59475     11231.33     2924.207    19.445516 -0.021300141 -0.031461984 -0.0067750587 
  371000    256.14893    11750.647     2924.207    28.164783  0.018337432 -0.015080619 -0.020327333 
  372000     275.8526    8369.9637     2924.207    33.586081 -0.0060969212  0.026324633 0.0043474283 
  373000    250.88213    21806.456     2924.207    35.376537 0.0030478551 -0.014213048 -0.010816395 
  374000    276.56762    12483.576     2924.207    34.494148  0.024639794   0.01343559 -0.022918501 
  375000    275.35342    4016.1778     2924.207    32.457156 0.0022376881 -0.023492475 0.0074193892 
  376000    262.72488    12663.294     2924.207    29.682701 -0.012616131 -0.0010119111 -0.016913435 
  377000    282.29366    8888.5931     2924.207    28.530683 -0.019354954 -0.073075136 0.0010481719 
  378000    252.24906    15526.519     2924.207    26.817661  0.015926098  0.014564307  0.007477873 
  379000    270.80162    12353.302     2924.207    25.693339 0.0056935813 -0.0022982384 -0.019258111 
  380000    272.50028    6994.4327     2924.207    26.366951  0.016967535  0.019087966 -0.028195372 
  381000    247.03031    12822.207     2924.207    27.941114 0.0023478603  0.020643171 0.0013060491 
  382000    271.73537     12609.87     2924.207    31.474742 0.0042938509 -0.022117972 -0.021438845 
  383000     291.5852     9182.493     2924.207    34.758775   0.01623052 -0.030433775   0.01108423 
  384000    250.93239    11756.743     2924.207    35.175099 0.0082417023  0.014992285 -0.0057064566 
  385000    267.67576    14931.347     2924.207    35.027557 -0.004573472 -0.023009005 0.0020160327 
  386000    290.77952    4067.7846     2924.207    34.015617 -0.025871965 -0.023030347  0.020191695 
  387000    246.27045    13265.389     2924.207     34.54076 0.0097945833 0.0033031428  0.034837226 
  388000     272.2541    14978.266     2924.207    34.363626 -0.027332093 -0.0072851185  0.017633257 
  389000    257.87157    4110.3268     2924.207    32.217146  0.030033192  0.028995466  0.032058187 
  390000    273.23586    14747.879     2924.207    29.895521  0.025308954 0.0082534728 0.0015464993 
  391000    266.24165    6380.2543     2924.207    29.537335 -0.0074409257   0.01715516  -0.03284218 
  392000    291.11768    10690.453     2924.207    30.099913 -0.0049392723 -0.046422693 -0.038937793 
  393000    254.50333    14363.763     2924.207    29.752309  0.010928927 -0.028473482  0.027834161 
  394000    252.04432    5654.2672     2924.207    26.379974 -0.019765575 -0.0017867945 -0.00036112686 
  395000    271.12961     15959.29     2924.207    20.691551 -0.028028669 0.0031069106 -0.015352444 
  396000    270.38113    12576.243     2924.207    17.269837  0.018844497 -0.051579255 -0.072685532 
  397000    261.82447    6078.5652     2924.207    14.102668 -0.0019179849 0.0039955411 -0.014830992 
  398000    260.06139    14489.824     2924.207     16.68939 -0.0016159522 -0.020304696 -0.0084594648 
  399000    271.04291     10648.91     2924.207    23.113261  0.030651601 -0.0082136082 -0.0028715502 
  400000    260.24533    14393.243     2924.207    27.597467 -0.0081149429 -0.042594009 0.0064559801 
  401000    253.27742    15022.702     2924.207    29.158643  0.057707595 -0.0033170542 -0.019958886 
  402000    280.42581     8570.291     2924.207    27.517855 -0.022567949 0.0010658697  0.017346039 
  403000    255.25463    10890.587     2924.207    24.096051  0.005508576 0.0045800367  0.025909823 
  404000    257.94584     8056.134     2924.207    21.143865 -0.0031659484 -0.026928036 0.0026160757 
  405000    252.82613      10405.4     2924.207    20.044686 -0.0098164115  0.004571959  0.017030474 
  406000     261.5902     14972.41     2924.207    19.956594 -0.011592706 -0.034009595 0.0066563017 
  407000    271.10342    11599.247     2924.207     22.13943 -0.0005902785  0.006180213 -0.00086319036 
  408000     263.8831    13172.081     2924.207    25.156448  0.020460901  0.038344558 -0.021306569 
  409000    275.81608    15160.933     2924.207    25.562944 0.0070258343  -0.02828389 -0.011272547 
  410000    287.82561    7869.2651     2924.207    21.040804 -0.014389685 -0.001669825 -0.0020498487 
  411000    264.95664    11500.889     2924.207    16.898463 -0.051787695  0.022759166  0.050800241 
  412000    277.82597    15680.953     2924.207    15.237872  -0.01600206  0.010465004  0.025221935 
  413000    257.35078    8287.8939     2924.207     14.39433  0.025575136 -0.009620999 -0.030357901 
  414000    268.79831    12683.615     2924.207    14.784866 -0.0046608022  0.010984327 -0.0018062163 
  415000    257.27041    13065.439     2924.207    16.673689 -0.00072493702 -0.019491951 0.0048582082 
  416000    268.59628    5229.0964     2924.207    19.883105 -0.0023383864 -0.051420242 -0.0036993526 
  417000    263.70948    16177.836     2924.207    23.889125 -0.024903688 -0.026309566  0.012406691 
  418000    259.77221    4868.3117     2924.207    25.315778 -0.027027218 -0.0068635549 0.00097439462 
  419000     268.6537    16397.274     2924.207    29.059827 0.0022882029  0.015925589  0.013332905 
  420000    301.48516     11583.45     2924.207     29.95263 -0.015812568 -0.0080682564  0.023187991 
  421000    252.73053    8053.5105     2924.207    28.868018 0.0091670424  0.021782036 -0.00036968105 
  422000    275.19455    6830.9333     2924.207    26.086924 -0.031008848 -0.016968021 -0.005450187 
  423000    256.27121     16388.94     2924.207    21.526038  0.022672237 0.0057654123  0.039375285 
  424000    262.49221    3818.1209     2924.207    18.251312 -0.032116657  0.033994027 -0.033545087 
  425000    282.20326    14230.173     2924.207    20.120828 0.0035385675 -0.004086018 -0.0049563958 
  426000     245.2966    11597.692     2924.207    27.312027   0.03801117 0.0039161768 -0.013093933 
  427000    282.38292    5331.9501     2924.207    32.483979  0.063128124   0.01237519  -0.01319692 
  428000    265.86607    15871.912     2924.207    32.334042  0.041030346 -0.011910188  0.033672739 
  429000     278.0436    10796.448     2924.207    32.073903 -0.0020985072 -0.013024362  0.024994489 
  430000    289.16788    9807.7986     2924.207    29.205347 0.0070997791 -0.012348199 -0.015508091 
  431000    256.67667    14802.392     2924.207    24.221994  0.015881178  0.030193643 -0.042721258 
  432000    284.40588    7181.2094     2924.207    23.032806 -0.026066496  0.020596259  0.035337834 
  433000    250.69176    17643.845     2924.207    24.442807 0.0026591603  0.014743925  0.010909169 
  434000    262.67542    6029.2055     2924.207    26.978628 -0.011130874 0.0016406805 -0.0031602005 
  435000    263.85543    18957.527     2924.207    27.804917 0.0051536582 -0.001005117  0.010283086 
  436000    267.02622    4230.7204     2924.207    27.959929   0.02337574 -0.0024012009 -0.0091454264 
  437000    273.94346    9662.0973     2924.207    27.911065 -0.00093597617 -0.0076701959  0.012883357 
  438000     262.2766    13006.135     2924.207    25.697391 -0.0010927082 -0.011999312 -0.021286628 
  439000    275.21664    13789.901     2924.207    23.378949 0.0035022641 -0.034670855 -0.010083204 
  440000    283.20389    1420.6004     2924.207     24.46707 -0.031331918 0.0017937735 -0.014912702 
  441000     256.9957    14222.436     2924.207    27.791192 -0.0056340517  0.043996893  0.015122221 
  442000    272.17434    11189.272     2924.207    29.385467 -0.042759268 -0.010757483 0.00036531391 
  443000    270.84286    9255.3676     2924.207    29.924457 -0.0059126743 -0.0069010408  0.010132593 
  444000    270.65583    13126.124     2924.207    28.215456 -0.014608507  0.011473255  0.037651221 
  445000    259.92272    10306.089     2924.207      27.0621 -0.027349173 -0.0019992257  -0.01380146 
  446000    300.54135    10991.214     2924.207    29.437207 -0.0019998802 -0.0014942192 0.0056191438 
  447000    262.97347    6086.6809     2924.207    32.722006 0.0050054476  0.013614315 -0.0061119268 
  448000    256.89108    14210.641     2924.207    34.072579  -0.02971693  0.043815453 0.0094333787 
  449000    273.82199    11313.124     2924.207    32.258217  0.025971878 -0.0051873971 -0.0052103065 
  450000    272.03205      8297.57     2924.207    28.170313 0.0017676971  0.012443712 -0.034937266 
  451000    268.79213    9557.7372     2924.207    24.655494  0.011356782 0.0092261306  0.005158568 
  452000    262.92312    9108.9009     2924.207    23.988895 0.00039442817  0.028722321 -0.0060307467 
  453000    264.81858    13313.907     2924.207    24.268891 -0.014795037 -0.057265199  0.014799166 
  454000    266.07986    8914.8315     2924.207    28.072976   0.02539994 -0.0085241853 -0.023508225 
  455000    283.95708    9635.8422     2924.207    33.188682  0.020487051 -0.0023106522  0.021200664 
  456000    247.24445    11488.683     2924.207    35.594902 -0.0085240543  0.035503444 0.0081910424 
  457000    278.24204     9419.905     2924.207    35.111088  0.004125265 -0.0082711702  0.030566099 
  458000     265.5761    7851.0483     2924.207    31.529648 -0.013879395  -0.01502399 -0.0021005699 
  459000       281.09    10597.792     2924.207    26.738634  0.011187684  0.001517872  0.027826108 
  460000    260.80897     5292.684     2924.207    21.974927 0.00099723026  -0.03607031 -0.0057300552 
  461000    279.70804    14734.426     2924.207     19.40698  0.013402865 -0.0038235547  0.039636591 
  462000    276.77107      3963.91     2924.207      21.6189   0.01766324 0.0083980315 0.0032619122 
  463000    269.90316    13360.879     2924.207    27.902959 -0.012222167 -0.023009464  0.012026274 
  464000    289.39001    11910.917     2924.207    31.133083 -0.010943018 -0.050520026 0.0036157905 
  465000    261.73299    5782.0536     2924.207    28.928922 -0.016408497 -0.026588604 -0.017460394 
  466000     283.3227    12913.085     2924.207    24.602622 -0.020729478 -0.0028283409 -0.0074573951 
  467000    276.64095    5946.0937     2924.207    23.103255 -0.014685515  0.033295478   0.01200791 
  468000    265.90365     7415.088     2924.207    23.856023  0.002424565 0.0010234249  0.017541363 
  469000    262.47607    14885.772     2924.207     24.59965  0.019602753  0.046689095 -0.00086804316 
  470000    261.21996    12043.201     2924.207    24.726689 0.0032956854 -0.0045323937  0.030444899 
  471000    267.04073    4734.3844     2924.207    24.868676 -0.0013006312 -0.029183272  0.023191955 
  472000    278.50964    10978.522     2924.207    24.717269 -0.00077128582 -0.020467498  0.022134051 
  473000    273.86278    12503.484     2924.207    22.913238 -0.014783423 0.0086764441  -0.02536209 
  474000    280.20094    15984.073     2924.207    22.349148  0.023600582  0.019667753 -0.027442635 
  475000    268.18317    9686.2463     2924.207    24.791976 0.0098050191 -0.0048236455  0.020336238 
  476000    272.65636    9260.7131     2924.207    26.426868 -0.014613399 0.0045859696 -0.0033305496 
  477000    252.77318    11824.265     2924.207    26.992473 -0.052324061  0.015933015 0.0094527154 
  478000    276.04838    2392.7805     2924.207    27.310976 -0.052532633 -0.008727048 -0.0033539111 
  479000    267.18206    8239.3489     2924.207    27.609083 -0.011020939 -0.014180124 -0.030242406 
  480000    280.47934    7002.5467     2924.207    30.295923 0.0087885854 -0.015921885   0.01077661 
  481000    274.02026    7075.3321     2924.207    33.576451 0.0061536189 -0.010736434 0.0075122807 
  482000    282.28233    5898.9081     2924.207    33.803284  0.020062747  0.018682863  0.012804098 
  483000    257.38853     8547.713     2924.207    33.548592 -0.043895159  0.047319011  0.015605948 
  484000    277.00006     12236.14     2924.207    32.132387 -0.010932259  0.030424841 -0.016966397 
  485000    261.49648    4591.3355     2924.207    30.721831  0.021835134  0.018863732 -0.021174833 
  486000    269.56236    7068.7901     2924.207    28.353631  0.020409617 -0.012538402 -0.021825299 
  487000     259.1076    15893.637     2924.207    25.533167  0.012812247  0.022269924 0.0048736673 
  488000     265.0626    6702.7604     2924.207    27.349583  0.041259913 0.0043429187  0.019037441 
  489000    272.13017    15224.217     2924.207    27.256734  0.056040299  0.042100662 -0.034873821 
  490000    273.33052    5619.8133     2924.207    27.243468  0.008223418  0.011275361 0.00025911383 
  491000    257.73355    6847.3969     2924.207    26.088599  0.028378607 -0.010465402 -0.010425195 
  492000    281.86227    19255.367     2924.207    27.055218   0.02978334 -0.0034531696 -0.021006708 
  493000      264.558     12098.73     2924.207     25.88375  0.030192901 -0.029241761 -0.0085135917 
  494000    262.33572    6977.0021     2924.207    23.714072  0.067551331  0.012007935  0.014068937 
  495000    264.33158    12740.749     2924.207    25.643182 -0.0023408826 0.0004084961  0.024237933 
  496000    283.26066    8462.0695     2924.207    27.296204 -0.010908778 0.0070733336 -0.0020283548 
  497000    266.37078    11344.712     2924.207    26.535387 0.0069181818 0.0064751987 -0.020410933 
  498000    290.13716    8371.4771     2924.207    25.986254 0.0060690216 -0.0075316044 -0.0026046173 
  499000    260.37902    7271.0508     2924.207     26.37427 0.0013681073 -0.0061223049 -2.8688388e-05 
  500000    276.45702     4035.075     2924.207    25.364218 -0.019789052 -0.0064154955  -0.04042904 
  501000    266.75495    18815.169     2924.207     23.61923  -0.04823124 0.0019684904  0.028261947 
  502000    270.91703    636.90264     2924.207    23.072582  -0.01483611 -0.0085293595 -0.010923836 
  503000    277.13483     9991.744     2924.207    23.038902  -0.01490628 -0.024051587 -0.0048952254 
  504000    284.75622    10919.032     2924.207    21.057834  0.012181366  -0.01590685  0.010527931 
  505000    261.94228    5620.5653     2924.207    19.779186 -0.0027634875 0.0094172878 -0.015774054 
  506000     273.1038    16878.042     2924.207    18.301059  0.012908508  0.021159938  0.026874591 
  507000    272.80058    4792.5524     2924.207    23.256589 -0.047396048 -0.024594233 -0.019315218 
  508000    265.72017    4876.9131     2924.207    31.018881 -0.031882757 0.0043440067  0.038843496 
  509000     277.9421    7670.6609     2924.207    35.530209  0.011899563 -0.029548376  0.033748182 
  510000    264.49619    14494.222     2924.207    32.326908 -0.030970555 -0.069129543 -0.014522791 
  511000    268.82377    1226.0051     2924.207    25.445709  0.015189469  0.029180402  0.025596107 
  512000     283.3713    5722.0157     2924.207    20.575109  0.018196873 0.0010467574 0.0043621672 
  513000    262.78929     10164.41     2924.207    19.283438  0.034742259   0.03616699  0.051344265 
  514000    285.29631    6176.4176     2924.207    18.844701 -0.015953396 -0.0040761642 -0.025418491 
  515000    274.44771    13942.102     2924.207      19.1209 0.0047373043 -0.026858795 0.0022512949 
  516000    277.58281    1533.1632     2924.207    19.608319 -0.026759945  -0.01025702 -0.022879276 
  517000    282.57524    5799.5427     2924.207    23.534817 -0.025935463   0.01098072 0.0082619207 
  518000    280.02154    11695.594     2924.207    27.617594 -0.019050006 -0.0064448919 -0.033100655 
  519000    259.47471    13750.564     2924.207     30.42504  0.028104089 -0.028499717  0.010623743 
  520000     268.7881    1506.6084     2924.207    30.356502 -0.012306134 -0.0063396131 -0.0031095704 
  521000    276.48082    9764.2751     2924.207    26.891165 -0.0099323218 6.3707385e-05 0.0014478428 
  522000    269.58961    9102.6422     2924.207    25.039903 0.0089187214  -0.01552432 -0.026424695 
  523000    267.17743    7970.3142     2924.207    27.773671 0.0090969886 -0.018569115  -0.02409874 
  524000    272.02775    11653.616     2924.207    30.990243  0.024135756 -0.014148113  0.035845181 
  525000     260.5476    11731.861     2924.207    33.608174 0.0041745184 -0.0066197504 -0.059547354 
  526000    255.39397    15366.647     2924.207    34.317322 -0.013947842 -0.034461296 -0.024571629 
  527000    289.42146    2496.7776     2924.207    31.233929 -0.019060092 -0.031031323 -0.010457259 
  528000    293.26725    8033.5668     2924.207    26.504725 -0.058114749   0.01490662 -0.017543659 
  529000    261.81932    13553.381     2924.207    21.718297  0.037071553 0.00081594813 -0.017845566 
  530000    267.81606    10661.538     2924.207    20.719482 0.0090465714 -0.0071969752  -0.01980229 
  531000    259.69872    2027.3777     2924.207    21.610937  0.029166214 -0.026882254 -0.010035457 
  532000    262.15496    18816.663     2924.207    24.553348 0.0085041016  0.013266466 -0.0013318171 
  533000    269.53303    5099.0492     2924.207    24.730435  0.026260291 -0.0081369359 -0.034872952 
  534000    266.87339    13448.491     2924.207    22.463913  0.030125777  0.021292225 -0.0041659736 
  535000    261.72896    15549.748     2924.207    23.570658 -0.054668132  0.033852218  0.048598416 
  536000    272.56786    8943.7409     2924.207    24.313838 0.0053684184  0.026371182 -0.020059386 
  537000    287.55428    1915.2408     2924.207    24.670202  0.003928163  0.019574698 -0.013864451 
  538000    255.18509    14273.403     2924.207     24.77367  -0.02893279  0.012838316 -0.0080368588 
  539000    276.80421    8217.5245     2924.207    25.497615 0.0042928849 -0.012232029 -0.032675467 
  540000    274.89084    6346.4666     2924.207    29.775172 -0.025203456 -0.025163754 -0.023869895 
  541000    260.99726    11938.844     2924.207    32.977612 -0.016661124 -0.00026222074  0.018377586 
  542000     289.5447    12327.008     2924.207    32.942198  0.015119631  -0.02017202 -0.010829353 
  543000    285.24186     10162.85     2924.207    30.762101  0.013750409 0.0020646289  -0.04879735 
  544000    257.92303    10842.323     2924.207    30.634131  0.048328858 -0.039283248 -0.0098118916 
  545000    286.81469    9063.4525     2924.207    32.184528  0.020780732   0.01152587 -0.014109455 
  546000    275.58373    12014.965     2924.207    31.788518 -0.006241433 -0.023875978 -0.030494987 
  547000    275.92566    3749.9729     2924.207    31.632047  0.043643845  0.029020292 -0.0045446628 
  548000    279.71405    8634.1303     2924.207    30.283284  0.022286385  0.020677207 -0.016586158 
  549000    266.39948    8119.8292     2924.207    28.371975  0.027203094 0.0037186436 -0.022057309 
  550000    261.15151    9821.6037     2924.207    29.729953  0.022981593 -0.012428241 0.0018259875 
  551000    269.25376    12252.166     2924.207    31.660896  0.019049854 -0.037840768 -0.026611182 
  552000    277.99906    12512.165     2924.207    34.175984   0.01218415  0.029711746  0.026879478 
  553000    253.26255    2218.1917     2924.207    34.713326 -0.012733963 0.0081794913 0.0087976655 
  554000    259.49654    12272.668     2924.207    32.517024 -0.0050041642  0.034513373  0.014332573 
  555000    282.42292    14481.067     2924.207    27.408049 0.00026845606  0.014691032 -0.014866876 
  556000    272.94543    4309.3588     2924.207     22.52572  0.019686459  0.015733219 -0.021850078 
  557000    271.14896    13834.381     2924.207     20.20044 -0.017976532 -0.011424886 -0.037008459 
  558000    268.31344    7096.2465     2924.207    21.903005  0.015329129 -0.025908326  0.032153106 
  559000    261.86715    6432.4094     2924.207    25.920774  0.011466828 -0.00093533061  0.042160468 
  560000    249.63145    10534.897     2924.207    28.704196 -0.00090856537 -0.020096229  0.023867968 
  561000    263.66592    8067.4116     2924.207    29.125198 -0.015190322 -0.017121536 -0.0023271965 
  562000    279.55264    9001.7953     2924.207    29.054636 -0.0064075719 -0.044395571  0.026945595 
  563000    269.14348    4713.4554     2924.207    28.952487  0.012042935 -0.008395374  0.023071412 
  564000    271.98406    2889.3762     2924.207    28.340997 -0.0031900956 0.0060511189  0.045838438 
  565000    273.89868     9009.298     2924.207    27.002987  0.016509571  -0.02843005 -0.0030178889 
  566000    276.03493    12311.213     2924.207     26.73338 0.0033908499 -0.0091326792  0.069377275 
  567000    269.27022    5782.9728     2924.207    25.839882 -0.012947795 0.0099925572 0.0078131015 
  568000    270.41553     4014.699     2924.207    25.077207 -0.0058057373  0.033315188 -0.0043726424 
  569000    270.43734    9411.4398     2924.207    26.865164 -0.038365231  0.013803742 0.0070941042 
  570000    254.52997    14552.001     2924.207    29.808995 -0.0098301182  0.013305206 -0.017239852 
  571000    264.14018    7531.8463     2924.207    31.199797 0.0060509069  0.028777048  0.024838716 
  572000    268.90951    8379.8358     2924.207    29.020524  0.017246837 -0.0075849168  0.031373928 
  573000    270.48068    9639.6084     2924.207    26.109459   0.04091941  0.010178865  0.020653322 
  574000    258.94351    15103.584     2924.207    25.006329 -0.0090833194 -0.004816377  0.027248086 
  575000    264.18562    8916.1956     2924.207    27.203412 -0.0081222252 0.0060295548 0.0071069574 
  576000    256.47642    3209.9742     2924.207    28.237762 9.5056639e-05  0.010767316 -0.00086116777 
  577000    266.52307    10285.911     2924.207    27.049765  0.014764446 0.0057673674 -0.019925024 
  578000     267.5847    14178.392     2924.207    25.833159  0.078192288  0.011268414 0.0025071752 
  579000    273.41463    8361.4409     2924.207    25.992588  0.060891602 0.0082193603 -0.018878594 
  580000    248.29893    9144.1872     2924.207    27.960747 0.0081625283 0.0056891408 -0.026860182 
  581000     255.4258    10729.978     2924.207    30.243891 -0.021409611  0.029271547 -0.0058349474 
  582000    265.83449    5589.4654     2924.207    32.088993 -0.0036456675  0.009999693 -0.037366131 
  583000    258.39759    12672.634     2924.207    32.827799 -0.0020919124  0.011189435 -0.011894453 
  584000    264.12923    7490.9079     2924.207    31.721897 0.0090575431 -0.0052586795  0.021668684 
  585000     263.3668     11827.73     2924.207    28.725352  0.031773552 -0.0071319121 -0.018324101 
  586000    248.04949    15393.854     2924.207     24.71376 -0.043721028  0.030558612  0.010207021 
  587000    267.41983    10713.067     2924.207    23.125908 -0.011425913  0.028747054 -0.018016261 
  588000    258.55211    8587.1914     2924.207    23.018313 0.00083574219  0.016797884 -0.010944159 
  589000    251.95737    6382.3989     2924.207    22.879811 -0.018726805  0.031509499  0.014768601 
  590000    262.62145    6032.7282     2924.207     21.71447  -0.05457087  0.016617329 -0.0016744662 
  591000    262.53619    12349.749     2924.207    22.562491 -0.0042434533  0.020635653  0.037014496 
  592000    257.79091    14664.381     2924.207    23.919189  0.019861001  0.016181967  0.026485152 
  593000     274.4116    9565.0628     2924.207    25.531833  0.051107785 -0.002642832 -0.0015865369 
  594000    267.17732    5559.5591     2924.207    28.234807 -0.012763146 0.0056742477 -0.024453334 
  595000    258.24128     17467.48     2924.207    29.278564 0.0060272852 -0.029143961 -0.0076362024 
  596000    265.65842    4720.1211     2924.207    29.882102  0.033729003 -0.013119809  0.031634527 
  597000    270.92831    16490.727     2924.207    27.582442  0.016886815 -0.0003420691 0.0072628085 
  598000    268.41513    12078.927     2924.207    25.075538 -0.015917298 0.0017109794  0.026477357 
  599000    252.92033    4807.4827     2924.207    23.639455   0.03619494 -0.0012599697 -0.0043816709 
  600000    258.34863    13900.814     2924.207    25.429563  0.014330207  0.011113654 -0.00010106308 
  601000    272.88312    6248.7854     2924.207    25.776408 -0.024115945 0.0088663449  0.010727413 
  602000    286.15755    8979.9905     2924.207    26.881305 -0.021193208  -0.01096674  0.016004309 
  603000    278.01614    11453.423     2924.207    28.569087 0.0040667893  0.011472437 -0.0031299655 
  604000    277.65826    7159.5951     2924.207    28.661864  0.034032768  0.019612111 -0.020303002 
  605000    258.79184    3839.4835     2924.207    27.749789 -0.025476676  0.062386446 0.0014739472 
  606000    274.03596    9120.9348     2924.207    26.704407 -0.017338378 -0.014038941  0.010031014 
  607000    267.19698    9504.6512     2924.207    25.584519  0.026464073 -0.015525851    0.0282771 
  608000    277.29442    2852.5672     2924.207    27.521599   0.02713653 0.0037244969  -0.03691038 
  609000    253.02866    11944.316     2924.207    27.909582 -0.016812798 -0.010698737 -0.010703776 
  610000    273.28444    15424.379     2924.207    26.978263  0.022890713 -0.006482496  0.011981072 
  611000    278.67332    3257.3123     2924.207    26.069994  0.033726371 -0.017390644  0.038698353 
  612000    262.32439    10304.165     2924.207     25.49463  0.027885245 0.0088528157 -0.033489977 
  613000    256.52603    10008.309     2924.207    28.201568  0.034657032 -0.00069915729 0.0059271326 
  614000    266.45334    12706.102     2924.207    29.884625 -0.013993929 0.0016755121 -0.012473518 
  615000    255.49796    9855.5326     2924.207    28.977193 -0.022077644 -0.032720848 -0.011307205 
  616000    263.12025     649.3236     2924.207    25.091936 -0.0067324821 -0.036256068  0.014029128 
  617000    275.51391    10599.886     2924.207    23.417358  0.010144457 -0.035810793 -0.0028436229 
  618000    264.63407    8704.5618     2924.207     23.74954    0.0404512 -0.041609103   0.01156723 
  619000    252.74337     9001.372     2924.207    23.414215  0.024325525  -0.01102402  0.015361534 
  620000    260.26696    14685.911     2924.207    23.377527 -0.0015696472  0.026156115 0.0057865475 
  621000    258.19526    7502.6758     2924.207    24.935044    0.0131463 -0.006526239 -0.028205067 
  622000    262.40356    15359.328     2924.207    26.766214 -0.0019636577  -0.03776587 -0.0013566388 
  623000    256.90194    5177.3407     2924.207    28.999938  0.016025492 -0.024117314  0.013380029 
  624000    260.98594    7512.3005     2924.207    30.449386 -0.001781059  0.019232816 -5.015949e-05 
  625000    256.83397     17800.13     2924.207    27.825867 -0.005684635 -0.029650522  0.013163617 
  626000    259.76437   -728.47771     2924.207    25.995679 0.0098507916 0.0099777236 0.0085820012 
  627000    271.50744      10072.3     2924.207    28.852699 -0.0068531837 -0.011378461  0.030908901 
  628000    254.71526    6704.1763     2924.207    33.228784  0.015548526 0.0097892386  0.049822946 
  629000    278.50124    15912.365     2924.207    34.292644 -0.030491605   0.01341691 0.0086351595 
  630000    249.57975    6299.5714     2924.207     30.75153 -0.0060681281 0.0084461633  0.024874025 
  631000    258.35305    12150.412     2924.207    26.460321 -0.014798235 -0.0032925783 -0.019217826 
  632000    270.04569    9116.2715     2924.207    21.970993 -0.026711908 -0.0033389395  -0.02007332 
  633000    261.42304     2384.114     2924.207     20.06708 -0.00037119095  0.002217764 -0.029373844 
  634000    258.95461    13120.292     2924.207    21.187251 -0.00059279454 -0.00087721154 -0.0033130636 
  635000    247.78763    5497.9249     2924.207     25.62343  0.014709726 -0.0090111851 -0.0084171218 
  636000    274.73104     10241.76     2924.207     28.35696 -0.024494947  0.039916963  0.052098799 
  637000    274.74491    8020.8488     2924.207    30.104377 -0.0094083537 -0.014544592 -0.017382795 
  638000    253.94542    10441.725     2924.207    26.259083  0.012712399 0.0041567274 -0.020273613 
  639000    256.38442     8990.724     2924.207    22.887433 -0.015488696 -0.012074051 0.0025639755 
  640000    278.74963    10980.134     2924.207    19.200931  0.055824131 -0.012076821  0.022009795 
  641000    256.12323    4576.8463     2924.207    16.051029   0.02889371  0.019345036  0.010874496 
  642000    254.59426    16815.311     2924.207    17.550191 -0.015783484  0.054591656 -0.017024318 
  643000    263.56441    11945.049     2924.207    22.698517 -0.0074835224  0.024272908 0.0017336355 
  644000    277.52699    6460.5769     2924.207     29.89861 -0.0031182272 -0.024823839 -0.015528634 
  645000    284.55082     8069.889     2924.207    33.273469 -0.014285653  0.010883204 -0.026737941 
  646000    260.21892    18067.932     2924.207    33.452706 -0.0045421727 -0.0048118144  0.021518503 
  647000    255.35058    10898.912     2924.207    31.000505  0.036395936  0.011626938 0.0003519463 
  648000    260.34747    5535.5048     2924.207    27.800438 0.0077389521 -0.012334435  0.069963562 
  649000    268.82885    4294.6735     2924.207    27.864984  0.031621471 -0.021745051 -0.0099354898 
  650000    280.98763    15189.834     2924.207    30.703733 -0.016222014 -0.0079161762  0.017000694 
  651000    263.88986    11215.924     2924.207     33.69655 -0.021605328 -0.070979118  0.025294116 
  652000     278.0157    7158.5229     2924.207     35.08274 0.0071344869 -0.007608906 -0.016302767 
  653000    256.91868    3883.3784     2924.207    34.225183 0.0069229406  -0.03495351 -0.018820936 
  654000    284.20928     4709.145     2924.207    31.421654 0.0046408696  0.022909219 -0.00063876981 
  655000    261.97139     12048.02     2924.207    29.221423  -0.03057247 -0.025274499 0.0084119014 
  656000    271.10017    8566.6733     2924.207    28.848377 -0.010645415 -0.016855694 -0.018678644 
  657000    262.31499    6258.1974     2924.207     29.92537 -0.016927455 0.0018226073 -0.020599128 
  658000     295.5909       8074.4     2924.207    31.546505 -0.0065592769 -0.00072554341  0.025451252 
  659000    274.42836    17551.254     2924.207    32.518838 -0.038009904 -0.046293509 -0.017015291 
  660000    257.98494    326.64976     2924.207    30.922727 -0.0049541237  0.013925543   -0.0247435 
  661000    283.76321    7039.6632     2924.207    28.754021  0.019321898 -0.019319561  0.029554189 
  662000    279.00464    16019.038     2924.207    28.216036 -0.010845304 -0.020363194 -0.016915882 
  663000    278.91029    10342.916     2924.207    30.387636 0.0023260072 -0.012094638 -0.025970406 
  664000    266.83991    4137.9508     2924.207     33.43367 2.8654547e-05  0.012257005 -0.090491731 
  665000    265.19292    10218.512     2924.207    34.808783 -0.0096126355 0.0031076813 0.0010934685 
  666000    266.11097    11041.097     2924.207    34.253379 -0.0079357362 -0.017246442 -0.0074241868 
  667000    279.31619    6568.2248     2924.207    32.335721 -0.0089198859 -0.009724496  0.042968054 
  668000    303.06231    7331.6275     2924.207     29.55318 -0.033145955 -0.017141867 -0.029173078 
  669000    268.75499    14539.574     2924.207    28.710825 -0.014530805  0.010424679 -0.027002714 
  670000    260.85735    1931.6658     2924.207    29.678348  0.013970685 -0.029042884 3.2052494e-05 
  671000    291.15419      15476.9     2924.207     30.49969   0.03027144  0.048642571  0.011019626 
  672000    268.10238    9907.2162     2924.207    30.924621 0.0035068818 -0.019773592 -0.0097410659 
  673000     271.5169    9610.5936     2924.207    31.467912   0.02932959  0.027476019 -0.0031210999 
  674000    262.77784    3460.0147     2924.207    31.679504 -0.00071700563 -0.016315668 -0.0093259815 
  675000    252.82065    6374.5796     2924.207    30.154469  0.038373631  -0.02300634 -0.0056222637 
  676000    266.52703    8187.7594     2924.207    28.240315  0.036738214 -0.014878552 0.0016833805 
  677000    264.49096    9965.1344     2924.207    27.637831 -0.027529555 -0.0088691327 -0.016693248 
  678000    271.93234    3020.8426     2924.207    29.387688  0.016882029 -0.018203392 0.0050387626 
  679000    264.80811    15564.553     2924.207    31.396367  0.013626862 -0.028465621  0.039625214 
  680000    260.90026    12059.026     2924.207    30.956364 -0.034407208 -0.032122259  0.036047303 
  681000    265.07461     5491.322     2924.207    26.789234  0.021716416 -0.045279471 0.00074598591 
  682000    275.77253    14107.036     2924.207     20.45967 0.0084111103 -0.045626807  0.025828081 
  683000    263.08939     7793.057     2924.207    17.260618  0.024154365 -0.040747026 -0.013529772 
  684000    251.77316     14530.73     2924.207    20.189172 -0.0069627971 -0.013599967 -0.020571316 
  685000    268.85701    9056.8999     2924.207    24.579071 0.0081093965 -0.022633038  0.036092544 
  686000    278.70094    6722.9354     2924.207     27.21597  0.015227156 -0.034049325 -0.00043728656 
  687000     262.0375    7312.5263     2924.207    28.802018  0.022329803 -0.015908951 0.0063042651 
  688000    254.25806    7074.5596     2924.207    28.104549 -0.0072812374  0.027601345 0.0088653044 
  689000    259.86753    9953.8766     2924.207    25.625477  0.003982471  0.012020615  0.032547935 
  690000    257.35367    10292.502     2924.207    23.499205  -0.01653641 0.0037582808 0.0079481072 
  691000     256.9064    13492.448     2924.207    24.145031  0.013958922  -0.01010487 -0.022805195 
  692000    244.61645    8320.2714     2924.207    24.700195  0.012010878  0.032399378 -0.0071695924 
  693000    266.93287    8800.9491     2924.207    26.322436 -0.0028851915   0.03693916  0.034301975 
  694000    262.37911     4769.282     2924.207    29.962706 0.0054338896 -0.0062364569  -0.01871283 
  695000     258.3382    10687.581     2924.207    33.135186 -0.011359435  0.021764794  0.014403894 
  696000    270.82627    8673.6297     2924.207    33.190484 -0.0010062262 -0.0023234812  0.028310851 
  697000    285.94145    7714.7359     2924.207    29.736049 -0.012605762 -0.023516108 -0.012298448 
  698000    277.39012    6019.2387     2924.207    25.490816  0.040277932  0.026553319   0.03184108 
  699000    281.76401    12012.823     2924.207    21.477918  -0.01066157  -0.01718459 -0.014038046 
  700000    264.12088    4142.0898     2924.207    20.604091 -0.0013640843   0.01901579   0.01228825 
  701000    271.05702    13108.365     2924.207    22.650757 -0.022255902 -0.0085478465 0.0051492402 
  702000    284.72993    6978.2078     2924.207    25.407882 -0.017937337 -0.0074477737 -0.022265758 
  703000    254.37858    4194.6727     2924.207    28.491625 0.0024951042  0.028760006  0.012708278 
  704000     265.9066    11233.054     2924.207    30.953241  0.017127944 -0.0042082336 0.0045554863 
  705000    268.21725    9323.4185     2924.207    33.079468  0.019607739 0.0081916872 -0.038804745 
  706000    282.10476    8550.3663     2924.207    33.023456 -0.0032051113  0.026936657 0.0040357009 
  707000    260.99119     11524.99     2924.207    30.590778  0.033597406 0.0065621848 -0.012238631 
  708000    251.77096    1008.5296     2924.207    29.451875  0.030357937 -0.009953074 -0.016708796 
  709000     252.6657    17629.978     2924.207    28.950206  0.021987768  0.026768475 -0.023523188 
  710000    249.50485    6473.8081     2924.207    28.354346  0.037647659  0.020393278 -0.028628257 
  711000    250.92163    13326.414     2924.207    29.579227 -0.012947303  0.046012486 0.0051884433 
  712000    261.35809    4738.2551     2924.207    31.932553  -0.02702466 -0.013332982 -0.017229931 
  713000    265.99431    4026.9852     2924.207    34.640632 0.00051179203  0.016453405 -0.022221024 
  714000    268.93168    9375.9028     2924.207    35.267134 -0.019453715 0.0046522986 0.00058734303 
  715000    264.12435    10314.746     2924.207    35.515171 -0.0038709927  0.010954027 -0.023011627 
  716000    272.43556    14883.124     2924.207    34.507245 -0.00043886965  0.010094392 -0.0013831192 
  717000    264.63149    7948.1652     2924.207    31.671514 -0.023612483 0.0078116004 0.0097927034 
  718000    270.07593    5524.8349     2924.207    29.006402 0.0012721668 -0.0048858373 -0.007444806 
  719000    276.03136     9158.332     2924.207    28.768767 -0.016902983 -0.0043444221  0.014387997 
  720000    267.09915    14142.197     2924.207    28.321957  0.018297191 0.0092844622 -0.0036467953 
  721000    265.92922    9945.5331     2924.207    26.235552 -0.0026267476 -0.0090486204 -0.0079959454 
  722000    266.07638    6854.4359     2924.207    24.181549 -0.023964828 -0.0083236206  0.016495488 
  723000    272.14994    4976.4857     2924.207    25.737486 0.0013469273  0.011517839 -0.018878604 
  724000    275.26156    12654.724     2924.207      27.2374 -0.0075654394 -0.002218398 0.0025492592 
  725000    271.36722    9065.1918     2924.207     27.19906 -0.022401428 -0.00067027713  0.022058199 
  726000    254.62947    3412.7098     2924.207    27.316728  0.047827002 -0.0060593935 0.0073032622 
  727000    290.47179    7415.8726     2924.207    28.267917 0.0061967449  0.016312446  0.015436635 
  728000    268.24524    9272.2497     2924.207    28.282054 0.0015671223 -0.033719257 -0.0024792845 
  729000    265.74946    10088.956     2924.207    26.197526 -0.016647243  0.040252488  0.021469767 
  730000    277.05867    5886.2593     2924.207    23.639285 -0.011795183  0.026894193  0.010230464 
  731000    265.60305    6567.8525     2924.207    23.329325 0.0050563206 0.0095877963  0.016763477 
  732000    251.83677    16316.879     2924.207    23.373526  0.011602142 -0.00014781351  0.024390954 
  733000    269.24943    6695.2126     2924.207    24.558277  0.027016544 -0.012252825 0.0096575132 
  734000    251.85463    11368.402     2924.207    25.726663 0.0077497716 -0.018275839  0.016698611 
  735000    265.69828    12073.883     2924.207    25.655393 -0.020392329  0.030798512 0.0082948664 
  736000      258.603    13082.568     2924.207    23.549255  0.014157484 -0.015920877 -0.018162579 
  737000     260.6889    1371.8233     2924.207    22.050067 -0.028282115  0.023177104 -0.0075524178 
  738000    274.99091    10144.604     2924.207    22.564722  0.039754411  0.017585347 -0.015575801 
  739000    262.70617    8734.3572     2924.207    23.160279  0.014802668 -0.016257435  -0.01160517 
  740000    263.48095    5875.4621     2924.207    25.960671 -0.012036513  0.018663812  0.012124353 
  741000    253.91358    18002.661     2924.207    29.305441 0.0037197375  -0.04645185 0.0034184205 
  742000    261.10664    5194.9813     2924.207    29.663485 -0.024042787 -0.037698596 0.0026933755 
  743000    260.73627    10920.873     2924.207    28.691366 -0.0064139213 -0.017559407 -0.023552847 
  744000    279.76006    9556.3463     2924.207    27.960704 -0.059636212  0.033661061 -0.035596059 
  745000    279.75985     1576.403     2924.207    27.258547 0.00094908364  0.019678137 -0.020535845 
  746000    262.92732     12377.41     2924.207    25.700302  0.008428718  0.015401751  0.008172671 
  747000    266.58951    13238.291     2924.207    23.316047   0.02359317   0.02360945  0.015713071 
  748000    265.28585    1609.3173     2924.207    21.681313 -0.0055731324  0.025254493 -0.0018642942 
  749000    278.42588    10882.746     2924.207    25.025264  0.022324474  0.024777305 -0.048895794 
  750000    256.20563    9624.8718     2924.207     32.28383  0.018615137 0.00041096509 -0.015403244 
  751000    272.23574    4557.0419     2924.207    35.764088 -0.035906771 -0.00079466314 -0.0082095656 
  752000    259.37241    13412.459     2924.207    33.089145 -0.027024924 -0.014363854  0.017617213 
  753000    271.38415    4083.1791     2924.207    27.620221 -0.029448582  -0.01738522 -0.015362827 
  754000    241.27988    14995.615     2924.207    23.725716 -0.0086810892 -0.010891939 -0.021215328 
  755000    274.88495    6987.7318     2924.207    24.745561 -0.015404316 -0.027383328 -0.034429816 
  756000    272.54593    8361.2882     2924.207    28.432442 0.00019904379 -0.027550112 -0.041744568 
  757000    262.77098    13719.591     2924.207    32.404741  -0.01190567 -0.0085724845  0.017212186 
  758000     271.3727    9683.8401     2924.207    34.512549 -0.0021445778 -0.027514833 0.0078325597 
  759000    242.84538    11193.087     2924.207    34.571997 -0.002584959 -0.019851619  0.034859071 
  760000    279.57796    4819.3866     2924.207    33.544336 0.00093207358 -0.0050117765  0.016938045 
  761000    263.40909    7403.4005     2924.207    30.700656  0.022037064 0.0027969923  0.033217319 
  762000    267.99424    4313.5317     2924.207    27.095574   0.03363523 -0.021415098  0.024251672 
  763000    272.43748    3693.1079     2924.207    23.341886 0.00060964916  0.041999347 0.0053083864 
  764000    267.68833    6894.5101     2924.207    20.496071  0.016128362 -0.0063035513 -0.0046933732 
  765000    256.19296    10527.531     2924.207    19.103056 -0.044258252  -0.05005054  -0.01000713 
  766000    262.19227    9743.4384     2924.207    18.401418 -0.00068891462 -0.065481735 -0.013843494 
  767000    255.00121    10370.145     2924.207    18.090126 -0.012965165 -0.020753997 0.0013632432 
  768000      257.183    9687.3804     2924.207    17.435662 0.0071008598 -0.021703881  0.024532863 
  769000    275.51188     7066.654     2924.207    18.696971  0.001784152 0.0073031545  0.018071537 
  770000    259.10125    4544.3277     2924.207    21.878074  0.014905627 0.0027511901 0.0060410815 
  771000    271.07563    17696.473     2924.207     22.13076  0.025052361 0.0024098336  0.052090418 
  772000    274.01622    4844.9039     2924.207    24.619689  0.010375881  0.045128494  0.013728167 
  773000    274.78407     4613.248     2924.207    27.971969  0.011873348   0.01494345 -0.016117685 
  774000    262.42686    15856.303     2924.207    29.645354    0.0259256 -0.010229979  0.021050808 
  775000    283.72349    3040.3432     2924.207    30.249605 -0.017898734 0.0049752108   0.01035435 
  776000    258.83328    11744.053     2924.207    29.227279 -0.044563051 -0.018172774  0.022466441 
  777000    255.92179    10885.387     2924.207    27.768535 -0.021148449 0.0063847035  0.020625003 
  778000    273.53325    12349.433     2924.207    28.133861 0.0069891321 -0.020213847 0.0064622646 
  779000     263.9256    4864.5239     2924.207    30.284616 -0.016606677 0.0057649305 0.0031562128 
  780000    232.72694    4050.8326     2924.207    32.858771 0.0051600398 0.0049026601 -0.0050613141 
  781000    274.65256    15129.041     2924.207    35.292995 0.0085691254   0.01525115 -0.0069715617 
  782000    258.08466    8298.2858     2924.207    35.510679  -0.02213824 -0.023498915 0.0066485108 
  783000    281.73275    3770.4359     2924.207    33.798659  -0.02078056 -0.0043588536 0.0092809073 
  784000    279.27929    4814.5333     2924.207     30.97511 0.0011448088  0.029949911 -0.00085888888 
  785000    259.74669    10026.875     2924.207     28.50084 -0.028371383  0.047748377  0.039772996 
  786000    259.85194     2671.362     2924.207    28.916391  0.012603992 -0.014828987 0.0075436115 
  787000    263.96228    8798.0045     2924.207    30.102567 -0.013392297  -0.02352442 -0.024099454 
  788000    265.35407    10290.161     2924.207    31.225777  0.016103802 0.0046849613 -0.0043894233 
  789000    262.70052    5446.5598     2924.207    32.649435 -4.431171e-05 -0.017206837 -0.020207914 
  790000     287.6366    6979.8085     2924.207    33.650763  0.042604206 0.00078120429  0.032992095 
  791000    259.55052    8074.1844     2924.207    31.601879 -0.018724077 -0.023918095 -0.0084748219 
  792000    283.06027    8277.4886     2924.207    28.923557  -0.01370102  0.019200393  0.026679745 
  793000    272.44099    13846.769     2924.207    27.697952  0.001105024 -0.021342946 -0.052897129 
  794000    262.96743    7079.1277     2924.207    26.929421  0.018321827  0.010163615  0.016040662 
  795000    274.14049    10732.158     2924.207    28.540517 -0.016945139  0.026245478 -0.032733804 
  796000    259.60255    1938.2479     2924.207    30.751027 0.0010154062  0.017192019 -0.012939434 
  797000    248.03421     10085.86     2924.207    31.683512   0.02640807 -0.010719018  -0.01261674 
  798000    254.77422     10568.35     2924.207    33.329973 -0.0013569018 -0.0060103494 0.0039076833 
  799000    255.37247   -1021.6238     2924.207     34.40874 -0.0066460797 -0.020654346 -0.026758157 
  800000    272.43927    6617.8345     2924.207    33.386041  0.014762328 0.0010027856 0.00037613297 
  801000    280.57065    15720.966     2924.207    30.442314 -0.0047012356  0.021829258 -0.032070966 
  802000    279.10539    2408.8124     2924.207    26.809185 -0.0073678107 -0.028981049 -0.0074293236 
  803000    256.37078    4209.0593     2924.207    25.170255  -0.01425794 -0.017492793 -0.002947716 
  804000    273.41399    11903.959     2924.207    25.923532 0.0096994527 -0.045163982  0.010153783 
  805000    261.26348    8729.5917     2924.207    23.205513  0.003884737   -0.0305248 0.0029665999 
  806000    259.50174    1262.9523     2924.207    21.594363 -0.0015739051   -0.0241223 0.0039200687 
  807000    273.56722    9964.5399     2924.207     22.89879 -0.0052040896 -0.0089969791 -0.0074937123 
  808000    264.90778    11933.469     2924.207    25.818666  0.020102225 -0.0074102423 -0.043950987 
  809000    268.49897    3291.2069     2924.207    27.408496  0.022139685 -0.045057699 -0.0038491901 
  810000    252.47575      15115.8     2924.207     30.13965 -0.0057237294 -0.037048883 -0.019441643 
  811000    273.82437    6747.5448     2924.207    31.673373 0.0033930461 -0.029398996 -0.016949832 
  812000    262.40319    6168.6537     2924.207    32.474757 -0.0080719049 -0.022366434  0.021159623 
  813000    262.26391    12345.379     2924.207    32.400641 -0.029909749 -0.020589332   0.04135221 
  814000    265.21641    12534.761     2924.207    31.595841 -0.032953506  0.018488388  0.011662641 
  815000    260.33248    5418.9006     2924.207    28.812251   -0.0551606  0.032429713  0.023217817 
  816000    270.27127    9468.7267     2924.207    25.188288  0.024721227   0.01246033  0.032143923 
  817000    254.42998    13074.125     2924.207    23.148325 -0.022277529  0.029122601 -0.018903379 
  818000    239.99756    9654.1085     2924.207    23.935472  0.016695324  0.020654056 -0.010255895 
  819000    259.41915    2992.7354     2924.207    26.862194 -0.019717902 -0.041581255 -0.013512496 
  820000    264.57343    6400.6607     2924.207     28.28028  0.013867883  -0.02692048  0.008909737 
  821000     269.9637    11421.657     2924.207    29.765564  0.027566716  0.024907381 0.0058908742 
  822000    270.04083    1126.1294     2924.207    31.372321  0.029496412 0.0034000787  0.016909311 
  823000    283.75431    14390.091     2924.207    31.565155  0.043618497  0.024212491 0.00050290817 
  824000    276.93136    3472.9077     2924.207    31.538425  0.027599755 -0.0074844934 -0.013869129 
  825000    282.99556    1508.8391     2924.207    30.973348  0.013306388  -0.01001079  0.022561113 
  826000    288.66982    18203.398     2924.207    31.277641 -0.018024979   0.03723039   0.01875909 
  827000    263.99991    9309.0199     2924.207    31.754955 -0.031085519   0.01135009 0.0014112856 
  828000    258.68224    6851.8747     2924.207    32.570245  0.020842057 0.0039538779 -0.030770491 
  829000    239.99685    12529.148     2924.207      33.6384 -0.025428055 -0.035538999 -0.029667373 
  830000    279.83308    11171.729     2924.207    33.597844 -0.012050693 -0.0056475774 0.0016706204 
  831000    248.52697    6003.0387     2924.207    34.083554 -0.019154198   0.02477194 -0.011101992 
  832000    272.47033    10410.141     2924.207    33.925631 -0.0034703839 -0.017406164 -0.025099854 
  833000    245.48255    9442.1873     2924.207    34.279984 -0.003589207 0.0042231838  0.018839858 
  834000    279.01243    4943.0123     2924.207    32.983616 -0.0083391214 -0.0017960711 -0.042320883 
  835000    259.34015    13717.663     2924.207    30.174825 -0.00041764106 0.0075701735 -0.018876916 
  836000    246.80956    16262.999     2924.207    28.071906  -0.04133959 0.0061092936  0.014913604 
  837000    243.62193    5587.2572     2924.207    28.615563  0.011841012   0.00381401 -0.0092976652 
  838000    250.56638    15046.169     2924.207    30.284016   0.02169191 -0.0016624252 -0.024980347 
  839000     281.5314    10184.647     2924.207    30.685798 -0.011559737 -0.0028412044 -0.030927439 
  840000    273.76357    5216.4748     2924.207    31.210814  0.016821571   0.02569806 -0.0049331515 
  841000     256.9707     9813.189     2924.207     31.10243 -0.0055873731 -0.046412261  -0.01021281 
  842000    248.73545    7743.0909     2924.207    30.968107 0.0048975491 -0.00095227527  0.014002633 
  843000    263.00678    9874.2717     2924.207    31.360769  0.038218408 -0.0057885386 -0.0043642421 
  844000    273.93405    9011.4261     2924.207    31.621697 0.0097717661 -0.0060342475   0.02955407 
  845000    245.87166    9859.1791     2924.207    29.406522  0.024942447 -0.0078604572   0.01800853 
  846000    256.35501    10223.801     2924.207    25.417498  0.014712207  0.033086169 -0.023080467 
  847000     273.2973     2505.865     2924.207    24.288582  0.012860443 -0.0036475491 -0.029591794 
  848000    267.13613    10818.247     2924.207    23.258204 7.2175431e-05  0.013193763    0.0305759 
  849000    259.33198     15314.69     2924.207     25.84488 0.00089550212 -0.035260049  0.036896662 
  850000    289.84524   -760.50591     2924.207     27.33478  0.023747661  -0.02266779 -0.031261045 
  851000    268.07285    7124.1015     2924.207     27.67492 -0.010619938 -0.034023954  0.028443185 
  852000    260.34652    10898.958     2924.207    26.986858 -0.030294205 -0.011565064  0.022002824 
  853000    277.16868    4347.0886     2924.207    24.819978  0.004611502  0.016348286 0.0031744562 
  854000    273.50336    9762.1406     2924.207    21.485832  0.017913273  0.020157218  0.031926776 
  855000    262.60415    7404.7353     2924.207    19.639508  0.015348517  0.020615073 0.0090529574 
  856000    260.11631    2876.6369     2924.207    19.286276  0.022299609 0.0095881518 0.0011947988 
  857000    284.01501    8673.8984     2924.207    20.775388 -0.033114937  0.010417303 0.0054926425 
  858000    263.80219    10740.855     2924.207    25.275526 -0.029047882  0.014710189 -0.026558201 
  859000    263.02888    10384.932     2924.207    28.606065   0.01921674 -0.024092647 -0.030933564 
  860000    264.78708    10407.877     2924.207    31.112678 -0.0084082951 -0.011105675 -0.047441436 
  861000    273.08764   -642.08708     2924.207    33.326745  0.026225983  0.013575674  0.013951185 
  862000    253.63144    9721.0664     2924.207    33.510082  0.040015081 -0.019139253  0.016197216 
  863000     255.5634    14348.946     2924.207    34.354802  0.019835514 -0.009037629  0.054311964 
  864000    246.38081    5613.1528     2924.207    35.171734 0.0031593584  0.027686448  0.026840276 
  865000    250.78654    7891.9305     2924.207    35.300415 -0.032078474 -0.042094825 -0.014208609 
  866000    251.50088    12002.787     2924.207    35.355428  0.017174943 -0.013062347  0.021078251 
  867000     255.0921   -2668.2593     2924.207    33.869144 -0.0016883037 -0.036514089 -0.0033833747 
  868000    270.30785    12318.898     2924.207    30.298162 -0.027733948 -0.047592997 -0.016745554 
  869000    268.90365     13702.58     2924.207     27.94013 -0.0057864794 -0.017828941 -0.00052617815 
  870000    264.49639    8084.5753     2924.207    29.135696   0.02075864 -0.0061477883 -0.015086624 
  871000    265.20465    5830.0645     2924.207    30.820514 -0.020802652  0.050353781 -0.0082555539 
  872000    255.89485    14138.734     2924.207    32.697637 -0.0086676474 0.0042252165  0.023074929 
  873000    253.34819    9723.7294     2924.207    32.181593  0.017438037  0.022089128 -0.014116004 
  874000    258.39656    5558.8632     2924.207    30.474458  0.044735353   0.02525974  0.032098282 
  875000    265.69665    12527.441     2924.207      28.4269  0.046626254  0.028423218 -0.025373996 
  876000    262.92111    7969.5882     2924.207    25.105263 0.0075325208  -0.00376993 -0.035006089 
  877000    268.27085    7207.3318     2924.207    21.348111 -0.0091021579  0.015568025 -0.011445493 
  878000    255.72777     13017.88     2924.207    17.260231 -0.011749245 -0.0025512504 -0.0086882186 
  879000    262.32992     7533.926     2924.207    17.432364  0.012614563   0.00451751 -0.028308801 
  880000    247.11005    8962.1452     2924.207    17.219879  0.018550957 -0.0071425746 -0.039330101 
  881000    253.41963    11342.078     2924.207    18.653155 -0.0089073049  0.019554258 -0.043276943 
  882000    257.22568    3975.8635     2924.207    19.932102 -0.0045948776 0.0076296356  0.024627798 
  883000    274.96118    14673.297     2924.207    19.756073 -0.030511165 -0.032626597 0.0064958304 
  884000     266.9374    5902.6737     2924.207    21.236384 -0.0052559756  0.022479874 -0.0049824512 
  885000    266.26952    1978.1236     2924.207    22.473341   0.01390858 -0.0084364066 0.0063793386 
  886000    259.79519    10378.045     2924.207    24.388818  0.031206068 -0.036395156 -0.041117599 
  887000    267.58998    11147.865     2924.207    26.714397 -0.011269515 -0.015301875 -0.0029058117 
  888000    245.10964    10247.865     2924.207    29.047417 0.0047278152 0.0067617629  0.019579097 
  889000    264.53217    2745.6484     2924.207    30.648028  0.051600586 -0.0050190368 -0.0063633818 
  890000    265.46599     12903.94     2924.207    28.965819  0.016226589  0.025422985 -0.012588508 
  891000    263.50606     12118.76     2924.207    26.968296 -0.046908452  0.013721638 -0.011938639 
  892000    269.70193    3896.1871     2924.207    27.286265  0.024851737  -0.03828803  0.011655563 
  893000    269.45493     4963.506     2924.207    31.035704  -0.01824791 -0.011100554   0.01157191 
  894000    254.46831    7673.9023     2924.207    33.444181 -0.015858283 -0.028807189 0.0079086156 
  895000    278.94479    9964.3651     2924.207    33.185202 -0.017364964 -0.015226784 -0.010472661 
  896000    251.83047    3183.6435     2924.207    32.577697 -0.0065442523 -0.0057295838   0.03153017 
  897000    275.37084    11595.593     2924.207    31.290959  0.018112246 -0.015412042 -0.015344742 
  898000     275.6095    6867.5495     2924.207    29.479738  0.012164677 -0.033246074 -0.0092151323 
  899000    272.01817    11331.549     2924.207    26.610012 0.00060608717 -0.020959793  0.012052268 
  900000     264.7926    7326.4242     2924.207    23.336571 0.0091124829 -0.025958217   0.00271257 
  901000    260.09058    10505.726     2924.207     22.92495 -0.033023842 0.0072307123 0.00073929728 
  902000    265.94185     12831.19     2924.207     22.80098 0.0097433533 -0.017117697 -0.028700134 
  903000    280.89964     4517.979     2924.207    24.775999  0.002669289 0.0040950481 0.0023122105 
  904000    278.85393     7510.336     2924.207    27.811514  0.011482412  0.024023006 -0.027392498 
  905000    262.48355     2667.596     2924.207    28.769295  0.024587851  0.038108554 -0.024589623 
  906000    262.82358    16393.534     2924.207    30.262331  0.023847924 0.0033779695 -0.021622801 
  907000    254.50222    9262.4442     2924.207    31.188797 -0.021877887  0.015342719 -0.019838881 
  908000    251.85297    3824.6446     2924.207     30.78112  0.013200589 -0.0019756737 -0.026451903 
  909000     249.8125    5959.4976     2924.207    30.114769  0.013103837 -0.007216179  0.003867218 
  910000    253.18045     12829.22     2924.207    32.323625 -0.021532001 0.0078617398  0.017347588 
  911000    266.70947    12939.614     2924.207    34.246927 -0.025442869  0.034520967 0.0044517823 
  912000     271.3802    4199.7982     2924.207    35.516542  0.013824079  0.011289734 -0.014387926 
  913000     266.0476    9560.8074     2924.207    33.857996 0.0094372862 -0.012425564  0.032907957 
  914000    264.91402    13059.186     2924.207    32.643785 -0.039056054 -0.0007300888  -0.00140359 
  915000     268.8854    3778.7144     2924.207    31.506168 -0.011410008 0.0088836542 0.0099631527 
  916000    270.63815    6178.7697     2924.207     28.97597  0.026687704  0.014316395 -0.020394592 
  917000    258.81953    13584.193     2924.207    28.085434  -0.01058411   0.01542086 -0.020075546 
  918000    265.10028    6833.7258     2924.207    28.264828  -0.04413542   0.02512381 -0.0033553263 
  919000    262.52183     9107.929     2924.207     27.82809 0.0025162316 0.0076607331  -0.01799189 
  920000    251.39092    12810.289     2924.207    26.241029 -0.034839869  -0.02148803  0.019790111 
  921000    256.32794    4796.4875     2924.207    24.972941  0.018517431 -0.028101895 -0.004790961 
  922000    262.92462    6599.6223     2924.207    25.776822 -0.0077345565 0.0067062862 -0.026187198 
  923000    258.14494    15309.345     2924.207    29.181214 -0.020713375  0.010652428   0.00223553 
  924000    262.29895    7880.9692     2924.207    33.241523 0.0048297813  0.026552007 0.0075667177 
  925000    266.79572    5101.1096     2924.207    34.019001  0.016593748 -0.0079921884 -0.0013203429 
  926000    271.44456    6212.6997     2924.207    33.224731 -0.014705114 -0.0077393717 -0.013928255 
  927000    264.66326    9651.2155     2924.207    32.494906 0.0082265853 -0.020854856  0.010226835 
  928000    281.42101    13756.727     2924.207    29.844027 0.0023833148 -0.0073107804 0.00058800333 
  929000    267.37708    2916.1574     2924.207    28.749223 0.0015274578 -0.014915977 0.0026898572 
  930000    271.33284    6208.9263     2924.207    29.984299  0.021552395  0.019202727  0.036413432 
  931000    268.19247    8709.6458     2924.207    30.438945 0.00095398286  0.015653677 -0.008978472 
  932000    264.87925    8190.4593     2924.207    29.946577  0.015563839 0.0079220981  0.020010297 
  933000    265.06536    7287.4691     2924.207    28.877881  0.018779042  0.013294395  0.014537145 
  934000    278.45278    1673.6488     2924.207    27.127884 -0.0030520522 0.0043750076  0.013590796 
  935000    280.90484    9273.8894     2924.207    25.913907 -0.017760094 -0.013313692 -0.012510864 
  936000    266.20476     13153.28     2924.207    24.851556  0.016536984  -0.01731822 0.0073854834 
  937000    294.27266   -690.80494     2924.207    25.323344 -0.0087181052 0.0029671987 -0.0034391668 
  938000    254.63421    8745.4776     2924.207    29.589487 -0.002413459 -0.019474641 0.0053020998 
  939000    254.88457    13097.056     2924.207    32.304886   0.03974008 -0.026875251 -0.022331847 
  940000    265.45714    1977.0785     2924.207    31.458046  0.015810059   -0.0508709 -0.018582577 
  941000    274.53131    8907.2458     2924.207    27.109369 -0.016160993 -0.0023692153 0.0034324837 
  942000    257.15906    6191.8692     2924.207    23.943714 0.0049756311   -0.0136923  -0.02034337 
  943000     276.2145    5449.3084     2924.207     24.78643 0.0096987087  -0.03788157  0.026782835 
  944000    268.01462    8630.9535     2924.207    27.777791  0.010273672 -0.023990444 0.0021124552 
  945000     259.0185    7937.3982     2924.207    31.051831 -0.017919658 -0.027297127  0.007538158 
  946000    267.44017    13803.358     2924.207    31.026284  -0.01989107  0.023043912 -0.020449453 
  947000    258.68073    7190.8234     2924.207    28.778599  0.016237483 -0.0067156077 0.0067468442 
  948000    253.90449    8921.5045     2924.207    26.028795  0.017436865  -0.01374874 -0.021276904 
  949000    271.50801    5571.1234     2924.207    23.972015 -0.0092517492 0.0019176871  0.016998808 
  950000    264.29668    8788.4822     2924.207    23.619104  0.031157086  0.010142833  0.020764986 
  951000    255.58622    8264.3337     2924.207     26.72496  0.019355266 -0.0039101837  0.027690271 
  952000    253.62868    2642.9066     2924.207    29.721189 -0.015398975 0.0044670429 -0.023332798 
  953000    267.34036    14672.325     2924.207    29.505967 -0.019437233 -0.012879432 -0.026767726 
  954000    285.52282    6632.3479     2924.207    28.957974 -0.012237406  0.037147556  0.020023164 
  955000    261.97619    9581.6523     2924.207    28.463761  0.019675013  0.006713108 -0.031172864 
  956000    252.75436     15861.77     2924.207    27.650619  0.040028196  0.013837473  0.015474206 
  957000    249.61227    7514.3858     2924.207    28.181181  0.010589119 0.00074810965 0.0083016185 
  958000    270.70564    50.360175     2924.207    31.167388 0.0043498516 -0.0096311416 -0.025941028 
  959000      262.094    18683.843     2924.207    33.430958 -0.0021826577  0.025797904 -0.018626858 
  960000     256.1486    5299.4537     2924.207    31.701786 -0.0062713516  0.033370063  0.030427309 
  961000    263.87918    10054.254     2924.207    31.272201  0.010698826 -0.030671293  0.015946593 
  962000    278.40788    9928.9087     2924.207    32.276761  0.030157883 -0.018920307  0.010742774 
  963000    263.94229    5547.8872     2924.207     32.61345   0.02252821 0.0084626356  0.010371866 
  964000    289.11172    6431.7905     2924.207    31.030309  0.016364977  0.026260891 0.0075780444 
  965000    259.08307    8718.0162     2924.207    30.152896 0.0044872689 -0.035925515  0.015143892 
  966000    259.04042    11801.187     2924.207    28.656969  0.021281738 -0.058851375  -0.01206846 
  967000     261.6932    4577.1861     2924.207    27.030121  0.028444222 -0.034865746 0.0093596974 
  968000    261.44065    13541.358     2924.207    24.384329  0.018211851 -0.013965764 0.00052557533 
  969000    251.90472    9194.7687     2924.207    21.079829  0.013163245  0.016980376 -0.010387091 
  970000     261.2748    4905.1782     2924.207    20.144028 -0.014786664 -0.0092956746 -0.010757755 
  971000    269.83054    9357.4867     2924.207    19.589749 -0.031728533  0.065636043 -0.049466885 
  972000    279.89054    5199.7691     2924.207    19.052453 0.0050456479 -0.0075221624 -0.053106002 
  973000    264.61901    7377.9423     2924.207     19.65296 -0.0099638494 -0.0084981824 -0.015064617 
  974000    252.91758    7037.6467     2924.207    17.538411 -0.024661866 0.0046716336 -0.0087652267 
  975000    255.87444    7406.4591     2924.207    16.785264 0.0076282724 0.0091582833  0.016637762 
  976000    265.10464    14129.002     2924.207    15.799778  0.021882661 -0.035897189 0.0083198027 
  977000    265.77489    736.90651     2924.207    14.987398 -0.015152503  0.013095026 0.0042170829 
  978000    268.32295    8048.7693     2924.207    16.442093   0.01410138  -0.01719636  0.010766584 
  979000    269.63985    11669.717     2924.207     20.68852 -0.0083683877 -0.0078386559  0.017436068 
  980000    254.32223    3887.1551     2924.207    25.103649 -0.019197826 -0.027888978 0.0013864261 
  981000     253.9982    12407.436     2924.207    27.101734  -0.01156412 -0.056725245 -0.00099167029 
  982000    255.91822    10430.073     2924.207    27.379151  0.017093414  0.014917753  -0.03136886 
  983000    266.85116    5843.1738     2924.207    28.550853 0.0075008751  0.012032315 -0.042921456 
  984000    269.36347    8748.0733     2924.207    28.020245  -0.02058282  0.024746603  0.005484444 
  985000    256.92984    8428.8338     2924.207    28.084379  -0.03010359 -0.00074179233  0.012008883 
  986000    273.86553     8807.231     2924.207    29.775484  0.021739732 0.0079406376  0.013556704 
  987000    272.50454    2618.5694     2924.207    32.033936 -0.0022679755 -0.024215376  0.012648546 
  988000    262.57247    3962.5029     2924.207    34.005886  0.018308861 -0.026040676 0.0089247002 
  989000    256.92385    17261.395     2924.207    35.103607 -0.019966371 0.0062138476 0.0078145446 
  990000    259.78939    1841.2678     2924.207    34.807202 -0.016792328 -0.00018118636 0.0086062774 
  991000    253.36828    5419.4479     2924.207    33.310761 -0.023719468 -0.027815489 -0.0081089407 
  992000    270.18718    15276.749     2924.207    32.255873 -0.022464643 -0.015655791 -0.011503782 
  993000    243.82185     11561.53     2924.207    29.795369  0.003218373  0.037138694  0.043753312 
  994000     270.4591    529.39912     2924.207    27.114989 0.0037061888 -0.0056428934  0.012794518 
  995000    265.93458    8171.8146     2924.207    25.351155 -0.0097777937 -0.0008332228  0.010104946 
  996000    267.28111    19905.793     2924.207    25.658761  -0.01446192 -0.00055953486 -0.022470955 
  997000     261.3105    6324.5794     2924.207     28.40912 -0.0015435911 0.0085471854  0.013284797 
  998000    247.75246    1351.2758     2924.207    29.700163  0.012928612  0.014782191 -0.024013767 
  999000    260.59969    12677.024     2924.207    28.860909 -0.013508181 -0.0090861148   0.02710122 
 1000000    260.80023    8709.3366     2924.207     30.28704  0.018274808 -9.1021028e-05 -0.0074797642 
Loop time of 6832.51 on 2 procs for 1000000 steps with 240 atoms

Pair  time (%) = 6462.91 (94.5906)
Bond  time (%) = 0.300447 (0.00439731)
Neigh time (%) = 23.9158 (0.350029)
Comm  time (%) = 246.548 (3.60845)
Outpt time (%) = 0.455576 (0.00666776)
Other time (%) = 98.3779 (1.43985)

Nlocal:    120 ave 122 max 118 min
Histogram: 1 0 0 0 0 0 0 0 0 1
Nghost:    5076 ave 5080 max 5072 min
Histogram: 1 0 0 0 0 0 0 0 0 1
Neighs:    45586 ave 46179 max 44993 min
Histogram: 1 0 0 0 0 0 0 0 0 1
FullNghs:  91172 ave 92475 max 89869 min
Histogram: 1 0 0 0 0 0 0 0 0 1

Total # of neighbors = 182344
Ave neighs/atom = 759.767
Ave special neighs/atom = 0
Neighbor list builds = 5485
Dangerous builds = 0
#	run			10000
	unfix			1
	uncompute		myKE
	uncompute		myPE
	uncompute		myStress
	uncompute		flux
	uncompute		myDis
	unfix			JJ

	next seed
	next iseed
jump lmp.in.gk loop_seed
variable iseed loop 10
variable seed index 11111 22222 33333 44444 55555 66666 77777 88888 99999 11110
clear
###########################################################################
#x0
###########################################################################
units 			metal
atom_style		full
read_data		fort.26.nonbonded
  0 = max bonds/atom
  0 = max angles/atom
  0 = max dihedrals/atom
  triclinic box = (0 0 0) to (14.3 14.3 14.3) with tilt (0 0 0)
  1 by 1 by 2 MPI processor grid
  240 atoms
  0 bonds
  0 angles
  0 dihedrals
  0 = max # of 1-2 neighbors
  0 = max # of 1-3 neighbors
  0 = max # of 1-4 neighbors
  1 = max # of special neighbors
group         		C type = 1
60 atoms in group C
###########################################################################
#OLPS
###########################################################################

################################################################################
#### Pair potentials
################################################################################
pair_style hybrid/overlay tersoff lj/cut 12.0
pair_coeff * * tersoff C.4.tersoff 1 2 3 4
pair_coeff 1 2 lj/cut 0.0007000000 3.5500000000
pair_coeff 1 3 lj/cut 0.0007000000 3.5500000000
pair_coeff 1 4 lj/cut 0.0007000000 3.5500000000
pair_coeff 2 3 lj/cut 0.0007000000 3.5500000000
pair_coeff 2 4 lj/cut 0.0007000000 3.5500000000
pair_coeff 3 4 lj/cut 0.0007000000 3.5500000000
special_bonds lj 0.0 0.0 0.0 coul 0.0 0.0 0.0

#pair_style tersoff
#pair_coeff * * C.4.tersoff 1 2 3 4

#pair_style lj/cut 12.0
#pair_coeff 1 1 0.0700000000 3.5500000000
#special_bonds lj 0.0 0.0 0.0 coul 0.0 0.0 0.0
###########################################################################

#--------------------------------------------------------------------------
#variables
#--------------------------------------------------------------------------
variable   	dt 		equal 0.001
#--------------------------------------------------------------------------
#kappa parameters
#--------------------------------------------------------------------------
variable    	p 		equal 100000 	# correlation length
variable    	s 		equal 10  	# sample interval
variable    	d 		equal $p*$s 	# dump interval
variable    	d 		equal 100000*$s 	
variable    	d 		equal 100000*10 	

#--------------------------------------------------------------------------
variable 	T_run 		equal 300
#--------------------------------------------------------------------------

log 	log_heat_${iseed}.lammps
log 	log_heat_6.lammps
