	reset_timestep  	0
	fix 			1 all nve
	compute   		myKE all ke/atom
	compute   		myPE all pe/atom
	compute   		myStress all stress/atom virial
	compute   		flux all heat/flux myKE myPE myStress
	variable  		Jx equal c_flux[1]/vol
	variable  		Jy equal c_flux[2]/vol
	variable  		Jz equal c_flux[3]/vol
	fix       		JJ all ave/correlate $s $p $d c_flux[1] c_flux[2] c_flux[3] type auto file J0Jt_${iseed}.dat ave running
	fix       		JJ all ave/correlate 10 $p $d c_flux[1] c_flux[2] c_flux[3] type auto file J0Jt_${iseed}.dat ave running
	fix       		JJ all ave/correlate 10 100000 $d c_flux[1] c_flux[2] c_flux[3] type auto file J0Jt_${iseed}.dat ave running
	fix       		JJ all ave/correlate 10 100000 1000000 c_flux[1] c_flux[2] c_flux[3] type auto file J0Jt_${iseed}.dat ave running
	fix       		JJ all ave/correlate 10 100000 1000000 c_flux[1] c_flux[2] c_flux[3] type auto file J0Jt_4.dat ave running
	compute 		myDis all msd
	thermo_style 		custom step temp press vol c_myDis[4] v_Jx v_Jy v_Jz
	thermo			1000
	timestep		${dt}
	timestep		0.0010000000000000000208
	run			1000000
Memory usage per processor = 7.28915 Mbytes
Step Temp Press Volume myDis[4] Jx Jy Jz 
       0    260.48116    16258.542     2924.207 2.3829788e-30  0.022753683 -0.0058650352  -0.01452921 
    1000    277.34318    11749.824     2924.207    6.3962754 -0.0077945556  -0.01473207 -0.036800845 
    2000    264.60853    19100.202     2924.207    20.546935 -0.018965835 0.00025504477 -0.0030660645 
    3000    249.65588    11143.984     2924.207     29.70286  0.038396389 -0.0095314822  0.018957962 
    4000    257.28275    17507.712     2924.207    31.335322  0.029368528 -0.022779028 0.0045191344 
    5000    273.95297    10437.779     2924.207    31.377458 0.0047611275 -0.010160457  0.010683478 
    6000    282.28137    10182.319     2924.207    27.805845  -0.01248266 -0.037293433 -0.0054284658 
    7000    272.13344    12285.214     2924.207    23.312915  0.011849579 -0.019016012 -0.041464932 
    8000    281.54322    11605.611     2924.207    21.593822  -0.02160208 0.0069266145 0.0078871305 
    9000    280.51268    15507.399     2924.207    27.614436 -0.018744922  0.030739577 -0.014440093 
   10000    280.76005    10372.647     2924.207    35.408826 -0.034913542 -0.028846757  0.024727498 
   11000    279.97916     14648.82     2924.207    34.128292 -0.020797223 -0.013051788 -0.010856775 
   12000    264.02194    18029.037     2924.207    26.628734  0.022424206 -0.039638022 -0.009905613 
   13000    272.56439     9756.995     2924.207    22.447667  0.018604359 -0.028115807 0.0060594091 
   14000    277.46925    14179.953     2924.207    24.065047 -0.0041162274 0.00088180962 -0.024725404 
   15000    268.79828    14056.338     2924.207    28.638258 -0.0083420497 0.0069768739 -0.0092142027 
   16000    259.69679    15791.416     2924.207    31.615008  0.022000587 -0.019066299 -0.0026658376 
   17000    284.95897    12110.987     2924.207    32.316095 -0.023978205 0.00055692458 -0.0016303443 
   18000     259.3887    20534.036     2924.207    31.562462 -0.029204612 -0.034476613 -0.018878316 
   19000    262.38289    6299.4247     2924.207    32.393074 0.0090312988 0.0034989199  0.021201421 
   20000     304.1714    17281.317     2924.207    33.159224  0.037144358  0.011610323 -0.031603265 
   21000    268.78826    14373.491     2924.207     34.74115  0.022361215 -0.0084226088  0.006052117 
   22000    267.57251    20624.797     2924.207    35.124101 -0.044861691  0.025709119  0.012943272 
   23000    282.81418    12341.829     2924.207    35.002119 -0.0033959814 -0.0099607497 -0.029060344 
   24000     284.6471    15748.679     2924.207    35.009184 -0.030156285  0.026475235  0.032297721 
   25000    262.05556    8784.7104     2924.207    31.773255 -0.026761716 0.0006227973 -0.0024248983 
   26000    295.11958    19985.225     2924.207    28.104244  0.011366617  0.012983476 -0.0095695424 
   27000    281.19884    8358.1288     2924.207    28.343546  0.016429492 -0.022082001 0.0010977331 
   28000     301.1295    19157.775     2924.207    32.749435  0.028974027  0.030672751  0.030313157 
   29000    237.91597    20490.323     2924.207    33.211946 -0.020266217 0.0019381176  0.012185198 
   30000    277.53333    17904.423     2924.207    28.863447  -0.02737757  0.042847366  0.021916135 
   31000    286.74129     6794.403     2924.207    25.952135  0.019909367 -0.0052350274 -0.026850267 
   32000    244.82869     11552.88     2924.207    30.219417  0.012566684  0.020651272  0.015456035 
   33000    284.32127    11794.779     2924.207    31.905312 -0.017651459  0.027868902  0.003431733 
   34000    272.12009    15691.535     2924.207    28.832472 -0.0054983201  0.077276005  0.013738629 
   35000    290.12803    9657.9059     2924.207    28.484366 0.0041807002 -0.042527676  0.014981155 
   36000    279.59371    12863.148     2924.207    31.625421 -0.0052567095 0.0030058728  0.038433842 
   37000    269.87701    17539.392     2924.207    30.052928 -0.021008111 0.0074785337  0.029333865 
   38000    284.94839    10481.474     2924.207    24.806427  0.035830275  0.026300763  0.018123773 
   39000    289.80792    10849.553     2924.207    23.238531 -0.0066451736 -0.034335397  0.012195951 
   40000    259.19725    14628.829     2924.207    25.862343  0.037108357 -0.009857683  0.016663846 
   41000    281.34749    11163.255     2924.207    30.627184 -0.037129917 -0.0030019667  0.020352794 
   42000     267.2007    18441.962     2924.207    32.914213 0.0044576901 0.0092358183 -0.022352792 
   43000    294.86338    14116.915     2924.207    30.827317 -0.0040643198  0.035522022 -0.015602322 
   44000    274.12042     3619.775     2924.207    27.830477 0.0083196452  0.033214415 0.00034571919 
   45000    285.27379    11089.774     2924.207    26.482653  -0.01136973  0.023757495 -0.00011809498 
   46000    290.15026    8856.3903     2924.207    25.480716 -0.036738478 -0.0029108006  0.033565278 
   47000    278.24643    10753.322     2924.207    26.192722 -0.033088789 0.0078808237 -0.037544859 
   48000    272.23111    13935.368     2924.207    26.421218 0.0080295435 -0.00040332573  0.029011458 
   49000    296.93603    19062.434     2924.207    26.453663  0.031612446  0.044137488 0.0018402545 
   50000    298.22696    13961.455     2924.207    27.015013 0.0077326542  0.024683069  0.017647233 
   51000    279.66418    11278.161     2924.207    27.587221  0.023550315  0.036426159 -0.013695138 
   52000    289.71821    8043.0805     2924.207    28.189313 0.0045484766   0.02124133  0.017341045 
   53000    281.16931    17436.966     2924.207    31.055061 0.0066939143 -0.019470166  0.002393849 
   54000    275.12302    5978.6994     2924.207    32.632227 0.0095386267 -0.028182341  0.024893068 
   55000    270.06661    18096.044     2924.207    28.777532  0.032439825  0.017463638 -0.017108249 
   56000    298.08282    5857.7809     2924.207     21.10909  0.048452916  0.029575526 -0.0039091852 
   57000    257.19432    9524.4215     2924.207    18.638168 -0.017644521  0.013681654  0.011939368 
   58000    266.73131    20982.462     2924.207    24.568999   0.03148382 -0.022992521  0.028392359 
   59000    307.04399    8044.0058     2924.207     29.87947 -0.00038300548 -0.013295875 -0.013372333 
   60000    266.76191    17214.222     2924.207    29.630626 -0.017642558  0.019650912  0.027037345 
   61000    273.06712    17185.315     2924.207    28.964918   0.02914776  0.020878808 -0.0036608739 
   62000    270.49868    12656.493     2924.207    30.246933 0.0026326501  0.031072717 -0.022667658 
   63000    290.73149    20109.834     2924.207     28.45741  0.024336044 -0.0027900051  0.039809032 
   64000    277.66878    5291.4167     2924.207    24.664399 -0.011011811 -0.0087441867 -0.032004359 
   65000    279.78659    15015.567     2924.207    22.415901 0.0078081252 -0.0026859126 -0.018406393 
   66000    263.45969    19515.443     2924.207    26.149097 -0.012164982 0.0022698799 -0.011547475 
   67000    277.09034     9854.148     2924.207    31.280331  0.010434614  0.026881031 -0.048678594 
   68000    279.01879    7535.4343     2924.207    32.887965 -0.014078724  0.011343622 -0.019455902 
   69000    278.45855    15566.269     2924.207    28.319741  0.016281353  0.014310143 0.00098319245 
   70000     295.5846    9394.9486     2924.207    22.937166  0.013755902 -0.005269018  0.013249371 
   71000    300.21903    12042.159     2924.207    20.078562 -0.0016954369 0.0097131401 0.0097806041 
   72000    274.12448    7847.6422     2924.207    26.534096  0.034161166  0.049070741  0.052129193 
   73000    271.25772    11793.645     2924.207    32.471278 -0.0025395181  0.044106473  0.013928589 
   74000     279.3753    15474.295     2924.207    29.697703 -0.043009282 -0.0045534566   0.03925134 
   75000    273.63253    14624.668     2924.207    22.305195 0.00089224599 0.0057514497 -0.0017402375 
   76000    290.53755     11403.59     2924.207    20.582031 -0.026195939 -0.063507423  0.038020735 
   77000    295.61663    12684.078     2924.207    27.122331 -0.031670615  0.012512166 -0.00034947731 
   78000    259.37198    12299.046     2924.207    33.716418 0.0032533859  0.023525385 -0.0081374103 
   79000    273.93632    10180.887     2924.207    33.528931 -0.026025969  -0.02824291 0.00058161462 
   80000     276.2765    11144.403     2924.207    28.404653 -0.041055505 -0.014125079  0.011943605 
   81000    291.70587    14986.558     2924.207    22.882811 -0.031008324  0.018596939  0.017083063 
   82000    286.71725    5785.0286     2924.207     24.40952  0.025573955 0.0022782866 -0.013393454 
   83000    270.43018    17993.798     2924.207    29.408777  0.019965787 -0.002023856  0.018696218 
   84000    278.53082    4690.9268     2924.207    32.893854 -0.0052668894  0.018160671  -0.02608506 
   85000    293.35326    10707.139     2924.207     33.02394  0.033418933 -0.0096636696 -0.0067018497 
   86000    275.09764    16203.954     2924.207    27.487917 0.0054823429 -0.037393616 -0.040266494 
   87000    299.85029    8359.9688     2924.207    23.753518 0.00060330852 -0.0033158803 -0.021153694 
   88000    286.78254      12952.7     2924.207      25.0624 -0.024000589 -0.011240068 -0.0047674368 
   89000    295.61104    6166.1647     2924.207    30.323386  0.018780727 -0.023251311 0.0089765739 
   90000    274.04525     10124.28     2924.207    35.434107  0.013003508 -0.015750957 -0.004517617 
   91000      300.982    7668.3013     2924.207    32.903973  0.037485893   -0.0423568 -0.005690171 
   92000    283.52114     10401.25     2924.207    25.361576 0.0054887544  0.016974253 -0.031738892 
   93000    301.38829    9144.3593     2924.207    19.637665 0.00067988194 -0.040148938 -0.046006045 
   94000    263.38429    9943.6569     2924.207     20.35509 -0.0078927649 0.0019747923 -0.029708696 
   95000    302.93684    11366.661     2924.207    27.536893 -0.014822269  0.041899982 -0.0057404593 
   96000    274.29429    16340.957     2924.207    34.993884 -0.042157695  0.009431106 0.0080061316 
   97000    281.17142    1035.0846     2924.207    35.295943 -0.021022789 -0.024826949  0.047178839 
   98000    277.41748    19620.343     2924.207    28.465295    0.0093611 0.0011019592  0.007133764 
   99000    294.86193    3224.4284     2924.207     19.79555  0.020362851 0.0052541745  0.021934802 
  100000        279.8    16084.144     2924.207    15.205394 -0.0082861217 -0.048097622  0.017611151 
  101000    288.60031    5078.6761     2924.207    17.869715  0.010633489 -0.012664024  0.013662034 
  102000    293.37526    10650.202     2924.207    26.304493 -0.0023193425 -0.037948894 -0.0034917895 
  103000    298.00093    6748.2304     2924.207    33.032845 0.0072044258 -0.0058475967 0.0042396675 
  104000    287.39326    6959.5205     2924.207    29.879204 -0.0016348844 -0.021034211  0.038597727 
  105000    277.96783    7543.5478     2924.207    22.913323 -0.0098764131  0.030638161 -0.040451527 
  106000    295.99667    13449.719     2924.207    18.825734 -0.020912482  0.045604531 -0.015541712 
  107000    292.25265    8057.9637     2924.207    16.224284  0.020003531  0.044349989 0.0051518841 
  108000    305.06577    8946.1412     2924.207    12.684389 -0.012779334  -0.01485177 -0.016256121 
  109000    293.59837    6573.8242     2924.207    17.337899 -0.0093375587  -0.03835355  0.052009988 
  110000    277.55996    15103.168     2924.207    29.327785  -0.02255272  0.030147639  0.023888322 
  111000      280.078    3038.5227     2924.207    32.878625 -0.027054278    0.0195633 -0.016466544 
  112000    272.11011    17712.746     2924.207    23.937268  0.016908755 0.0037003938    0.0218532 
  113000    304.50238    8989.7595     2924.207    19.712245  0.043160668 -0.018571139  0.024447357 
  114000    278.50479    6200.0425     2924.207    21.460229  0.013821647  0.045050655 -0.0010333968 
  115000    266.08374    16503.711     2924.207    20.414624 -0.018859788 -0.0057693326 -0.010690061 
  116000    276.18354    18896.771     2924.207    18.578677  0.010533227  0.015813447    0.0112111 
  117000    294.46586   -1766.1643     2924.207    23.896138 -0.018036165  0.015097968   0.01899414 
  118000    271.04364    18352.431     2924.207    26.318382  0.013389806  0.029002922 -0.00038158259 
  119000    256.26577    9985.2073     2924.207    22.853833  0.022788565 -0.015804084 -0.016978463 
  120000    295.68394    14364.849     2924.207    18.393111 0.0013324576 -0.0094649331  0.002386257 
  121000    288.22209    363.22534     2924.207    17.349287 -0.0019550866 -0.0042820466  -0.01494643 
  122000    288.49214    14762.452     2924.207    25.523144  0.012467043  0.028796787 0.0064148106 
  123000    287.21738     10272.47     2924.207    32.154459 -0.0045239797  0.015785796 -0.0042820212 
  124000    285.52165    13021.482     2924.207    30.988096 0.0086611408 0.0088735417 -0.0068838727 
  125000    265.85428    6742.9842     2924.207    26.233409 -0.028944545 -0.0081698529  0.016778643 
  126000     269.3395    9658.4186     2924.207     23.91007 0.0020015747 -0.013443305 -0.028251874 
  127000    269.55759     14049.36     2924.207    23.443746 -0.032704619  0.003243559  0.011547205 
  128000    272.90417    13244.302     2924.207    24.156869  0.030256926  0.011814967  0.020244533 
  129000    277.87865    9591.5383     2924.207    28.717664  0.021848603  0.025671769 -0.0063978509 
  130000    262.31655    12175.613     2924.207     32.25576  0.048041418 -0.0033040727   -0.0072977 
  131000    263.98541    20983.248     2924.207    34.525412 -0.010449309  0.003819826 -0.039664654 
  132000     272.1847    14793.684     2924.207    33.980155 -0.018159871  -0.01394184  0.032483066 
  133000     282.1878      5988.67     2924.207    31.650187  0.010194199  0.019418417  -0.01180989 
  134000    263.16417    10524.279     2924.207    30.378438  0.067665249  0.037988307  0.030967479 
  135000    265.49475    20664.048     2924.207    29.456323  0.020999684 -0.020474478  0.014389717 
  136000    269.12858    3831.3077     2924.207    26.226169 0.0073381078 -0.0012271148 -0.0094668053 
  137000    276.68806    14929.675     2924.207     27.88459 -0.0097038881  0.039950425  0.016713447 
  138000    263.62539    14252.412     2924.207    32.910285  0.015979277 0.0055319482 -0.025429596 
  139000    280.95807     12604.04     2924.207    34.860555 -0.012304269 -0.0063497688   0.05545162 
  140000    245.41417     11307.79     2924.207    34.784399   0.00928684 -0.023770501 0.00098345214 
  141000    274.51962    13623.195     2924.207    32.113005 -0.013631178   0.03865598 -0.007102627 
  142000    264.34288    11166.565     2924.207    28.013082 -2.6339783e-05 0.0091307473 -0.0018185317 
  143000    272.72849    5476.9538     2924.207    25.715522  0.019418673  0.017455857 0.0030002473 
  144000    277.09306    17674.004     2924.207    26.259294  0.017226005 0.00013700979   0.01894318 
  145000    254.75727    16313.199     2924.207    28.452317  -0.01554661 -0.023787198  0.009907085 
  146000    269.19972    11957.397     2924.207    29.510426 -0.021061905  0.018515992  0.039968225 
  147000    273.00222    9550.8975     2924.207    30.804086 0.0031923281 -0.025014789 0.0072005438 
  148000    268.43019    7506.8038     2924.207    30.359963 -0.0029744272 0.0066699335  0.004057104 
  149000    277.92587     9010.502     2924.207    27.811542  0.024054315 -0.0054071129 -0.0021681925 
  150000     263.2543    17718.513     2924.207    23.937318 0.0099409107 0.0045391443 -0.017690774 
  151000    260.07678    8956.9633     2924.207    19.585885 -0.021532535  -0.03011772 -0.0093206299 
  152000    280.53417    9995.8212     2924.207     17.79254  0.009855328 -0.034500501 -0.0028625017 
  153000    277.98337    13797.337     2924.207    20.367344 -0.0011984766 -0.0086382021 -0.019753657 
  154000    275.11003    12490.313     2924.207    21.858915 0.0086581618 -0.029063133 -0.032395809 
  155000    263.37114    12563.517     2924.207    22.847306 -0.010339786  0.057118289  0.016080205 
  156000    281.92012    7935.6026     2924.207    26.383681 -0.012521697  0.015735664  0.054143752 
  157000    279.78853    13476.271     2924.207    26.894976 -0.011031372 -0.046694798 -0.0040972336 
  158000     258.6096    10485.882     2924.207    26.174584 -0.005088097 -0.036815985 -0.00078352293 
  159000    247.83764    16611.887     2924.207    24.003229 -0.0032436083 -0.048607746 0.0066665695 
  160000    279.41143    11355.364     2924.207    24.523085  0.013800942 -0.0093232385 0.0091446878 
  161000    248.91439     11487.09     2924.207    28.542973 -0.012312011 0.0066370042 -0.023914674 
  162000     272.6698    17838.315     2924.207    31.864586 -0.011860051  0.033091643  -0.04420025 
  163000    262.58276    8037.6557     2924.207    32.609671 -0.0089744167  -0.01240777 -0.027908698 
  164000    289.46199     9885.163     2924.207    33.438798 0.0095566848  0.029131342 -0.0062836355 
  165000    259.71382    12564.549     2924.207    31.394652  0.008331678  0.020437204  0.016021112 
  166000    270.26676    9700.1658     2924.207     27.67929 -0.018401168 -0.0078848002 -0.0049649311 
  167000     297.1726    11778.145     2924.207    24.300464     0.012854 -0.030054805  0.014278867 
  168000    256.97574      13732.6     2924.207    23.170611 -0.0044760638 -0.018486763 -0.0028105173 
  169000    258.71526    11974.089     2924.207    22.209552 -0.0028647519 -0.030001935 -0.0095286455 
  170000    289.76043     15067.25     2924.207    23.152875 0.0097656197   0.01568921 -0.015979518 
  171000    272.62306    9431.7449     2924.207    25.845881 -0.026600364 -0.035300512 -0.0081256285 
  172000    270.74302    14529.726     2924.207    28.763204 -0.028391932 -0.036244943 -0.0096692091 
  173000    266.19047    17983.695     2924.207     28.43065 -0.010950335    0.0123646 -0.028411279 
  174000    284.01875    5591.9903     2924.207    26.333042 4.0915468e-05 -0.0073489018 0.0044948978 
  175000    285.24323    8328.8475     2924.207    24.151381 -0.013494802 -0.026604919 0.0050524991 
  176000    244.16737    11332.858     2924.207     20.89688 -0.0033515372 -0.015294811 -0.024273641 
  177000    264.15627    12600.713     2924.207    21.354313 -0.0018506041 -0.0069987544 -0.034444608 
  178000    267.91858    10662.728     2924.207    24.073303  0.033365503  0.017841719  0.024434334 
  179000    264.66155    13600.717     2924.207    25.611282 -0.042195172 -0.0031833385 0.0069846599 
  180000    263.57806    6901.6269     2924.207    25.294026 0.0065252537 -0.0045432649 -0.00092160515 
  181000    294.34031    15249.484     2924.207    25.247152  0.011628177  0.012757955   0.02755819 
  182000    275.08568    5519.6355     2924.207    28.521153 -0.0062222027  -0.01046533 0.0054277775 
  183000    262.52136     9134.037     2924.207    30.191973 -0.00076471359  0.014962779 0.0015720882 
  184000    285.12205    9668.2421     2924.207    28.542536  0.012571424 -0.020192447  0.017839658 
  185000    285.27876    7653.7594     2924.207    25.959133   0.00682019 -0.035158447 -0.031948343 
  186000    277.22459    12686.116     2924.207    27.481404 -0.0065144447 0.0022325852  0.020985559 
  187000    284.76815     13034.29     2924.207    30.704502  0.034242432   -0.0316502 -0.021514502 
  188000    265.43172    519.79368     2924.207     34.19349 -0.021956544  -0.02917712  0.027690388 
  189000    272.43798    14680.999     2924.207    33.817069 -0.0084305804  0.015214051  -0.01341053 
  190000    276.88238    14080.944     2924.207    31.525657  0.029572787 -0.0082021044  0.025163838 
  191000    280.62269    11990.068     2924.207    28.727156   0.01411855  0.026990944 -0.0034723978 
  192000    269.26486    16733.883     2924.207    24.707487   0.01495775 -0.0010592102  0.044687636 
  193000    276.87684    9664.3197     2924.207    25.815606 -0.0082910983  0.036678479 -0.00076995192 
  194000    281.93706    10236.154     2924.207    29.090263  0.019520918 -0.041094396 -0.0057956184 
  195000     264.7387    4765.6685     2924.207    29.974429  0.035547826 -0.013515853  0.037146006 
  196000    278.80663    9428.7421     2924.207    31.439685  0.043538968 -0.013574145 -0.026250671 
  197000    270.15642    13425.402     2924.207    31.763917  0.042834428 0.00029264255 0.0018702661 
  198000    267.82288    9305.2064     2924.207       28.221 -0.026928977 0.0077028581 0.00094992152 
  199000    282.87143    5473.2337     2924.207    26.435064 -0.017998779  0.017937925  0.020083067 
  200000    276.49093    12972.656     2924.207    27.909998  -0.01845071 -0.013748143  0.026853187 
  201000    277.45575    15022.022     2924.207    27.162372 -0.031310919  0.010249039  0.011652271 
  202000    281.27162    5559.9501     2924.207    22.829402 -0.010375343   0.03344265  0.024979483 
  203000     253.1805    15673.834     2924.207     18.32516 -0.0073611992  0.015746183 -0.0058155036 
  204000     279.8504    6856.0543     2924.207    19.925593 -0.028347052 0.0015229964  0.008868236 
  205000    279.91575    11341.674     2924.207    23.961242  0.015167128  0.017571235 -0.015722589 
  206000    270.30768    16392.688     2924.207    28.398137  0.020322233  0.034051248  0.002648203 
  207000    260.44456    7426.5515     2924.207    31.289875  0.060207262  0.038546047  0.016283046 
  208000    275.07416    13197.184     2924.207    31.273652  0.007965471  0.060986949 -0.011926691 
  209000    264.54018    12706.193     2924.207    30.540649 -0.010155115 -0.0045557394 0.0075671375 
  210000    268.80434    7094.7503     2924.207    30.563389 -0.014430117 0.0078542253 -0.036170434 
  211000    256.86037    12318.256     2924.207    28.131484  -0.04659413  0.063315429 -0.046305473 
  212000    256.50468    14170.258     2924.207    26.599183 -0.00037964337  0.016515366 -0.021513503 
  213000    279.42462    3587.0395     2924.207    27.144799 -0.035861838   0.03955338  0.032739201 
  214000     253.8614    19292.305     2924.207    29.831374  0.011727681  0.014133683  0.022499603 
  215000    274.34583    8776.7934     2924.207    33.383401 -0.034547862  0.018505921  0.022780639 
  216000    273.75407    13525.394     2924.207    33.639353   0.01307273 -0.019629138 -0.013752533 
  217000    275.31473    6860.7419     2924.207    31.595636 -0.020698427 0.0063450912 0.0084346711 
  218000    273.70569    9285.7969     2924.207    29.403221 -0.00085198406 -0.034371855 -0.0031524231 
  219000    264.92191    17008.108     2924.207    30.056331  0.025945079 -0.013895094 -0.023919028 
  220000     265.7472    15571.727     2924.207    29.146909 -0.037802459 -0.017884704 -0.019103085 
  221000    276.96517    16689.326     2924.207    26.926926  0.029041031  0.019079945 -0.058447235 
  222000    263.21528    11587.945     2924.207    23.171399  0.015502881 -0.022469941  0.019116707 
  223000    299.65932    6916.2519     2924.207    22.164217 -0.0033184817 0.00059878326 0.0014648558 
  224000    263.04128    9383.9264     2924.207    27.037079  0.019922156 0.0027157768  0.018741918 
  225000    283.35295    17967.303     2924.207    29.214525 -0.011327381 -0.027069063  0.023683167 
  226000    259.28427   -232.72965     2924.207    29.904699  0.023928242 -0.011413492 0.0011086561 
  227000    275.00375    15660.189     2924.207    29.807095  0.020367224 0.0083532053 0.0028560326 
  228000    281.34539    6058.7326     2924.207    29.975751  0.005059625 -0.014146241  0.044852788 
  229000    287.67076    12755.986     2924.207    28.766768   0.01802933 -0.014952054  0.013778291 
  230000    266.80551    12476.066     2924.207    25.934257 -0.021328124 -0.025749132 0.0069419277 
  231000    279.34853    6699.9039     2924.207    22.369484 -0.0084076063   0.01722415  0.017021169 
  232000    264.19687    14166.863     2924.207    23.500781 0.0048324329 -0.0024155959  0.011192769 
  233000    287.99439    8096.1647     2924.207    26.444122 -0.013129863 0.0098962504 -0.020010603 
  234000    260.39643    11492.332     2924.207    26.728805 -0.027439218 0.0020996127 0.0088623745 
  235000    286.01048    14190.198     2924.207    26.393399  0.039173722 -0.0034079525  0.023238342 
  236000    266.37112    11362.333     2924.207    26.562897 -0.013332777 -0.0070384681 0.0089734447 
  237000    271.97101     6583.233     2924.207    26.885988 -0.014111195 -0.016059538 -0.022287595 
  238000    282.95642    10524.874     2924.207    24.693392  0.012896644  0.016683634  0.016171421 
  239000    274.79505    13941.769     2924.207    22.321853  0.017254695  0.024770702 -0.013891718 
  240000    286.52891    11013.831     2924.207    18.815218  0.028503852 -0.016767754 -0.0013162387 
  241000    282.68122    15311.813     2924.207     18.91639 -0.0032109648 -0.0061525938   0.02018777 
  242000     286.9066     4794.252     2924.207      22.6247 -0.050131824 0.0045194522 -0.045007225 
  243000    257.45475    13998.948     2924.207    27.328783  0.020066438 -0.023951436 -0.012911252 
  244000    282.01254    9985.7858     2924.207    31.970865  0.012450197  -0.01132009 -0.023364969 
  245000    259.22994    6767.4161     2924.207    33.264694 -0.027182632  0.028458418 -0.0001832939 
  246000    266.76642     12884.24     2924.207    30.809942  0.043383846  0.034653236 0.0026972467 
  247000    247.94123      14235.9     2924.207    28.491528 0.0018429376  0.013862972 -0.0001860205 
  248000     286.0631    13433.008     2924.207    29.515346 0.0036967406 -0.021910545 -0.0057868217 
  249000    301.68409    3767.0566     2924.207    31.557146 -0.014536896 -0.032842315  0.021119836 
  250000    257.28199    7607.7829     2924.207    32.659236 0.0081815089 -0.0095374642  -0.02551308 
  251000     266.2754    19400.428     2924.207      31.0074  0.019162146 -0.021165493  0.052037405 
  252000    262.36457    7919.0101     2924.207    26.601059  0.032401849  -0.05025664  0.008784377 
  253000    269.08221    8568.7419     2924.207    23.121571  0.038941878 -0.0063969924 -0.031896585 
  254000    283.13022    12311.581     2924.207    22.409082 0.0069430976 -0.0070107197  0.016065451 
  255000    269.25115    13488.147     2924.207    25.633752  0.024890099  -0.04216807 -0.016717367 
  256000    290.09578    8572.4339     2924.207    28.553825  0.014434771 -0.026117089 -0.0010117866 
  257000    264.79912    1852.2493     2924.207     30.10813 -0.028164593 -0.011916557 -0.011662482 
  258000    285.55816    17972.704     2924.207    29.072753 0.0087900304 -0.023458126 0.0009631246 
  259000     287.1275    10502.573     2924.207    27.337441  0.017778061 -0.012096573  0.020666635 
  260000    272.87954    6799.3001     2924.207    26.255499 0.0045793053 -0.004334209 -0.010119892 
  261000    274.31052    12373.986     2924.207    26.606078  0.021600574 -0.0075269797 -0.020010375 
  262000    277.02847    3239.2038     2924.207    27.788913 -0.025239945  0.013867375 -0.024850659 
  263000    275.21742    10972.058     2924.207    26.543065 -0.0045394003  0.036178685 -0.0061727965 
  264000    275.48468    3958.7535     2924.207    23.996164 -0.00021708265 -0.010653957 -0.029811038 
  265000    261.48148     13399.11     2924.207    24.010052  0.020235536 -0.035077663  0.030961663 
  266000    281.49527    9591.6075     2924.207    27.739296   0.03163727 -0.013850168 -0.0027876782 
  267000    258.58069    12522.704     2924.207    29.786567 0.0055464605 0.0047599574   0.01979433 
  268000    277.53639    11248.706     2924.207    30.699161   0.01513668 0.0048655289 0.0038621146 
  269000    264.57446    10133.587     2924.207    33.227586  0.011561961  0.012085849 -0.00069933255 
  270000     269.7174    8105.5142     2924.207    35.752179  -0.01454474  0.028701178   0.01102402 
  271000    281.66423    10646.027     2924.207    35.849186 -0.018218681 -0.045473508 -0.024151511 
  272000    267.84482    7207.4916     2924.207     34.80275  0.015417397 0.0067840186 0.0046531215 
  273000    255.51944    12659.572     2924.207    32.999704 0.0026709789 -0.018894089 -0.0047138291 
  274000    265.93543    13708.963     2924.207    30.335975 0.0001361162 -0.019870138 -0.021635549 
  275000    269.22845    14401.567     2924.207    27.720454  0.026889628 -0.012234473 -0.035321943 
  276000    286.68906   -430.27783     2924.207    26.071405  0.023086708 0.0037556867 0.0086203837 
  277000    261.46036    15712.571     2924.207    26.840279 0.0015776993  0.020934882  0.010938746 
  278000    273.08522      5216.07     2924.207    28.470741 -0.023765747  0.021767798  0.017817123 
  279000    292.66166    6943.6268     2924.207    31.278387 -0.0080093774 -0.033924345  0.016190785 
  280000     260.7016    16755.738     2924.207    32.910013 -0.011171764 0.0087993485  0.009955816 
  281000    266.29853    9835.0206     2924.207    31.753181 0.0067720984 0.0051891862  0.011789828 
  282000      277.437    11132.102     2924.207    26.707457 0.00063042096 -0.019035262  0.024174923 
  283000    264.66076    7644.2857     2924.207     22.10738 -0.017015927 -0.0050385422  0.013638535 
  284000    259.00478    10876.927     2924.207    22.560326 0.0079701549 -0.0034567007  0.028864442 
  285000    264.85206    3542.1297     2924.207    26.947662 -0.059688924  0.041287122 -0.0094004539 
  286000    259.21783    18318.877     2924.207    30.387277 -0.033900804    -0.035291 -0.040558793 
  287000    271.93236    11449.445     2924.207    30.758501  0.010235966  0.010321773 -0.014241334 
  288000    276.67622    15359.344     2924.207    30.545458 -0.0047688673 -0.0093828129  0.025578333 
  289000    263.87976    9323.6418     2924.207    32.082751 -0.0032987021 -0.020384252  0.028015697 
  290000    242.62689    6324.3903     2924.207    34.573836 0.0010186817 -0.015938408 -0.019336816 
  291000    282.80709    12610.007     2924.207    34.363162  0.009869967 -0.0022588291 -0.024388706 
  292000     281.9037    7453.9841     2924.207    33.461573 -0.011055761 -0.012222078  0.021437894 
  293000    255.11201    15935.059     2924.207     31.02038 -0.011079854  0.011413591  0.022836732 
  294000    273.95324    4061.6912     2924.207    29.362406 -0.026088476 -0.0035601114  0.023505317 
  295000    252.95746    10565.975     2924.207    30.379408 -0.0050749263 -0.023000798 0.0079188622 
  296000    270.71547    9170.2247     2924.207     30.16663 -0.0078358472 -0.018460199 0.0036401136 
  297000    272.22483    6541.6105     2924.207    30.737803  0.020968972 -0.0057944209  0.033284025 
  298000    258.25225    17598.116     2924.207    33.355232 -0.0057854586 -0.0094836024  0.020825335 
  299000    273.18136    11994.979     2924.207    34.887518   0.02426358  0.035157263  0.019809334 
  300000    284.33846    3823.6779     2924.207    34.642442  0.013188036 -0.0021807554 -0.003514211 
  301000    255.11213    10714.469     2924.207    33.746128  0.017838112 -0.013628063 -0.022277225 
  302000    263.01674    10551.087     2924.207    32.451184  0.016397685 -0.023820787  0.016892404 
  303000    267.79685    7992.2775     2924.207    31.651225 -0.0094638778 -0.0072311098  -0.02789869 
  304000    273.95595    9896.3815     2924.207    31.391771   0.01783879 -0.015304918 -0.0094595703 
  305000    266.74824     11595.18     2924.207    30.107207 -0.017578723 0.0052571719  0.021364705 
  306000    250.97016    17381.179     2924.207    28.767303 -0.017381271  0.032851896  0.032794878 
  307000    262.80874     19.13903     2924.207    28.080306 -0.0017634595 -0.026097955 -0.015836347 
  308000     259.1325    17636.422     2924.207    27.250983 -0.0064667909  0.015359362  0.031492114 
  309000    262.37075    8060.6099     2924.207    24.639807 -0.0054606782 -0.0085660675  0.019549524 
  310000    269.49982    10552.559     2924.207    22.857931 -0.022533107 -0.017452524 -0.017219186 
  311000    261.78758    17174.597     2924.207    23.058148 -0.041037136  0.012681562  0.011144617 
  312000    263.04725    2929.1376     2924.207     23.62003  0.021522549 -0.0075715618 -0.021631047 
  313000    275.05582    17419.035     2924.207    27.062984 -0.018630722  0.012992441 -0.044211851 
  314000    263.52008    11651.155     2924.207      27.9719 0.0077770987  0.011370553 -0.012664823 
  315000    272.54775    8589.8565     2924.207    28.208498 -0.022123634 -0.012747645  0.035040914 
  316000    283.59478    17099.716     2924.207    28.570513  0.019030406 0.0076735662  0.043205959 
  317000    245.87798    8383.7069     2924.207    29.272052 -0.027905974 -0.015824328  0.013883508 
  318000    261.29474    10139.193     2924.207    29.425762 -0.0061456954 -0.0092366303 -0.017549016 
  319000    266.43121    11577.748     2924.207    29.931661 -0.019432245  0.019729908 -0.062810166 
  320000    259.03954    8210.3149     2924.207    31.058737  0.030681464 -0.041021767 0.0022982542 
  321000    276.25029    7684.0823     2924.207    30.412028 0.0021480564 -0.027112277 -0.020069161 
  322000    264.87803    13045.394     2924.207    30.952302   0.02587365 -0.0059471771  0.040704307 
  323000    272.79239    20071.322     2924.207    29.907966 0.00076344382 -0.012788242 0.0083491231 
  324000    271.95236    3549.3836     2924.207      30.0056 -0.0042660092 -0.015375832 -0.034970656 
  325000    244.20024     11825.03     2924.207    29.014786 -0.013835003  -0.04930865 0.0096502673 
  326000    279.45268    15164.024     2924.207    27.962552  0.038461552 0.0019129854  0.010129906 
  327000    270.13088    3118.7012     2924.207    27.745564 -0.023677839  0.029958998 -0.026171386 
  328000    269.19222    11262.262     2924.207    25.650922 0.0011722527 -0.025316329 -0.023689299 
  329000    266.18474    10743.329     2924.207    25.456675 -0.0054478517  0.037879438 -0.027341699 
  330000    279.53268    8196.5793     2924.207    25.345108 -0.019668369   0.03369982 0.0011728155 
  331000    249.66087    14955.177     2924.207    27.798117   0.01925925 -0.0022792689 -0.013452106 
  332000    296.73068    10492.745     2924.207     32.10383  0.042244589 -0.013283945  0.021740459 
  333000    264.69878    5826.5611     2924.207    34.862514 -0.0075650698 0.0032960388 -0.010499273 
  334000    263.07625    11763.898     2924.207    33.130151 0.0042202404  0.024769194 -0.028044201 
  335000    254.69951    13293.346     2924.207    28.119577 0.0073319478 -0.018587164 -0.0013027953 
  336000    286.42887    9090.1485     2924.207    25.026858  0.033395168 -0.0086433121  0.011720556 
  337000    276.76764    2836.2555     2924.207    22.370145 -0.032585647 -0.00021387829 -0.011862765 
  338000    245.15908    16012.414     2924.207    23.355597 -0.014232483   0.01470315  0.030676238 
  339000    287.80298    16157.241     2924.207    24.430866  0.003585375 -0.021106838 -0.0096666745 
  340000    266.88556   -193.76757     2924.207      25.2479  0.023124458 -0.011812458 -0.009989096 
  341000    285.49203    16022.488     2924.207    25.525888 0.0022070414 -0.025769811  0.024851218 
  342000     284.4144    8147.0718     2924.207    26.183414 -0.030621417 -0.043246983  0.027284108 
  343000    282.64626    7388.5791     2924.207    25.344383  -0.01161723 -0.0064058327  0.011302241 
  344000    291.22207     14945.49     2924.207    27.853814  0.027737566 -0.017783895 -0.026258834 
  345000    266.06065    3749.2201     2924.207    31.518297  0.014137791 -0.018608751 -0.020029172 
  346000    264.80016    6698.6967     2924.207    33.969439 -0.023928697 -0.044915533  0.027489402 
  347000    275.90591    16346.531     2924.207    33.903014   0.01132959  0.050398492  0.036253748 
  348000    256.59568     7026.869     2924.207    31.996427  0.003948318  0.024365386   -0.0163262 
  349000    243.32273    12768.211     2924.207    29.023487 0.0039817414  0.018273669 -0.0074371529 
  350000    274.97187    8390.1797     2924.207    30.756704 -0.0096164495 0.0043598151  0.012352396 
  351000    273.88085    14363.624     2924.207    32.557694 -0.021705367 0.00040418921 0.0037729404 
  352000    269.78305    6450.9153     2924.207    31.715409    0.0289816 -0.0083065004 -0.0052647865 
  353000    271.90916    5688.7875     2924.207    27.987593  0.060781917 -0.034376153 -0.017949647 
  354000    275.90993    12250.935     2924.207     22.04459 -0.0094432796 0.0059291246  0.031071746 
  355000    245.54776      5886.94     2924.207    18.064417  0.023858075 0.0027300201 -0.0053932622 
  356000    276.75296    13400.406     2924.207    15.547175 0.0050304208 0.0061119831 -0.027895181 
  357000    258.38415    18072.733     2924.207    16.670599 -0.028940941  0.021815806 -0.0068137121 
  358000    260.76142    1963.2498     2924.207    20.868117 0.0014289295 0.0014618956 -0.047604703 
  359000    240.67124    15930.498     2924.207    23.983376 -0.027989862  0.006889686 -0.029851191 
  360000    260.52576    6692.8545     2924.207    26.680287 -0.017313448 0.0051419271  0.023236264 
  361000    274.83083    9670.8363     2924.207    25.005612  0.031954057 -0.00083893545 -0.013592294 
  362000    274.71216    9263.5375     2924.207    21.690393 0.0021981041 -0.054071006  0.019943515 
  363000    249.15647    12779.116     2924.207    20.644141  0.035144627 -0.0067811134 -0.018723562 
  364000    264.12335    7647.1014     2924.207    19.286036 0.0057168412  0.010323318  0.039083763 
  365000    273.10663    10982.017     2924.207    21.067987 0.0039622622   -0.0101188 -0.068555289 
  366000    259.30207    7704.4303     2924.207    24.867816 -0.013492575  -0.02153264 0.0081062071 
  367000    263.37127    14503.109     2924.207    29.730283  -0.03381547 0.0066900941 -0.011669269 
  368000    257.69569    16270.736     2924.207    34.581599 -0.040998314  0.029513487 0.0068079892 
  369000    276.37871    3748.3093     2924.207    33.695069  0.029702895 -0.0087379872 -0.022354539 
  370000    262.93058    10078.634     2924.207     30.59748 -0.012759653 -0.025498769 -0.023977981 
  371000    262.70009    12082.888     2924.207    31.531487 -0.038817082  0.027084022  0.012982737 
  372000      272.271    7132.6364     2924.207    33.643974 -0.034039596  0.015229421 -0.0002886071 
  373000    239.22868     18651.57     2924.207    34.203734 -0.009237348  -0.03138426 -0.00029652763 
  374000    287.66198     11374.66     2924.207    33.540531 -0.014145266 -0.060338068 -0.0003794279 
  375000    252.31533    5077.6982     2924.207    32.868376 -0.0016273413 -0.022521431 -0.012757127 
  376000    258.96892    19573.598     2924.207    30.772972 -0.039561824 -0.012255202 -0.0074507199 
  377000    273.23213    7877.2635     2924.207    30.042079 -0.0051593654 -0.020308202 -0.011034439 
  378000    271.28914    10557.392     2924.207    30.416345  0.013573925  0.034397333 -0.016475122 
  379000    262.22877    11176.641     2924.207    30.004232  0.010010601  0.037169028 -0.015339818 
  380000    257.30254    5872.2261     2924.207    29.129432 -0.028550643 -0.00098772541  0.012131358 
  381000    265.51409     12899.61     2924.207    26.321248  0.012644142  0.011536159 -0.00074004585 
  382000    265.23189    3153.6313     2924.207    24.826423  0.013070473  0.044722688  0.017290846 
  383000    262.87186    13801.414     2924.207    21.876874 -0.0032106815 0.0029105146 0.00018594862 
  384000    265.26873    16520.008     2924.207    19.378425 -0.020302729 -0.012173974 -0.0043817238 
  385000    267.88536    349.31807     2924.207    18.216826 0.0034459014 -0.039475471  0.012095682 
  386000    253.05898    12494.191     2924.207    16.944304 -0.0041105777   0.02203288  0.032483422 
  387000    268.69209    12237.795     2924.207    19.630528 0.00016285211  0.007992021  0.017443504 
  388000    258.85509    7224.0795     2924.207    22.559466  0.037115626 -0.0061238509  0.022888798 
  389000    254.62284     16397.25     2924.207    23.762725  0.002419141 0.00076730087 -0.026738603 
  390000    241.10719    11154.072     2924.207    24.972407 -0.018814636  0.002516315   0.01137292 
  391000    275.16132    6317.8352     2924.207    24.412955  0.027411451 -0.029785326  0.022839259 
  392000    259.25631    13691.442     2924.207    23.272082 0.0097496321 0.0087409111 -0.025313816 
  393000    249.66894    2011.8365     2924.207    21.637056  0.022859354 -0.040733918 -0.017618085 
  394000    281.46572    15703.233     2924.207    20.087154 -0.054330127   0.01215888 -0.0026630507 
  395000    245.80912    10683.046     2924.207    20.174389 -0.021531724 -0.018341775 0.0095641525 
  396000    257.67927    6925.6569     2924.207    24.422109 -0.0098252896 -0.0056191747 0.0061677824 
  397000    277.25426    18274.209     2924.207    27.386952 0.0015817008 -0.018087594 0.0011687273 
  398000    265.55918    5548.9137     2924.207    25.365453  0.031136521 0.00043465496  0.016658231 
  399000     260.8588     17617.17     2924.207     24.49221 -0.038270765 -0.0088341559  0.012116692 
  400000    276.04595    5968.2732     2924.207    24.675322  0.031434694  0.015734936  0.010629884 
  401000    266.08051    9372.6422     2924.207    25.128427 -0.0044196214  0.024197904 -0.0077382665 
  402000    280.13509    8639.4045     2924.207    25.861008 -0.0022940917 0.0033489807 0.0079806132 
  403000    247.89776    14351.233     2924.207    28.120529 -0.016355009 -0.021963836 -0.017421778 
  404000      259.222    6146.8408     2924.207    31.401578 -0.0065100889  0.032686761  0.024104093 
  405000    277.58374    7490.8466     2924.207    31.842971 0.0015634967  0.023233504 0.0062495759 
  406000    260.75721    14930.625     2924.207    33.713439 0.0080203709  0.010435806 0.0091512488 
  407000    263.54341    13876.995     2924.207    34.017702  0.012926755  0.012184956    0.0132781 
  408000    272.37054    4423.1582     2924.207    32.659752 -0.0041833418  0.040069456 -0.010994468 
  409000    257.06195    17161.228     2924.207    31.559443 -0.014389788 -0.031494942 -0.0092508445 
  410000    273.00338    4064.3827     2924.207    30.238848 -0.0039033062 -0.011083152 -0.0018984611 
  411000     264.1777    9005.4202     2924.207    28.329645 -0.017002617 -0.00094610514 -0.031347207 
  412000    264.67336    12712.007     2924.207    29.327959  0.019580202 0.0064044702 -0.0055540298 
  413000    277.81492    4202.5883     2924.207    29.956843 -0.020104731 0.0095725854 0.0038689116 
  414000     257.8138    7456.1994     2924.207    31.078875 -0.0075163534 -0.014156631  0.011469798 
  415000    254.91541    18517.149     2924.207    32.035547 0.0033675632  0.016833763 -0.012484811 
  416000    260.65958    7540.8645     2924.207     31.36858  0.032422381 -0.010897367 -0.0059569668 
  417000    275.81583    9391.9864     2924.207    30.737373  0.015962798 -0.0063072809  0.015654432 
  418000    253.72424    15745.271     2924.207    30.481067 -0.0012506499 -0.0082136129  0.028884535 
  419000     284.1755    3650.0181     2924.207    27.507275  0.017301429  0.017167224 0.0063022034 
  420000    252.07584    12058.637     2924.207    24.330255  0.010764026 -0.0017883132 -0.0042348616 
  421000    271.57733    8996.5609     2924.207    23.494434 -0.020750566 -0.0052495895  0.022980546 
  422000    254.07356    3867.3637     2924.207    23.298362 -0.0072563729  0.027497217  0.020496127 
  423000    266.61387    14087.183     2924.207    23.390879  0.012108523  0.024701925  0.016198716 
  424000    247.66674    11794.271     2924.207    23.368804 0.0030400467 -0.0089414214  -0.01843917 
  425000    281.35897    3275.6463     2924.207    24.195254  0.023974281  0.022120168 -0.0054219429 
  426000     246.0226    20750.709     2924.207    26.966362  -0.02396399  0.036365873 -0.0074807868 
  427000    255.18909    7408.0206     2924.207    29.973586 -0.025947714 -0.0065280263 -0.0087106776 
  428000    274.51929    8876.9384     2924.207    32.949356   0.01057255 -0.032178209  -0.02853219 
  429000    261.04882    16869.006     2924.207    34.838236 -0.0037851059 -0.0092129939  0.017415673 
  430000    272.24827    1432.4532     2924.207    32.972061 -0.032887126 -0.043655907 0.0021882514 
  431000    289.09972    10281.478     2924.207    30.826303  0.032105563 -0.0071624961  0.035147772 
  432000    275.31408    9477.5213     2924.207    29.819707 -0.012800123 -0.00095071254 -0.012895245 
  433000    260.58673    12535.687     2924.207    29.982087  0.016016231 -0.0034306258 -0.048777228 
  434000    251.58483    3013.6228     2924.207    28.624409 -0.037473798  0.018450749 -0.031619521 
  435000    275.71618    19564.631     2924.207    27.313419  0.020645462 0.0055005642  0.020846081 
  436000    277.64743   -1084.3241     2924.207     28.83754  0.013495753 -0.017472048  0.027152373 
  437000    253.42211    9857.8957     2924.207    33.385847  -0.00602785  0.006262822 -0.0091335735 
  438000    261.80502    18635.069     2924.207    35.100213 -0.00033593007  0.010474737  0.024606042 
  439000    271.53693    10952.105     2924.207    33.566198 0.0068766346 -0.014785885  0.027661289 
  440000    277.50892    4277.8621     2924.207    29.890681  0.051871031 -0.038406383  0.054842961 
  441000    266.18964    11498.259     2924.207    27.277768  -0.01324365 -0.018985169 -0.016248269 
  442000      245.854    9187.6502     2924.207    25.418738 -0.0036157642 -0.0029736895   0.03045041 
  443000    271.34335    18431.991     2924.207     24.51029 -0.027179181 -0.0022861568  0.024840352 
  444000      277.719    5695.6824     2924.207    25.615516 -0.0027117009 -0.037631286 -0.011775503 
  445000    254.19498    9154.5094     2924.207    26.393704 -0.012264097    0.0260277  0.019532085 
  446000    273.98606     22482.75     2924.207    27.749851 -0.017799577  0.048015344  0.014741236 
  447000    279.67789   -3769.7943     2924.207    27.590667 -0.0094791844 -0.030142461  0.019921171 
  448000    268.17876     12534.36     2924.207    28.502048  0.065402458  0.031257294  0.012912434 
  449000    243.30377    16759.422     2924.207    29.778986 -0.023962645  0.032706527 0.0026189704 
  450000    272.14859    10738.581     2924.207    32.702148 0.0017390714   0.02305918 -0.027198401 
  451000    267.68649    9481.5616     2924.207     35.99855  -0.00402212  0.019223793 -0.027534645 
  452000    260.38778    6185.8703     2924.207    35.687598 -0.0022898141  0.010180661  0.012163287 
  453000    255.83875    16043.469     2924.207    32.756467 -0.013659794 -0.025802935 -0.012316515 
  454000     261.2762    8884.9183     2924.207    29.803095 -0.0044762318 -0.017236566  0.011759553 
  455000    259.01037    10737.021     2924.207    29.612785  0.021262283 -0.019105364   0.01488459 
  456000    271.96223    6744.8487     2924.207    30.619756 -0.049796964 0.0030853561 -0.036424859 
  457000    257.55161    13340.262     2924.207    30.284904  0.019867017  0.014571823 0.0032943764 
  458000     257.0267    10963.594     2924.207     29.52362 -0.0099976936 -0.0010115299 -0.015242696 
  459000    258.65803     10344.25     2924.207    29.590015 -0.031268577  -0.01449794 -0.029741814 
  460000    276.14141     3630.174     2924.207    29.592587  0.011215967  0.017049096  0.017769427 
  461000    266.76064      16196.8     2924.207     27.71311  -0.02862357  0.020636502 0.00028333673 
  462000    247.19517    5912.7402     2924.207    27.912489 -0.0034700764 0.0066492554 -0.0015695022 
  463000    271.79609    6141.5698     2924.207    27.881877 0.0074073946 -0.034575034 -0.0082489451 
  464000     259.8525    21749.782     2924.207     26.78938  0.030879756 0.0057776481 -0.010794674 
  465000    267.66011    4417.9769     2924.207    25.649206 -0.0037287272  0.048157766    0.0191691 
  466000    269.98632    7346.6887     2924.207    24.950729  0.021286982 0.0069402274  0.028407277 
  467000    258.88664    14497.553     2924.207    22.901368 -0.0039589248 -0.023595701 0.0055794724 
  468000    258.61502    2662.5981     2924.207    23.329258  0.015857704 0.0061711912 -0.016541544 
  469000    282.68039    14648.899     2924.207    24.060358 -0.010788597 -0.022249708   0.01155483 
  470000     271.7902    11983.079     2924.207    25.779024 -0.022541024 -0.012646823 -0.004046901 
  471000    260.16497    10029.597     2924.207     26.39988 -0.057509451  0.026231559 -0.012481473 
  472000    270.90115    3770.0397     2924.207    26.299905  0.015875331 -0.027037157   0.02863456 
  473000    267.42106    9094.5236     2924.207    25.765885 0.0050118701 0.0081297644    0.0232926 
  474000    259.64716    15767.669     2924.207    26.855228 -0.014759938  0.032240328  0.006645862 
  475000    276.89189    7895.2314     2924.207    28.154182 -0.0061063903  0.040120781 -0.025260367 
  476000    249.31083   -660.98148     2924.207    28.986793 -0.028754912 0.0077272685 -0.041427934 
  477000    251.15911    15980.152     2924.207    29.137021 -0.010511502 0.0043813066 -0.019276516 
  478000    261.60898    6135.1381     2924.207    30.058874  0.013386946 0.0021702095  0.025874643 
  479000    288.78053    2707.3832     2924.207    31.328213  0.019153248 0.00082926461 -0.0056732208 
  480000    282.19968    12572.137     2924.207    33.592657 0.0027853678 -0.0055986903 0.0051994776 
  481000    260.63209    6250.3031     2924.207    34.266877 -0.010608609 -0.032710647 0.0020941467 
  482000    281.34859    11445.052     2924.207    33.669286 0.0023483108  -0.02601117  0.004391187 
  483000    279.76225    9589.5139     2924.207    33.853673  0.013713619   0.01910065 0.0084038271 
  484000    263.06269    6123.8842     2924.207    34.247605 -0.011020005  0.014366943 -0.029792457 
  485000    251.60156    3550.7366     2924.207    33.346616 -0.010112344 0.0029871176 -0.032280654 
  486000    269.96864    9352.5413     2924.207     30.14993 -0.0033938401  -0.06053439 -0.022009889 
  487000    270.27925    8779.4732     2924.207    26.878845 -0.017245322  -0.01858915 -0.036036889 
  488000     283.3271    7048.0717     2924.207    23.105804 -0.016831901 -0.011751169 -0.021210664 
  489000    265.01673    7878.5341     2924.207    23.121837 -0.058754188 -0.012093236 0.0092677955 
  490000    280.67336    12789.791     2924.207    25.008738 -0.0069538142 -0.029950118 0.0094033555 
  491000    280.10773    12823.931     2924.207    25.096833  0.019386901  0.013693996 -0.022159449 
  492000    259.96782    3497.6974     2924.207    21.839976 -0.0066664345  0.030136197  0.016034192 
  493000    271.46421    11122.594     2924.207    19.819363  0.048989126 -0.023311091  0.015062466 
  494000    261.73662    10487.467     2924.207    18.449471  0.044594192 -0.011758718 -0.0050760421 
  495000     260.7202    2342.5793     2924.207    20.494738 -0.057116144 -0.010369902  0.028430811 
  496000    282.70467    10445.944     2924.207    24.805492  -0.06467129  0.027373072  0.021797756 
  497000     267.7527    1802.2925     2924.207    25.333069 0.0090727022  0.027912619   0.02325211 
  498000    265.97657    2142.3965     2924.207    21.013592  -0.04528083 0.0062546819 -0.004936649 
  499000    266.30533    16168.477     2924.207    18.179555 -0.020070868 0.00037862219  0.023132765 
  500000    268.77889    1597.8352     2924.207    18.826203  0.023732942  0.024137021 0.0013356915 
  501000    258.76222    7838.2244     2924.207    22.535751 -0.010388652   0.02619021  0.013754569 
  502000    270.47527    8015.8348     2924.207    27.344629  0.015140922  0.016469885  0.028084993 
  503000    271.70063    8811.3345     2924.207    31.737455  -0.01233312  0.013193617   0.02517182 
  504000    251.72131    7575.4728     2924.207    33.517974 0.0055687212  0.012632399  0.033968601 
  505000    260.39531    5457.8602     2924.207    31.446783  0.040858411 -0.039223176 0.0033320786 
  506000    271.64412    7696.8379     2924.207     27.32383 -0.0067632002 0.0089012016  0.015174351 
  507000     261.3854    9465.7468     2924.207    25.278916  0.011452699   0.01867144  0.019504767 
  508000    258.54156    13109.105     2924.207    28.059877 -0.028997357 -0.0029950179  -0.01639738 
  509000    269.76968    10866.592     2924.207    31.803685  0.012190685 -0.0015479292 -0.017439043 
  510000      269.377    5960.1146     2924.207    33.665753 -0.014898664  0.013153989 0.0035972266 
  511000    264.67287    14559.772     2924.207    33.526478 -0.0094867213  0.018597894 -0.0076581649 
  512000    274.34266    1487.7544     2924.207    31.201223 -0.0063993372 -0.0086797334 -0.013910931 
  513000    260.67002    10275.122     2924.207    26.522578  0.024279276   0.01754932 -0.013762636 
  514000    264.32962    9570.9817     2924.207    20.550917  -0.02268305  0.020230193 -0.010237597 
  515000    273.96972       4933.5     2924.207    15.100583 0.00019561819  0.028445459 -0.023293912 
  516000    277.32262    17982.134     2924.207    14.044695 -0.033109594 -0.0008256458 -0.040775022 
  517000     259.5425    3107.8474     2924.207    19.432867 0.0067036495  0.030845246  0.013855913 
  518000    263.17795    9756.8972     2924.207    25.382245 -0.001199521  0.042581397  -0.01896323 
  519000    273.82098    10077.589     2924.207    29.515521  0.033640673 -0.0031511083 -0.013284892 
  520000    262.77502    5454.8871     2924.207    30.814814 -0.072705448  0.020405235 -0.0057159863 
  521000    248.29658    15717.676     2924.207    28.492055  0.017662919  0.012662723 -0.013264303 
  522000    258.80485    2181.9888     2924.207    27.128114  0.024923873 -0.0051120279  -0.01764192 
  523000    268.53293    10947.722     2924.207    25.923678 -0.0037710807  0.023535132 -0.0044795704 
  524000    261.40722    10238.544     2924.207    24.684722 0.0023841702 0.0032225444 0.0076901811 
  525000    263.34299    7674.4539     2924.207    27.554555 -0.015866493 -0.026273981 -0.017028677 
  526000    261.24421    9838.9796     2924.207    31.906215  0.011488421  0.011283773 -0.014136339 
  527000    278.24043    10977.832     2924.207    34.178115  0.014160276  0.020983662 0.0013869602 
  528000    271.26941    12623.584     2924.207    33.748659  0.041012324  0.040209225  -0.03326685 
  529000    262.39902    3670.5919     2924.207    30.822374  0.012675074 -0.032947875 -0.0068810258 
  530000    280.72127    23014.771     2924.207    27.690711  0.031313462 -0.030313329   0.01686303 
  531000    286.22717    1461.6113     2924.207     24.20194  0.025213904  0.020000382   0.01048681 
  532000    270.69789    8038.4305     2924.207    20.637842 -0.0042014458 -0.018920085 -0.025189282 
  533000    268.11404    7657.6271     2924.207    21.618214  0.012013705  0.037840066 -0.002229434 
  534000    262.26121    15454.006     2924.207    26.275583 -0.042934578  0.011831529 -0.010296593 
  535000    261.90796    11751.596     2924.207    29.695354 -0.003067323 -0.0022309013 -0.029536044 
  536000    248.62332    4319.9574     2924.207    32.386602 -0.0095339227  0.012260315 0.00042879133 
  537000    275.62238    6719.9584     2924.207    34.205132 -0.025968225 0.00053991436 -0.008991701 
  538000    267.90271    2578.4899     2924.207    32.749653  -0.05950497  0.040248402  0.014417434 
  539000    285.81893    14893.065     2924.207    29.279079 -0.014172728 -0.013112844 -0.014923404 
  540000    284.74135    8385.7535     2924.207    27.298508  0.054892382 -0.027162549 0.0061682672 
  541000    278.54963    4536.5227     2924.207    27.501409 0.0017709033  0.016375312 -0.010402027 
  542000    269.63621    3598.7747     2924.207    28.268612 -0.047297127 -0.016827202  0.017125078 
  543000    265.28197    14160.744     2924.207    27.328911  0.023510659 0.0025833204 0.0020975175 
  544000    257.04728     11207.31     2924.207    27.112312 -0.0069507225  0.026678114 -0.0047522069 
  545000    259.62721    7376.2933     2924.207    25.461795 -0.0075047469 -0.022205299 -0.0076583755 
  546000    278.92315    12248.531     2924.207    26.428692   -0.0572141 -0.019437117 -0.011413413 
  547000     251.0049    8694.7053     2924.207    25.430007 -0.0091061421 -0.026720011 -0.0015486327 
  548000    278.61631     12060.03     2924.207    23.572197 0.0077972072 -0.018903598 -0.016385872 
  549000    278.04939    5839.5784     2924.207    22.761773  0.032777489  0.027383856 -0.0094697881 
  550000    281.15247    7537.4301     2924.207    22.685837   0.00471662 -0.017308863 -0.0029824836 
  551000     263.1196    11682.105     2924.207    22.535636 -0.018023716  0.009907232 0.0002859044 
  552000     265.1664    5905.5624     2924.207    22.185291  0.009374858  0.008068675  0.029292493 
  553000    259.31096    11668.502     2924.207    22.837084  0.023023703 0.0051350295 -0.032042753 
  554000    250.19509    8749.4771     2924.207    24.968757 -0.024947901 -0.0039783915  0.010309858 
  555000    266.50931    3162.2004     2924.207    29.064092 -0.033412684  0.012323839 0.0029860523 
  556000    262.81175    16236.524     2924.207    31.998357 -0.0062456789 -0.015982696 -0.0084090745 
  557000    273.68463    4906.1678     2924.207    33.279413  0.012810947  -0.02791242 -0.0016058543 
  558000    271.13272    7173.3897     2924.207    34.301745 -0.021962581  0.013202932  0.049460352 
  559000    250.58174    10497.204     2924.207     34.24597 -0.020990576 -0.041329958   0.02321689 
  560000    238.75826    914.03194     2924.207    32.784987  0.018307111 0.0095969908 -0.032609254 
  561000    267.99407    11152.186     2924.207    31.047012  0.025261343  -0.02907439 0.0047843724 
  562000    257.66649    10442.913     2924.207    29.745871 -0.033173379 0.0083441445  0.014938937 
  563000    249.73833    5609.5961     2924.207    28.058112 -0.0019398278 -0.027916866    0.0020543 
  564000    260.22656    13783.041     2924.207    26.816767  0.029623324  0.018967056 -0.021095068 
  565000     270.4438    9860.2137     2924.207    27.463891  0.013048135 -0.031363294 -0.0080822669 
  566000    288.73726   -1623.1535     2924.207    28.307286 -7.2537706e-05  0.012780518  -0.01098105 
  567000    261.45439    13310.178     2924.207    28.447175 0.0051652269  0.031703453 -0.015319285 
  568000    272.74604    14052.971     2924.207    28.442672  0.042658143 0.0066191537  0.045096482 
  569000    266.29429   -3087.4514     2924.207    27.856873  0.045670955  -0.02125744 0.0028206305 
  570000     242.6165    13274.244     2924.207    27.893764 -0.0026688972 -0.009963354 0.0039421531 
  571000     273.7233    12822.095     2924.207    27.931529 0.0068341061 -0.022764488 -0.0019284847 
  572000    250.35746     2456.629     2924.207     26.42344  0.011356017 0.00041634425 0.0029930327 
  573000    264.50685    9381.4586     2924.207    25.865984 -0.0080738174  -0.01841122   0.01390506 
  574000     265.6803    13837.657     2924.207    26.429922 -0.025564491  0.012048139  0.024949314 
  575000    256.55535    5088.0337     2924.207    26.597956 -0.052087361 0.0073138684  0.016595347 
  576000    271.23121    8227.2669     2924.207    26.922542 -0.0052225441 -0.0064386685  0.027160021 
  577000    277.75285    7940.2825     2924.207    27.025754 -0.033580032  0.039783879 -0.011413763 
  578000    256.64671    11670.913     2924.207    25.957595   0.00238625 0.0055583243  0.011299958 
  579000    255.59621    13396.845     2924.207    24.199962 0.0033618813 -0.0086215389 -0.0035337725 
  580000    253.70375    296.71742     2924.207    22.963435 -0.0081329422   0.01409621  0.034701821 
  581000    256.55732    7134.6579     2924.207    25.357915 0.0096918223  0.011491295 -0.037161348 
  582000    273.92091    12720.255     2924.207    27.799445  0.009095382 0.00071778844 0.0059178704 
  583000    254.78426    6953.3892     2924.207    29.821744  0.032023123 -0.029703857 -0.031987061 
  584000    264.95154    9677.9243     2924.207    31.296587 0.0015967097  0.023605548 -0.007596425 
  585000    264.79384    8518.1614     2924.207    31.298873  0.033756937  0.034204981 -0.0025141018 
  586000    269.18364    7785.2187     2924.207    30.349582 -0.0077500869  0.022876982 -0.0075787578 
  587000     261.9743    13060.606     2924.207    30.367362  0.015673929  0.010847984 -0.002521524 
  588000    264.78768    5808.1754     2924.207    31.939365  0.010267234 -0.00045116623  0.030507155 
  589000    287.08336    3747.3305     2924.207    32.498895 0.0016488551 0.0097170462 -0.039009214 
  590000    272.26082    11280.663     2924.207    31.289561  0.043102532 -0.017726755 -0.0085149157 
  591000    261.74492    6989.6745     2924.207    29.935706 -0.014681183 -0.0034426616  0.016228515 
  592000    250.49613    7188.1245     2924.207    27.571827 -0.0064800154 -0.0035449203  -0.02268532 
  593000    263.53516    10346.225     2924.207    27.054602  0.020891792 0.0037302177 0.0050638651 
  594000    250.15748    11336.185     2924.207    26.360585 -0.010618297 0.0018346917 -0.024705373 
  595000     269.0772    3756.5838     2924.207    24.117981 0.00021675659 -0.0022855324 -0.0081756886 
  596000    266.97507    7799.3682     2924.207    23.168123 -0.003574432 0.0080930222 -0.024262289 
  597000    273.97523     11259.84     2924.207    26.167866 -0.017944944 -0.0035870584 -0.012806327 
  598000    257.31984    2201.9108     2924.207    29.039574  0.010412146  0.001606211 0.0059459396 
  599000    270.95163    7050.9732     2924.207    29.026825  0.014942892 -0.026906292 -0.0092142307 
  600000     253.9069    11456.149     2924.207    28.385541 -0.016244208  0.025381669  0.041480503 
  601000    259.64172    5163.7121     2924.207    27.840238 -0.023047852  -0.01577545 -0.0060910717 
  602000    279.99587     7954.859     2924.207    27.213101 -0.0051223802 -0.016517163  0.044577354 
  603000    251.32795    7558.5302     2924.207    25.802479 -0.033086594 -0.014710047 -0.012283852 
  604000    276.55247    11.303784     2924.207      25.5012 -0.0047194937  0.010945158 -0.039465139 
  605000    270.62936    15510.763     2924.207     25.46566  0.011437463 -0.015047389  0.016384619 
  606000    256.43648    8292.9861     2924.207    24.297165 0.0021653087 -0.013748486 -0.00040968733 
  607000    258.34241    1326.8103     2924.207     22.83975  0.056857391 -0.053337232 -0.0026400935 
  608000    273.59803    15770.114     2924.207    21.590335 -0.0023621975  0.020781247   0.04615762 
  609000    256.88205    10037.378     2924.207    21.493557 -0.017181414 -0.0090300634  0.049165228 
  610000    261.81144    704.48387     2924.207     22.12929  0.013258639   0.02477599  0.031107686 
  611000    263.39219    3780.9534     2924.207    22.696475 -0.0067610955  0.026197312 0.00099097039 
  612000    248.61776    11729.999     2924.207    23.986621 -0.041412364   0.02385656  0.010743285 
  613000    270.57073    4598.0201     2924.207    25.352908 -0.014689072 -0.010119114  0.011925533 
  614000    261.56168    3244.5206     2924.207    24.888346  0.019011032 -0.036795869 -0.0032688753 
  615000    267.18363    12490.384     2924.207    24.913087 -0.010093453  0.022041272 0.0022296544 
  616000    267.02643    6104.9108     2924.207     24.85008  0.016515416 0.0020189588 -0.001799221 
  617000    260.90601    5836.4779     2924.207    24.385742 -0.025205457 0.0025239713  0.012631032 
  618000    257.75787    8659.5841     2924.207     25.90632 -0.044666286  0.020143644 -0.025084195 
  619000    278.41361    10643.113     2924.207    25.796351 -0.062248423 -0.025790978 -0.0040009377 
  620000    255.09931    2490.8545     2924.207    24.224098 -0.009550507 -0.0083019156 -0.045913091 
  621000    251.55466    5171.8812     2924.207    23.946008 -0.011483839 -0.024000021 -0.023578639 
  622000    255.14804    16308.385     2924.207    22.667222 -0.0033798105 -0.0040823024 -0.017315069 
  623000    261.96917    8808.1829     2924.207    22.496385 -0.025259168 -0.036945683 -0.045085592 
  624000    243.31968    1258.7019     2924.207    21.984177 0.0047195801 -0.024022793 -0.013592737 
  625000    283.30504     13600.35     2924.207    21.429258 -0.0021820631 -0.021228137   -0.0400057 
  626000    254.46746    3102.5318     2924.207    23.555682 -0.015505815 -0.0086603689  0.013806755 
  627000    259.43471     7133.254     2924.207     26.41026 -0.047347449 -0.018712269  0.039678364 
  628000     264.0473    8004.6735     2924.207    25.500965 -0.015485989 -0.023951439 -0.025829168 
  629000    257.67138   -180.30159     2924.207    24.113726  0.032494911 -0.0062509435 -0.013680624 
  630000    268.47074     8212.618     2924.207    25.486078 -0.013271536 -0.021580741 -0.040348512 
  631000    262.11886    12128.464     2924.207    25.728233 -0.040429922 -0.0037234572  0.010839509 
  632000    265.57752    5192.1397     2924.207    23.783909 -0.031984568 0.00067924454 -0.018666116 
  633000       278.91      7951.21     2924.207    21.560737  0.012745723 0.00048834561  -0.01602311 
  634000    274.86431     10495.38     2924.207    21.222751 -0.041750309 -0.019158095  0.014832811 
  635000    267.17985    -190.6537     2924.207    21.820878  0.023197418 -0.0077538866  0.015571676 
  636000    272.50326     9646.291     2924.207      24.4001 -0.002428106 0.0063309693  -0.01376591 
  637000    253.85286    13990.628     2924.207    27.286931   0.02444555 -0.0044788099  0.010118182 
  638000    246.49519    1035.8643     2924.207    29.791094  0.025274379 -0.0083003233 -0.001704377 
  639000    270.42682    9423.3742     2924.207    30.174244 0.0037157769 0.0088538224 -0.0080631794 
  640000    273.92367    9141.3394     2924.207    28.862796  0.054021123 -0.030056905 -0.00041073558 
  641000    253.90056    6318.9873     2924.207    25.978886 -0.031832456 -0.019932785 -0.0024415576 
  642000    263.23644    10253.318     2924.207    23.330301 -0.036981951 -0.010210643 0.0072644218 
  643000    280.00467    5378.7316     2924.207      20.5987 -0.044218086  0.022999631 -0.038290073 
  644000    272.23685    14506.424     2924.207    19.647007 -0.015319707 0.0094863041 -0.024950162 
  645000     258.4533    7181.6211     2924.207    21.352138  0.031084825  0.013926492 -0.015573303 
  646000    248.03756    2047.6606     2924.207    24.365225 0.0062243602   0.02259369   0.03747073 
  647000    262.45222    8880.3972     2924.207    26.143767  0.010431124 0.0052489392 -0.0077866744 
  648000    257.86779    14977.853     2924.207    27.558326 0.0087134485 -0.028148945 -0.0057607985 
  649000    278.91569    327.60728     2924.207     28.51026 -0.0044333811 -0.0058615404 -0.048483839 
  650000     251.4561    13883.529     2924.207    28.803605 0.0026833454  0.019959241 -0.029963755 
  651000    257.54957    13200.433     2924.207    29.102179 -0.0033822311   0.01157525  0.011200508 
  652000     267.5917    6965.5093     2924.207    29.089475   -0.0111569  0.060105835  0.025309882 
  653000    280.39822    7047.0615     2924.207    27.526433 -0.020019753  0.019245025 -0.021786084 
  654000    264.67527    15676.768     2924.207    26.694958 -0.016898279  0.017814583 -0.050935201 
  655000    259.76178    7205.9103     2924.207    27.858244 -0.009530432 0.0068553357 -0.013746514 
  656000    270.66783    4016.2856     2924.207     28.00289  -0.00852042   0.01355059  0.010646238 
  657000    273.21463    7836.6566     2924.207    29.312246 -0.0048101108  0.010456368 -0.010562125 
  658000    260.83496    14750.937     2924.207    28.888665  0.028103434  0.026996803 -0.011457367 
  659000    261.01697     7933.631     2924.207    27.009591  0.017785487  0.012714896  0.023621891 
  660000    247.99329       7309.2     2924.207    24.566201 0.0022652238  0.010221115  0.012760384 
  661000    278.20076    10299.777     2924.207    23.397074   0.03967462 0.0048868302 -0.032972308 
  662000    272.51042    14997.139     2924.207    23.632252  0.037007813 -0.011447262 -0.0013422033 
  663000    239.89788    5983.6016     2924.207    26.553785  0.010819375 -0.00027409766 -0.013533161 
  664000    256.38747    5532.8547     2924.207    28.522395  0.011706119  0.043466329 -0.00060969937 
  665000    261.55933    7269.3511     2924.207    28.726403  0.048217434 -0.027304997 -0.031819942 
  666000     243.8667    8695.3834     2924.207    29.858262 -0.003603925 -0.016256184 -0.00025905015 
  667000    245.75295    10766.518     2924.207    30.851316 -0.017484689 -0.009996006  0.045354665 
  668000    276.54565    7104.5163     2924.207    32.732561 -0.013310504  0.017381422  -0.01421935 
  669000    272.69912    5517.8445     2924.207    31.553007 -0.0099930459  0.028186187 0.0075721774 
  670000    265.00108    8910.9614     2924.207     30.59931  0.014738225 0.0067874175 -0.010075853 
  671000    264.41105    9883.7601     2924.207    32.583236 -0.021352876 -0.0026224106  0.029307332 
  672000    258.73094    3835.0186     2924.207    32.352357  0.023310891 -0.0080790204 -0.029852829 
  673000    244.26847    11053.187     2924.207    33.461824  0.027736234 -0.00024223887 -0.020790723 
  674000    264.93753    9032.8598     2924.207    34.462282 -0.020015259 -0.0077634975  -0.02043146 
  675000    251.60878    7947.7234     2924.207    34.762462  0.023029609  0.015529257 0.0034142136 
  676000    247.94415    11030.998     2924.207    34.780541 -0.0064455936 -0.022126887 -0.012863734 
  677000    258.71849    4294.5043     2924.207    34.972971 -0.0036484663 0.00030282158  0.043017257 
  678000    258.88533    8191.8583     2924.207    34.443449   0.01988658  -0.00965133 -0.0077580567 
  679000    227.19629    13845.347     2924.207    34.156926  0.017254459 -0.021711339  0.032100416 
  680000    245.92331    6980.1107     2924.207    34.082892 -0.00050532337 -0.0095984203 -0.013689982 
  681000    247.34896    4248.8465     2924.207    33.560742 -0.025639363 -0.026906274 0.0091774721 
  682000    264.23348    11027.306     2924.207    32.446232  0.013173507  -0.01103255  0.033707587 
  683000     253.1025    13791.958     2924.207    32.027387  0.013084131 -0.021407261  0.018202696 
  684000    281.78255    600.20586     2924.207    30.739522 -0.019628051 -0.017250514 0.0097939021 
  685000     253.0647    9882.1473     2924.207    28.617466  0.028736336 -0.011851621 -0.034204231 
  686000    244.22274    6502.6805     2924.207    27.084253 -0.0090297017 -0.037435004 0.0078440376 
  687000    262.07231    11180.618     2924.207    22.884271  -0.02478032 0.0059223589 0.0040408931 
  688000    263.16102    13480.754     2924.207    20.123707 -0.0073598047 -0.015662817  0.055086012 
  689000    251.41327    6987.7647     2924.207    18.990211 -0.0070459908 -0.00088524219 0.0014933831 
  690000    249.61971    13031.448     2924.207    17.374244 0.0047988748   0.03894373 0.0046278691 
  691000    257.46889    7662.8339     2924.207      17.5092 -0.00031544781  0.037797879  0.023648453 
  692000    260.89088     11938.22     2924.207    20.048292 0.0079774756  0.029527016 -0.026480796 
  693000    256.76933    8341.8121     2924.207    22.562385   0.02029217 -0.015934074 -0.0050070381 
  694000    263.44194    5827.6473     2924.207    22.748666  0.028790584 0.0013565789 -0.017957521 
  695000    256.58019    4787.7165     2924.207    23.776408 -0.0030898023 0.0034923881  0.015717481 
  696000    263.63518    14401.173     2924.207    26.974699  0.027305327 -0.021352734 -0.025437233 
  697000    252.39096    4546.6843     2924.207    29.273764 0.0074486657 -0.0025934898 -0.008134927 
  698000    264.08753    10083.611     2924.207    31.361464 -0.014642485 -0.0069074414 -0.0093959742 
  699000    273.55362    2626.9625     2924.207    33.137269 0.0037811895  0.011196768 -0.00023217267 
  700000    282.26106    5693.8768     2924.207    32.043948  0.025499844 -0.024820898 0.0080545847 
  701000    270.46124    15098.659     2924.207    31.041864 -0.0059380722 -0.010626226 -0.015022694 
  702000    275.89804    3569.7126     2924.207    31.852127 -0.0070417138 -0.017711129 -0.0040481842 
  703000    257.00203    9588.2681     2924.207    32.428563  0.025559078  0.033028119  0.021872578 
  704000    263.29584    7639.1611     2924.207    32.953535 -0.019118907  0.012821148 -0.0068167113 
  705000    277.57797    11239.671     2924.207    33.326536  0.010521141  0.060945794  0.035798502 
  706000    259.47871    3303.7045     2924.207    33.592185 -0.0091417355 0.0083885025  0.037512414 
  707000    253.42735    5556.8362     2924.207    34.095078 -0.010921932 0.0043561105  0.028937266 
  708000    270.05563    6951.3497     2924.207    32.992903  0.043935362  0.020810325 -0.0025071344 
  709000    250.13786    14607.215     2924.207    31.068704 -0.0085265129 0.0098429463 -0.021561135 
  710000    254.02125    2451.9377     2924.207    32.074365  0.012177991 -0.00043821163 -0.016570534 
  711000    263.01407    8901.1609     2924.207    31.777046 -0.020460687 0.0013042724 -0.015766711 
  712000    271.48519    3304.0499     2924.207    30.299976  0.018845755 0.0099029966 -0.0028106564 
  713000    279.01931    12548.247     2924.207    28.140912  0.018781528  0.018852755 -0.021111762 
  714000    271.65158    9267.1781     2924.207    26.560357 -0.030581917 0.00023117998 -0.010621606 
  715000    282.73009     5590.825     2924.207    27.767804 -0.013995718  0.010289408  0.039137379 
  716000    252.05791    11120.181     2924.207     29.00473 0.00017312385  0.025605767 -0.005915088 
  717000    256.78252    11942.551     2924.207     29.92752 0.00051499832  0.010627764  0.028268475 
  718000    274.73737    4831.0544     2924.207    30.330679 -0.018049518 -0.017003586  0.042455462 
  719000    257.73637    11109.381     2924.207    29.523975 -0.040509001 -0.011153236  0.015474262 
  720000    268.30622    5739.9138     2924.207     30.97416 -0.0081504418  0.035939079  0.011342545 
  721000    263.36358    10246.102     2924.207    32.729127  0.013000039    0.0280428  0.013085237 
  722000    258.98294    7275.7259     2924.207    33.173378 -0.023566082 -0.026373893 0.0023938594 
  723000     266.1127    1084.4333     2924.207    33.076128 -0.044382101  0.026017866  0.029277835 
  724000    253.89679    17816.971     2924.207    32.839659 -0.045495708  0.041507947 -0.011355743 
  725000    254.24991    10436.107     2924.207    32.827385 0.00065255049  0.015019333 0.00056169811 
  726000    254.60882    7513.2299     2924.207      32.9254 -0.031172705 -0.004352031 0.0090439642 
  727000    259.29633    6453.5807     2924.207    33.168597 0.0027915429 -0.0020274064 -0.024476217 
  728000    257.29119     10661.15     2924.207    32.491313 -0.0055918718 0.0083613065  0.010122927 
  729000    256.96693    11919.817     2924.207    30.908292 -0.0086698898 -0.013170355 -0.0099380121 
  730000     260.9485    7077.5158     2924.207    32.244809  0.020090973  0.010031704 -0.010721176 
  731000    264.32032    7187.4041     2924.207    33.761055 -0.021901162 -0.00059469723 0.0059511019 
  732000    272.30373     6928.496     2924.207    34.910535 -0.00096998619 -0.013149467 -0.0091969495 
  733000    242.76468    10180.303     2924.207    34.526836 -0.024549253 -0.0065398041   0.02122641 
  734000    263.36517     4875.465     2924.207    34.293363 -0.0024524679  0.011401526 -0.0059541384 
  735000    264.87109    13426.806     2924.207    33.242784  -0.00640508   0.01934703 -0.0024281946 
  736000    261.18176    5397.7467     2924.207    31.930688  0.002189905  -0.02181343 -0.0090292797 
  737000    255.53103    2258.3377     2924.207     31.77007 0.00089744704 -0.0039985615  0.020694057 
  738000    264.53986    12744.137     2924.207    30.215287  0.011282737 -0.023875867 0.0057590983 
  739000    256.11454    3264.1737     2924.207    28.279014  0.014958474 -0.011149032 0.0024208375 
  740000    286.53822    5945.7964     2924.207     27.27707 -0.015891125 -0.026043372 0.0090069199 
  741000     272.5629    10404.337     2924.207    27.265708 -0.026063308 -0.0009678478  0.028835934 
  742000    265.38181   -2941.0529     2924.207     28.14948 -0.0020282585 -0.033528006 -0.0052996104 
  743000     253.7748    12503.757     2924.207      29.1113  -0.03941355 -0.0089242011 0.0021569574 
  744000    253.23488     9780.624     2924.207    31.277312 -0.014903139 0.0019145887  0.005736579 
  745000    259.13173    3053.8497     2924.207    31.109604 -0.052771054 -0.018349739 -0.003171337 
  746000    264.53847    6231.9931     2924.207    28.820076 0.0070148747 -0.012988965 0.0067315797 
  747000    264.04231    7118.2301     2924.207    27.745249 -0.024080345 -0.014839241 0.0043129468 
  748000    262.86655    7327.1263     2924.207    28.419462 -0.050328755  0.003331797 -0.029246176 
  749000    254.74356    2468.7523     2924.207    29.955085 -0.039174376 -0.023138113  0.019146455 
  750000    262.35283    8337.0432     2924.207    31.179168 -0.0001098092 0.0023551229  0.033563622 
  751000    260.54532    8229.1106     2924.207    29.828548 0.0025609211 0.0042714283 -0.0074879385 
  752000    252.25347    3144.7197     2924.207      29.0734  0.010716956  0.034982256 0.0012778662 
  753000    265.61346    3629.6587     2924.207    28.512538 0.0068032292  0.017192026 -0.0029608633 
  754000    259.35655    15034.514     2924.207    27.803924 -0.0044275298 -0.013647222 0.0033912372 
  755000    262.03341    9831.1344     2924.207    25.811714 -0.025244347  0.061725386 -0.016323477 
  756000    265.39898     238.2386     2924.207    24.439472 0.0079028419 -0.00075184738  0.017392202 
  757000    255.52538    13317.952     2924.207    24.499212 -0.013159924  0.037657683 -0.015296056 
  758000    269.74243    11173.809     2924.207    24.035868 0.0050719123 -5.77154e-05  0.011809925 
  759000    259.60871    5331.0018     2924.207     22.51238  0.031704935   0.01114342 -0.030325496 
  760000    248.61174    5286.4468     2924.207    20.552186   0.01362631  0.020620721  0.019763235 
  761000    255.67215     16866.35     2924.207    20.534988 -0.012869438  0.010306351  0.014277105 
  762000    266.92455    7040.0593     2924.207    22.762297 -0.0054395848  0.022213517 -0.012013918 
  763000    255.87661    4469.5524     2924.207    24.531741 -0.028014297  0.030243135  0.045505929 
  764000    265.55496    5522.6462     2924.207    24.673795  0.001883384 -0.012851239  -0.01193518 
  765000    250.81153    14444.384     2924.207    25.840979 -0.013665896   0.01512949  0.013681991 
  766000     266.6002    5241.6685     2924.207    27.202564 -0.022705472 -0.013411863  0.027706206 
  767000    265.00512    5391.0662     2924.207     27.11859  0.011472518 -0.010361077  0.020323576 
  768000    257.91912    16200.824     2924.207    25.253332 0.0089794122 0.0021839247 -0.0024339129 
  769000    261.38394    10219.414     2924.207    24.206449  0.046950163 -0.0084165016 -0.016146183 
  770000    270.31804    6669.5493     2924.207    20.715184  0.029839928  -0.02477486 0.0066610513 
  771000    270.90667    4563.1141     2924.207    18.313141 -0.00093851096 0.0072664873 -0.019765375 
  772000    258.87265    9713.8987     2924.207    20.320398 -0.021263012  0.051104823  0.013662458 
  773000    267.45807    9522.6936     2924.207    22.514497 0.0046504319  0.043981146 -0.0093918239 
  774000     250.1937    4026.8667     2924.207    22.799272 0.0046860802  0.022549241 -0.010074881 
  775000    261.89573    10052.018     2924.207    23.856353 -0.025483283 -0.0056324781  0.013514395 
  776000    269.10028    11956.142     2924.207    24.588814 -0.0062917564 -0.0072109019  0.003330585 
  777000    265.54563     1710.249     2924.207    26.065922 -0.027801079  0.011109113 0.00054843495 
  778000    256.23184    13631.798     2924.207    26.809708 -0.015541508 -0.013311447 -0.014473459 
  779000    254.16163    2839.8566     2924.207     27.17183 -0.00098823434 -0.0061904013 0.0083328151 
  780000     268.4469    13347.606     2924.207    28.735395 0.0077079958  0.033652646 -0.012377018 
  781000    258.53228    13998.347     2924.207    29.914178 -0.027776846 -0.0018470633 -0.0057699253 
  782000    259.57356   -1198.5743     2924.207    28.899801 -0.0055124615 -0.0058180183  0.037496842 
  783000    255.69229    7655.7522     2924.207    29.156403 0.0062142359 -0.042536629 -0.0018672506 
  784000    272.16752    18199.984     2924.207    28.516311  0.027550754 -0.0032964641 -0.0070647536 
  785000    268.60438    3049.1894     2924.207    25.992554  0.022907046 -0.063709981 -0.023853101 
  786000    271.89936    8850.3144     2924.207    25.984755 -0.017445323  -0.01295173 0.0080987033 
  787000    278.79215    11944.807     2924.207    26.315834 -0.019585551   0.03034901  0.018168178 
  788000    256.43169    5892.9073     2924.207    25.169034 -0.019811529 -0.00081082686  0.040897657 
  789000    274.62072    14260.115     2924.207    24.893656 0.0093731899 -0.034275878 -0.009100767 
  790000    243.51737    4431.8078     2924.207    25.952927 0.0021818852  0.022423912  0.015182909 
  791000    252.07902    5963.8378     2924.207    27.467976  0.013638962 -0.033155177  0.032015574 
  792000    247.21106     11665.42     2924.207    28.656141  0.027982632  0.013939994 -0.0099522573 
  793000    257.46734    1465.1702     2924.207    25.726944 -0.0019110362 -0.003524114  0.030730338 
  794000     276.1187    7963.4938     2924.207    21.205353 -0.022365259 -0.012647328  0.001191877 
  795000    261.53376    11850.636     2924.207    18.495714  0.049827485  0.018143772 0.00091104499 
  796000    241.89907     9929.576     2924.207    16.001349   -0.0104176 -0.0096925179 -0.010881754 
  797000    269.54998    6617.6603     2924.207    17.785089 -0.012821372 0.0018488913 -0.0039947944 
  798000    251.08756     6107.867     2924.207    20.038915  0.008829307  0.016124448 -0.019057265 
  799000    256.17551    13170.742     2924.207    23.138336 -0.0069554996 -0.019370717  0.037846336 
  800000    258.40274    4797.6022     2924.207    24.474467 -0.031235333 -0.015683241  0.028730251 
  801000    268.88423   -2944.3885     2924.207    25.269054 -0.018024166 -0.0037985318 0.0082875464 
  802000    265.91509    13985.507     2924.207    25.537859 -0.0021576603 -0.020502069  0.034571528 
  803000    269.53189    17777.176     2924.207    28.321866 -0.0060701043  -0.06491379   -0.0197882 
  804000    265.02742   -5578.1052     2924.207    29.098405 -0.039293191  0.029441228 0.0019071529 
  805000    269.92373      6651.67     2924.207    26.308861 -0.0078407331 -0.028048404 -0.0064289212 
  806000    249.84168    15754.191     2924.207     24.80351 -0.016097339 0.0053510116  0.020706267 
  807000    251.95444    4131.4795     2924.207    24.502056 0.0029145734 -0.021080514  0.015134537 
  808000    263.52243    7969.7863     2924.207    23.994281 -0.013540296  -0.02006955 -0.0081611151 
  809000    254.76859    9762.5715     2924.207    23.889121 0.0015102652 -0.020961448  0.013825622 
  810000    264.97465    5653.2896     2924.207    23.277227 -0.0094676417 -0.00011338137   0.01033637 
  811000    259.18148    9363.7342     2924.207    23.731952 0.0059504232 0.0032361621 0.0020864538 
  812000    265.63262    4851.2141     2924.207    23.083576 0.0069456626 -0.037826187  0.040743325 
  813000     268.7809    3947.8042     2924.207     23.72443  0.012064192 -0.038637988  0.057946035 
  814000     250.8047     9086.992     2924.207    25.785965 -0.023535935 -0.014053997 -0.010979848 
  815000    270.37297    5017.9658     2924.207    27.959929 -0.021552573  0.006739502  0.035879725 
  816000     260.5528    8118.2128     2924.207    29.222654 0.0095915997 -0.0044070118  0.017336363 
  817000    266.34759    7444.7297     2924.207    30.424975  0.018067224 -0.047920062 -0.0008273226 
  818000    276.95454    6122.5353     2924.207    32.737356 -0.0072175253 -0.034219645  0.017002437 
  819000    250.72692    6007.2178     2924.207    34.168074 -0.013843049  0.016524429 -0.019750589 
  820000    264.65134    15937.623     2924.207    33.703197 -0.064443291 -0.015684818 -0.011338224 
  821000    261.02352    3573.5764     2924.207     32.65654  0.017027027   0.01510902 0.0099110863 
  822000    261.89364    579.75363     2924.207     31.23647 0.0052650596 -0.012192652 -0.025266971 
  823000    278.76895    8550.6676     2924.207    28.648379 -0.027978922 -0.036815649 -0.031685202 
  824000    259.76331    7924.3763     2924.207    26.826757 -0.027120126  -0.02383995 0.0034831789 
  825000    261.04045    5388.9437     2924.207    25.080644  0.017936949  0.041332073 0.0098162186 
  826000    259.57436     2663.566     2924.207    23.878302 -0.016667938  0.013230043  0.039233319 
  827000    257.60458    10521.178     2924.207     25.14424  0.010731731 0.0030534728  0.015949342 
  828000    251.97853    10057.124     2924.207     26.34084  0.033351363 -0.038120633  0.042334179 
  829000    230.15869    2913.1624     2924.207    26.589121 0.0059405282 -0.028729513  0.024611132 
  830000    262.35506    7906.2563     2924.207    26.291931 -0.043376319 0.00023626853 -0.0094905893 
  831000    248.03873    8151.9191     2924.207    26.379064  0.028179465 0.0044154369  0.018929614 
  832000    266.88276    5176.1666     2924.207    26.771239 -0.0067769045 -0.0047770504  0.024315296 
  833000    251.62597    11081.635     2924.207    28.232672 0.0009872946 -0.022197572 -0.023554649 
  834000    259.83518    6681.1376     2924.207    28.993649 -0.0061045963 0.0025994189 -0.019450766 
  835000    236.51523    5680.4254     2924.207    27.939838 -0.021229569  0.030917559 0.0068055417 
  836000    247.74083    4818.7715     2924.207     27.88394  0.017887003 -0.029158577 -0.029393087 
  837000    278.91066     10741.11     2924.207     27.28719 -0.0081809053 -0.00083580531  0.015653892 
  838000    266.90262    4212.7785     2924.207     26.80473 -0.023836481 -0.004883939 -0.00057030479 
  839000    260.50227    6924.5054     2924.207    26.421583 0.0095683204 -0.035566383 -0.0020105642 
  840000    280.80008    10484.833     2924.207    25.729355  0.012263979  0.020238401 -0.00031790786 
  841000    247.73644    7997.2663     2924.207    25.160652  -0.03000109 -0.032043525 -0.059088339 
  842000    249.76587    835.82486     2924.207    24.087355 0.0015510715  0.016331447  0.022647661 
  843000    259.83797    5940.9788     2924.207    22.892923   0.01050226  0.038234114 -0.014358354 
  844000    249.81985    11745.169     2924.207    24.110201 -0.019238622 -0.016651601 -0.00065726894 
  845000    262.24802    11684.568     2924.207    24.523807 -0.010609892  0.012381135 -0.0031501607 
  846000    276.24087   -920.17077     2924.207    26.321649 -0.039163537 -0.0085598488  0.015808618 
  847000     258.9366    9289.0474     2924.207    27.829617  0.029518583  0.021400297 -0.012289506 
  848000     282.1061    11022.985     2924.207     26.95125  0.042667967 -0.0064842936  0.013074308 
  849000     251.4748     5781.358     2924.207      26.9957   0.01878041 -0.0092797444  0.013267295 
  850000    247.73544    10191.661     2924.207    28.597001 -0.0076617053  -0.01574434 0.0065477137 
  851000    241.32843    13130.248     2924.207    30.196125  0.010550718  0.020340981 0.0047118909 
  852000    254.01656    7989.7633     2924.207    30.010865 0.0034135106  0.038480744 -0.014605587 
  853000     257.4345    6308.5471     2924.207    30.658503  0.035084131 -0.031066833 -0.0053075434 
  854000    247.59756    14654.302     2924.207    31.709483 0.0047393413 0.0012915975 0.0069564198 
  855000    241.25639    6584.4883     2924.207    29.236827   0.00434189 -0.025709833 -0.012373764 
  856000    263.46743    4285.7349     2924.207    24.923551  0.015452694 -0.012171552 0.0073302628 
  857000    262.51373    10136.894     2924.207    21.296034  0.011433493 -0.011731417  0.003967467 
  858000     259.7553    5387.5897     2924.207    19.760049 -0.0063225169 0.0041590203 0.0001239086 
  859000    259.04068    11741.182     2924.207    16.610502  0.016970173  -0.05248255  0.015769842 
  860000    252.04298    10522.408     2924.207    14.544306 -0.011888656  0.018489614 -0.0040928772 
  861000    251.12324     7060.297     2924.207    16.715582   0.01247628  0.003002126 0.00031421165 
  862000    261.30826     2712.209     2924.207    19.432664 -0.014996979 -0.00059020614 -0.0084196061 
  863000    254.90948    8384.6414     2924.207    19.300625  0.019422087  0.012612211 -0.0037331093 
  864000    259.12621     13043.55     2924.207    19.810525  0.026623731  0.012988368 -0.012108553 
  865000     259.9412    9449.1561     2924.207    20.106011 -0.024172723  0.025295474 -0.0062266402 
  866000    252.77376    5867.6961     2924.207     19.19724  0.019252438  0.013403044  0.015519832 
  867000    272.12039    2777.9265     2924.207    17.858963 0.0089408141 -0.010954839 -0.0072812294 
  868000    264.27527    7720.8736     2924.207    17.391875 0.0020424626 0.0076960069 0.0063207136 
  869000     266.3537    10592.375     2924.207    19.359167 -0.010675329  0.030019095 -0.020544267 
  870000    248.10515    1547.1277     2924.207    21.826641  0.032516576 -0.025580988 -0.014495396 
  871000    279.19998    5231.3353     2924.207    22.799171 0.0056550138 -0.0039407951  0.012632071 
  872000      254.221    15168.831     2924.207    22.657843  0.019203718 -0.008208864 0.0046266389 
  873000    268.79384    9888.3984     2924.207    22.437282 -0.00062500933 -0.0058552414 -0.025868891 
  874000    258.84641    1786.3808     2924.207    20.328968 -0.026271789  0.024257257 0.0053074541 
  875000    264.61445    4917.5038     2924.207    18.319699  0.020035418  0.011023895 0.0032125283 
  876000    266.72445    17522.684     2924.207    18.717987  0.023809752 -0.023748015 -0.00021503714 
  877000    249.39715    12602.357     2924.207    21.415659  -0.01524889 -0.011357351  0.014245094 
  878000    245.00493    1705.4077     2924.207    20.357451 -0.0083318139 0.0030563542  0.036965876 
  879000    266.45192    15611.605     2924.207    17.413974 -0.035982534 -0.032768774 -0.018169399 
  880000    272.21631    9492.8585     2924.207    17.330936  -0.01759912  0.042255762 0.0039416444 
  881000    254.99716    2391.8549     2924.207    18.498903 -0.019404739  0.011793087  0.019638787 
  882000    272.77203     8176.595     2924.207    18.677392  -0.02469265  0.019169925 -0.0076604273 
  883000    264.65914    11869.275     2924.207    21.144864   0.01457152 -0.0058386386 0.0036929738 
  884000    279.04274     4140.159     2924.207    22.910033  0.021785301  0.014627012    0.0124388 
  885000      257.372    6882.3324     2924.207    24.405086 -0.023945145 -0.0036309406 0.0054359252 
  886000    264.06696    9228.5202     2924.207    24.504666 0.0071162764 0.0099844805 -0.036577441 
  887000    266.40913    5343.3334     2924.207    24.447978 -0.018247161 0.00016914788  0.012630611 
  888000    266.04348     6268.451     2924.207    23.786969 0.0055740622  0.014947346 -0.013183044 
  889000    265.18413    10378.139     2924.207    23.971446  0.024096372 0.0088534998 -0.011002669 
  890000      248.132    2972.0329     2924.207    24.459953   0.02856247  0.016153177 -0.018960434 
  891000    258.21758    4833.0644     2924.207    25.620612  0.021919905 0.0019048991 -0.014420617 
  892000    261.09197    19845.722     2924.207     27.45114  0.011342388 0.0042202869 -0.036127684 
  893000    270.96246    4024.5319     2924.207    29.235885 0.0017914189 -0.015588047 -0.020094686 
  894000    251.10948    7328.6305     2924.207    27.888029  0.020426924 -0.005024332  0.007277735 
  895000    248.12058    10490.181     2924.207    27.722778 -0.019895303  0.012023956  0.033010315 
  896000    252.49737    5857.1993     2924.207    26.868363 -0.0087204578  0.027263443 -0.016356898 
  897000     256.7065    3380.3287     2924.207    25.440512 0.00011946757 -0.022015594 0.0008634447 
  898000    248.43884    10971.266     2924.207    26.683568 0.0061995669 -0.011500489 -0.042691279 
  899000    255.09594    8827.2209     2924.207    29.429419 0.0030668973 -0.031719843 -0.012716966 
  900000    243.55091    1538.1121     2924.207    28.772076 0.0040393504  0.006637494   0.02038153 
  901000    265.90374    11935.613     2924.207    27.169524  0.025539794 -0.005287933   0.02677632 
  902000    266.35748    9542.2918     2924.207    25.338274  0.017806649  0.034669707 0.0089902057 
  903000    267.14942    9933.0801     2924.207    22.810787 -0.0017767276 -0.013207901  0.016249844 
  904000    258.83428    4966.7558     2924.207     19.91029  0.015047826 -0.0048539182 -0.014377662 
  905000    269.05996    4925.2849     2924.207    18.009299 0.0093574992  0.028658793 -0.021836898 
  906000    253.58522    5367.4072     2924.207    16.897506 -0.0050146696 -0.0022126125  0.019564391 
  907000    250.99177    6914.9609     2924.207    17.028161 -0.0093352629  0.035089246  0.034619763 
  908000    253.53068     9824.786     2924.207    20.797131 -0.0086556792 -0.020824994   0.01147479 
  909000    247.65575    8348.8569     2924.207    22.678582  0.011594399   0.01437605  0.034015053 
  910000    250.12578    10893.981     2924.207     25.15082 0.0087183466 0.0068665598  0.029918459 
  911000    272.79748    6479.5457     2924.207    26.101321 -0.017048295 0.0045273199 -0.0046093682 
  912000    263.73257    1715.8042     2924.207    23.805544  0.022277649 -0.000956305 -0.0077891089 
  913000    269.99585    9921.8617     2924.207     22.69916  0.017213122 -0.0079810248 -0.028795436 
  914000     246.7161    11542.594     2924.207    23.680556 0.0078890692 0.0072021996 -0.023371421 
  915000    253.93813   -621.50409     2924.207    25.951455 -0.049392247 0.0079839237  0.031814783 
  916000    272.57109    4649.7946     2924.207    27.946546  0.012141369 0.0080260501  0.022213716 
  917000    251.14544    11973.604     2924.207    28.872176 -0.012345239 0.0077608035 -0.007938811 
  918000    249.02483    8937.4148     2924.207    28.077386 0.0084801188 -0.013572462  0.020711006 
  919000    265.65108    1953.4063     2924.207    26.056129   0.02751682 -0.00097614075   0.01178576 
  920000    243.86654    6655.1703     2924.207    22.831883 -0.033067221 -0.017477333  0.018349688 
  921000    256.46912    4065.1949     2924.207    20.529523  0.028740609 -0.0087444954 0.0084112757 
  922000    275.41406    9321.0953     2924.207    21.882084 0.0016567976 -0.0073051298 -0.0041183572 
  923000    272.88967    9847.1625     2924.207    25.002134  0.025253951 -0.0069648949  -0.03149881 
  924000     269.4466    3404.5441     2924.207    27.272964  0.022270843 -0.004974312 -0.031281332 
  925000    250.24335    13050.936     2924.207    26.827352 -0.023648556 -0.014574469  0.015755037 
  926000    247.73189     2548.156     2924.207    26.169725  -0.01132293 -0.013010276 -0.017483501 
  927000    261.34142    3408.8471     2924.207    27.006536 -0.0049482762 -0.0096517609  0.015514045 
  928000    262.79868    12356.811     2924.207     27.04815 0.00033149471  0.020527182 -0.017381495 
  929000    256.38391    6613.4895     2924.207    26.771651  0.035442902 0.0023892174  0.031020061 
  930000    263.63854    7669.3382     2924.207    26.275898 0.0071696798 -0.0050515967 -0.0029041141 
  931000    263.53784    6201.9551     2924.207    27.781319 0.0061823524 -0.042799728  0.023288846 
  932000    266.87913    6062.7968     2924.207    29.266935  0.010836552  0.005161243  -0.01417837 
  933000    282.73003    15768.275     2924.207    30.528391  0.033624341 -0.034842473  0.015405911 
  934000    255.33354     9609.685     2924.207    32.353282 0.0041220719 -0.0004305633  0.017759168 
  935000    260.34118   -2320.7698     2924.207    33.906749 -0.023055101  0.018601809 -0.014462253 
  936000     270.5648    7602.6266     2924.207    33.607346 -0.023244105  0.014222737 -0.012583474 
  937000    249.93519    14155.012     2924.207     32.39426 -0.017658198  0.054743669 -0.031043994 
  938000    265.56806    3559.8655     2924.207    31.697413 -0.013008411 0.0091660333 -0.011767826 
  939000    241.17451    7312.4165     2924.207    31.050957 -0.0013507827 -0.032728155 -0.013940519 
  940000    261.75687    7767.7467     2924.207    32.503581 -0.020231887  0.036982295 0.00092745558 
  941000    276.87475    11397.581     2924.207    33.177845  0.014881372  0.042636366  0.032592625 
  942000    266.83649     6281.444     2924.207    31.502796  0.020975884 -0.0027256964 -0.00089391951 
  943000    271.90563    7691.5321     2924.207    29.008264 -0.025618847   0.01436024  0.066815709 
  944000    246.27732    3793.7261     2924.207    25.425828 -0.0058181619 0.0043512509 -0.0089531744 
  945000    279.25918    5145.0044     2924.207    23.316717  0.034275633 -0.027500944 0.0080336203 
  946000    252.47039    14735.495     2924.207    20.619336  0.015144146 0.00054997624 -0.010399461 
  947000    268.46147    8241.7464     2924.207    18.461332 -0.031748922 -0.014604198 0.0038445293 
  948000    262.34108    4019.8124     2924.207    17.609842 -0.017704397  0.026020384 -0.0069742293 
  949000    256.25456    8095.5854     2924.207    17.444266  0.010534382  0.019773231 -0.010308532 
  950000    256.42057    4529.5248     2924.207     19.15617  0.011907097 -0.027476412 -0.018626673 
  951000    269.62118    5307.5275     2924.207    22.650285 0.0037706542 -0.0040314398 -0.013406811 
  952000    251.79268    12151.476     2924.207    25.613831 0.0019164374 -0.020507503 -0.0060443873 
  953000    263.28152    13777.789     2924.207    27.944389 -0.024549988 0.0074574028 0.0082734101 
  954000    265.99685    4922.8984     2924.207    31.066772  0.022191731 -0.0014428122  0.020319962 
  955000    260.22738     1586.897     2924.207    31.548286 -0.010402088  0.013466771 0.0092222755 
  956000    253.85439    10999.296     2924.207    31.973251 -0.017954797 -0.0039760933 0.0011374658 
  957000    281.31439    13406.123     2924.207    32.223664 -0.0034383762  0.011870545 0.0043523197 
  958000    259.28131    3289.7669     2924.207     30.48063 -0.0012128487 -0.027698155 0.0016080822 
  959000    239.63124   -1576.1258     2924.207    28.615741 -0.0038023554  0.024393267 -0.0040874465 
  960000    259.63284    16806.175     2924.207     28.63499  0.047978635 -0.028011888  -0.00357982 
  961000    262.39774    5075.8105     2924.207    28.833156 -0.014416192 -0.025010977  0.003235236 
  962000    246.49926     1284.112     2924.207    27.575147 -0.022725605  0.018001203 -0.010910206 
  963000    249.94876    12069.029     2924.207    26.105476 -0.016047252 -0.0044117519  0.018573695 
  964000    252.85799    6989.2284     2924.207    26.814932 -0.035820339  0.019951705 -0.0038908691 
  965000    249.01034    5296.1243     2924.207    29.433804 0.0010945053  0.020546267 0.0024909623 
  966000    263.67023     8775.972     2924.207    31.927255 -0.0095731825  0.024548239 0.0018634073 
  967000    258.38329    7593.2047     2924.207    34.246344  0.021659024 -0.036528017 0.00074387494 
  968000    258.96663    5638.7496     2924.207    35.566271 -0.0074138292  0.021768808 0.0097168871 
  969000    247.02668    6224.3476     2924.207    36.075122 -0.003966098  0.019159734 -0.0025390818 
  970000     256.7933    6208.7724     2924.207    35.684792 -0.017568637 -0.041752538  0.014653613 
  971000    262.28734    7229.9583     2924.207    34.989523 -0.018343373 -0.021595316 -0.021539806 
  972000    260.02132    7063.0965     2924.207    33.136877 -0.0031726525 -0.014614314  0.010843203 
  973000    253.89881    6408.3188     2924.207    30.860196 0.0035244725 -0.025420955 -0.019687286 
  974000    257.93618    6823.6654     2924.207    29.020813  0.015252352  0.017028654 -0.0013394614 
  975000    281.96665    11478.054     2924.207    26.549836 0.0027149783 0.0031796131  0.021549308 
  976000    260.79136    7286.8803     2924.207    22.411592  0.022069321  0.037554602  0.020670824 
  977000    261.87044    3969.5702     2924.207    20.541354 0.0094718581 -0.007411863 -0.0041972718 
  978000    277.59391    10693.594     2924.207    22.957118 0.0055213086 -0.012313959 -0.0041853016 
  979000    262.78263    9573.0672     2924.207    23.603535  0.024758668  0.010294991 -0.020507873 
  980000    271.62752    819.88974     2924.207    23.238654 0.0064892971  0.019729552 -0.0047601961 
  981000    269.75469    7685.9581     2924.207    23.756224 0.0091585797 -0.0050848601 -0.0092055825 
  982000    256.12249    11841.286     2924.207    21.738348  0.005090475 -0.0016257538 -0.0026310955 
  983000    275.54019    2657.2551     2924.207    18.026626  0.011251787 0.0046535718   0.01411555 
  984000    270.22301    6054.5907     2924.207    16.204489  -0.02453906   0.01281001 -0.0039702427 
  985000    256.68354    12618.441     2924.207    18.481312  0.025314278 0.0038424664 -0.017228794 
  986000    277.25706    6933.3546     2924.207    19.238559 0.0015575309 -0.0075744717   0.03468128 
  987000    262.74495    3026.2423     2924.207     20.38891  0.007110913   0.01577435 -0.018137704 
  988000     274.3185    4532.9394     2924.207    22.513425 -0.0032072467 -0.0027952798 0.0056336741 
  989000    265.31131    11720.593     2924.207    23.986196  0.014441192 -0.014386442 0.0047665394 
  990000    279.85971    4442.2841     2924.207    24.663441 -0.0074374585 0.0070471248 0.0070965186 
  991000    263.92097    3101.9714     2924.207     24.93018  -0.01472806 -0.052882365 -0.012967305 
  992000    263.72254    11478.774     2924.207    24.455354  0.025777204 0.0012179404 -0.016865757 
  993000    260.98934     7467.338     2924.207    24.441119  0.018235464  0.018108358  0.020639626 
  994000    257.25256    9735.7576     2924.207    25.162605 -0.0080416902 -0.011245809  0.035876279 
  995000    269.19083    8752.9364     2924.207    24.726145 0.0033014551  0.017441881 -0.0073952506 
  996000    270.51231     8321.506     2924.207    25.552859  0.019168013  0.016294223 -0.034651953 
  997000    266.35553   -1723.7711     2924.207    27.374444 0.0031668471 0.00040518829 -0.0048313489 
  998000     274.6825    12154.843     2924.207    28.212732 -0.036563332 -0.0050787189 -0.029585305 
  999000    281.74783    6917.0171     2924.207    30.824319 -0.023734468 -0.013191067 0.0066232278 
 1000000    275.73504    1535.8258     2924.207    34.107321  0.013698787 -0.011038803  0.020878735 
Loop time of 6800.6 on 2 procs for 1000000 steps with 240 atoms

Pair  time (%) = 6438.98 (94.6824)
Bond  time (%) = 0.297178 (0.00436987)
Neigh time (%) = 20.4201 (0.300268)
Comm  time (%) = 241.684 (3.55386)
Outpt time (%) = 0.486463 (0.00715323)
Other time (%) = 98.7395 (1.45192)

Nlocal:    120 ave 122 max 118 min
Histogram: 1 0 0 0 0 0 0 0 0 1
Nghost:    5023.5 ave 5030 max 5017 min
Histogram: 1 0 0 0 0 0 0 0 0 1
Neighs:    45633.5 ave 46382 max 44885 min
Histogram: 1 0 0 0 0 0 0 0 0 1
FullNghs:  91267 ave 92757 max 89777 min
Histogram: 1 0 0 0 0 0 0 0 0 1

Total # of neighbors = 182534
Ave neighs/atom = 760.558
Ave special neighs/atom = 0
Neighbor list builds = 4685
Dangerous builds = 0
#	run			10000
	unfix			1
	uncompute		myKE
	uncompute		myPE
	uncompute		myStress
	uncompute		flux
	uncompute		myDis
	unfix			JJ

	next seed
	next iseed
jump lmp.in.gk loop_seed
variable iseed loop 10
variable seed index 11111 22222 33333 44444 55555 66666 77777 88888 99999 11110
clear
###########################################################################
#x0
###########################################################################
units 			metal
atom_style		full
read_data		fort.26.nonbonded
  0 = max bonds/atom
  0 = max angles/atom
  0 = max dihedrals/atom
  triclinic box = (0 0 0) to (14.3 14.3 14.3) with tilt (0 0 0)
  1 by 1 by 2 MPI processor grid
  240 atoms
  0 bonds
  0 angles
  0 dihedrals
  0 = max # of 1-2 neighbors
  0 = max # of 1-3 neighbors
  0 = max # of 1-4 neighbors
  1 = max # of special neighbors
group         		C type = 1
60 atoms in group C
###########################################################################
#OLPS
###########################################################################

################################################################################
#### Pair potentials
################################################################################
pair_style hybrid/overlay tersoff lj/cut 12.0
pair_coeff * * tersoff C.4.tersoff 1 2 3 4
pair_coeff 1 2 lj/cut 0.0007000000 3.5500000000
pair_coeff 1 3 lj/cut 0.0007000000 3.5500000000
pair_coeff 1 4 lj/cut 0.0007000000 3.5500000000
pair_coeff 2 3 lj/cut 0.0007000000 3.5500000000
pair_coeff 2 4 lj/cut 0.0007000000 3.5500000000
pair_coeff 3 4 lj/cut 0.0007000000 3.5500000000
special_bonds lj 0.0 0.0 0.0 coul 0.0 0.0 0.0

#pair_style tersoff
#pair_coeff * * C.4.tersoff 1 2 3 4

#pair_style lj/cut 12.0
#pair_coeff 1 1 0.0700000000 3.5500000000
#special_bonds lj 0.0 0.0 0.0 coul 0.0 0.0 0.0
###########################################################################

#--------------------------------------------------------------------------
#variables
#--------------------------------------------------------------------------
variable   	dt 		equal 0.001
#--------------------------------------------------------------------------
#kappa parameters
#--------------------------------------------------------------------------
variable    	p 		equal 100000 	# correlation length
variable    	s 		equal 10  	# sample interval
variable    	d 		equal $p*$s 	# dump interval
variable    	d 		equal 100000*$s 	
variable    	d 		equal 100000*10 	

#--------------------------------------------------------------------------
variable 	T_run 		equal 300
#--------------------------------------------------------------------------

log 	log_heat_${iseed}.lammps
log 	log_heat_5.lammps
