	reset_timestep  	0
	fix 			1 all nve
	compute   		myKE all ke/atom
	compute   		myPE all pe/atom
	compute   		myStress all stress/atom virial
	compute   		flux all heat/flux myKE myPE myStress
	variable  		Jx equal c_flux[1]/vol
	variable  		Jy equal c_flux[2]/vol
	variable  		Jz equal c_flux[3]/vol
	fix       		JJ all ave/correlate $s $p $d c_flux[1] c_flux[2] c_flux[3] type auto file J0Jt_${iseed}.dat ave running
	fix       		JJ all ave/correlate 10 $p $d c_flux[1] c_flux[2] c_flux[3] type auto file J0Jt_${iseed}.dat ave running
	fix       		JJ all ave/correlate 10 100000 $d c_flux[1] c_flux[2] c_flux[3] type auto file J0Jt_${iseed}.dat ave running
	fix       		JJ all ave/correlate 10 100000 1000000 c_flux[1] c_flux[2] c_flux[3] type auto file J0Jt_${iseed}.dat ave running
	fix       		JJ all ave/correlate 10 100000 1000000 c_flux[1] c_flux[2] c_flux[3] type auto file J0Jt_8.dat ave running
	compute 		myDis all msd
	thermo_style 		custom step temp press vol c_myDis[4] v_Jx v_Jy v_Jz
	thermo			1000
	timestep		${dt}
	timestep		0.0010000000000000000208
	run			1000000
Memory usage per processor = 7.28915 Mbytes
Step Temp Press Volume myDis[4] Jx Jy Jz 
       0    291.71363    6391.5131     2924.207 1.6159331e-30 -0.0039775308 -0.032270912 -0.030015396 
    1000    258.65124    12382.542     2924.207    14.412214  0.007381135 -0.028373038 -0.018890194 
    2000    292.38129    13441.424     2924.207    26.750826 0.0012684179 -0.024617856 -0.0081863022 
    3000    272.82981    15589.558     2924.207    24.708502 -0.010439583 -0.027112966 0.0012907333 
    4000    285.58713     7189.175     2924.207    24.939219  0.012382709 0.0013437319 -0.0099743887 
    5000    280.27115    11970.495     2924.207    21.042877 -5.3648677e-05  0.022239056 -0.035216634 
    6000    300.49558    12031.237     2924.207    12.618392 -0.0054380745  0.018524779  0.044576953 
    7000     276.4619    12550.974     2924.207    20.759176 -0.011743198 -0.014269557 0.0017910836 
    8000    287.03195    11515.712     2924.207     31.23666 0.0044478032 -0.016221254 -0.065292792 
    9000      294.618    8790.5241     2924.207    28.662024 -0.003585893 0.0064048524 -0.019508874 
   10000    285.03638    13820.974     2924.207    31.401149 -0.019047901 -0.0079902458 0.0097166901 
   11000    302.83643    8308.2934     2924.207    27.175985 -0.047743955  0.014368408  0.021858107 
   12000     291.3453    11217.395     2924.207    24.078886 -0.034516849 -0.011502286  0.020627574 
   13000    293.99815    10265.753     2924.207    30.887604 -0.010825651 0.0061223778 -0.004014906 
   14000    269.15785    14001.083     2924.207    24.590791 0.0053460591 0.00014704023  0.011073937 
   15000    302.21154    5631.1483     2924.207    21.649642 -0.022569753 -0.045180151  0.017232197 
   16000     269.8896    15728.017     2924.207    28.262162 -0.032734177 -0.0064778627 0.00078894293 
   17000    288.33018    3770.2895     2924.207    26.272136  0.016491014  0.016611131 -0.0092899572 
   18000     266.9326    12817.678     2924.207    29.323788  0.033307282  0.019605887  0.043560339 
   19000    293.05163     10853.48     2924.207    30.972108 -0.055920696 -0.025145536   -0.0184639 
   20000    282.06858    8615.6899     2924.207    25.545377 0.0027547878 -0.023711276  0.010697171 
   21000     294.6231    9900.9258     2924.207    27.338297 -0.0030504324 -0.026681263 0.0039484365 
   22000    295.74358    13657.812     2924.207    28.778831 -0.0088553627 -0.029744841  0.014865206 
   23000    269.75953    8406.1341     2924.207    28.608454 -0.0010350719 -0.023601499 -0.0061623334 
   24000    295.85241    17015.864     2924.207    28.840067 -0.00032321358 -0.040621425 -0.012039668 
   25000    303.74972    3601.6196     2924.207    23.844102   0.04445842 -0.018680047  0.049157145 
   26000    263.40949    13982.412     2924.207    22.272745  0.033421413 -0.0041955029 -0.0061787679 
   27000    269.45215    8980.5997     2924.207    31.232737 -0.017647565 -0.0050341753 -0.049701663 
   28000    288.60158    15238.256     2924.207     32.11514 0.0053488861  -0.02109557 0.0091772168 
   29000    286.75879    14134.575     2924.207    22.799879  0.017277941 -0.021119562  0.015048488 
   30000    278.45432    13136.286     2924.207     19.15385  -0.01569474 0.00039829551 -0.046842051 
   31000    260.20396    13511.909     2924.207    23.763315 -0.012443876 0.0090881473 -0.031785361 
   32000    248.13737    18618.755     2924.207    31.311033 -0.00010045711 -0.023740645 -0.0031304775 
   33000    267.23329     11433.12     2924.207    33.398968 -0.0095174528  0.013043655  0.022904493 
   34000    275.56575    11229.635     2924.207    28.748159 -0.036466237  0.024332212 -0.035597811 
   35000     288.1838    16810.326     2924.207    24.940328 -0.0065861071   0.01698712 0.00073657582 
   36000    262.36783    9461.2915     2924.207    26.512837 -0.023813411  0.025249589   0.01323369 
   37000    266.08953    18384.634     2924.207    24.072703  -0.01754037 -0.0047560075 -0.051704023 
   38000     264.5115     12455.57     2924.207    16.615208 0.0014753579 0.0015694819  -0.01314596 
   39000    268.20414    11419.482     2924.207    15.197965 -0.018150343  0.019497362 0.0071815571 
   40000    266.47341    14715.375     2924.207    23.110212 0.0010273948  -0.05955604 0.00088154113 
   41000    284.01079     11689.45     2924.207     29.00859  0.019700942  0.002809764  0.021345052 
   42000    227.35158     18518.01     2924.207    29.244461 -0.0075504844 0.0057622174 -0.024806616 
   43000    278.72048    13876.133     2924.207     24.18517  0.041432839 -0.0035886687 -0.0067539671 
   44000    283.98353    13199.704     2924.207    22.055239 -0.0057692948 -0.0075730767 -0.0028561464 
   45000    265.71037     16771.69     2924.207    23.505687  0.025818076 -0.019653562  -0.01611767 
   46000    247.44019    16224.068     2924.207    21.166156  0.010441752  -0.01631764 -0.015652174 
   47000    267.49182    20241.618     2924.207    20.351391 -0.0023443289 -0.006699968 0.0071026601 
   48000    262.68038    10523.753     2924.207    27.038767   0.05923048  0.023900986 -0.0075853779 
   49000    278.16346    11601.009     2924.207    33.133112    0.0299261 -0.044269298  0.024469644 
   50000    247.30385    13438.023     2924.207    30.104528 -0.0016242678 -0.019266032 -0.0014214208 
   51000     282.1508    3348.7093     2924.207    23.890775  0.016590273  0.017545395 -0.025535055 
   52000    260.85534    13987.176     2924.207    20.467492 0.0098684828 0.0040821349 -0.024100053 
   53000    232.26742    20115.206     2924.207    25.710163 0.0032581891 0.0073267389 0.0050413535 
   54000    284.79439    8347.3382     2924.207    28.493885 0.0077046371 -0.017711844 -0.026584267 
   55000    273.38861    18127.268     2924.207    25.858362  0.006064146  0.018228869  0.013101069 
   56000    253.11701      13675.3     2924.207    24.255618 0.0095768535 -0.015659021  0.021808701 
   57000    257.06959    11170.881     2924.207    28.531823 -0.032720628  0.011455353 -0.0094323312 
   58000    255.19629     15506.73     2924.207    32.561111 -0.045611493 -0.055667983 -0.025045028 
   59000    239.13089        15717     2924.207    27.007087 0.0009737736  0.031204255 -0.014757012 
   60000    252.74005    20091.541     2924.207    21.181011 -0.011498392 -0.029481194 0.0035372884 
   61000    300.01802    12407.898     2924.207     21.05878 -0.020811265  0.021547047  0.039031969 
   62000    231.67983    12317.441     2924.207    23.317617 0.0090290467 -0.027005176  0.026322057 
   63000    276.03531    15435.228     2924.207    24.937165 -0.018058294 -0.011342067 -0.0012068272 
   64000     250.4865    14677.882     2924.207    25.820333  0.017314071 -0.022183562 0.0082133118 
   65000    265.57667    14213.191     2924.207    28.411009 0.0092573139 -0.041450277 -0.0080403206 
   66000    248.93693    12033.665     2924.207    30.769082  0.018642333 -0.0035533402 -0.007103009 
   67000    263.59122    19547.023     2924.207    32.170614  -0.05012361 -0.0046716882 -0.015963975 
   68000    288.32687    5806.8775     2924.207    33.061756 -0.014559664 -0.052270078 -0.016472846 
   69000    261.01422    13886.603     2924.207    32.453588 -0.0045093256 -0.0087896904  0.016922542 
   70000     275.4186    14010.156     2924.207    28.029871 -0.0058231049 -0.025761264 -0.015279867 
   71000    268.07112    12090.799     2924.207    21.460807 -0.010647869  -0.03302434  0.016947345 
   72000    278.79891    10538.984     2924.207     19.41117 -0.036130972 -0.0085743864  0.026353525 
   73000    270.29858    18692.537     2924.207    21.876638 -0.013886244  0.016331942 -0.0009146179 
   74000    266.95157    7836.2604     2924.207    25.489108 -0.0056365569  -0.01032975 -0.013945713 
   75000    279.34014    15923.644     2924.207    30.585977 0.0057043602 0.00053131996  0.038911458 
   76000    266.10295    13246.429     2924.207    31.841506 -0.022226272   0.03046299  -0.02228029 
   77000    263.08766    15197.421     2924.207    25.103184 0.0098180677 -0.0063994605  0.025935653 
   78000    277.23119    12218.941     2924.207    17.512111  0.014014713 0.0051958439 -0.013627924 
   79000    250.94863    11877.766     2924.207    19.514028 -0.026638072  0.023145833  0.011820858 
   80000     247.0783    21053.174     2924.207    26.944308  0.039253446 0.0060900868 0.0051580054 
   81000    256.09823    12229.433     2924.207    31.924097 0.0049103749 0.0024019757 0.0016519215 
   82000    258.17426    9507.7329     2924.207    30.196479  0.024434009 0.0062787245 -0.047358995 
   83000    288.69583    9587.7124     2924.207    22.315953   0.01194913 0.0056435424 -0.015376154 
   84000    259.23544    11554.771     2924.207    19.365948   0.01726273 -0.012491187 -0.022743511 
   85000    262.16368    16055.033     2924.207    25.469382 -0.0035722844  0.013678011  -0.02112121 
   86000    264.21017      17757.1     2924.207    33.375836 -0.011945916 -0.016733819 -0.022507566 
   87000     253.4523    10671.967     2924.207    31.895039 0.0045788181  0.014533726 -0.013990713 
   88000    289.73808    17947.191     2924.207    27.335762 -0.019553501  0.016678302 -0.028698112 
   89000    267.11275    13493.208     2924.207    27.827753 -0.023743474  0.017646889  0.026802796 
   90000    271.67918    9743.6091     2924.207    30.358992 -0.00056867277  0.017682452 -0.0055337004 
   91000    255.80788    14465.819     2924.207    32.724924  0.012850706  0.015432392  0.024461675 
   92000    258.72479    20803.277     2924.207    29.927523 -0.040833271 -0.018498263  0.031843064 
   93000    263.96793    9842.7335     2924.207    24.945581  0.016129727 -0.012620467 -0.012017066 
   94000    282.28448    13751.448     2924.207    24.969104 -0.0039042498 0.0066782311 -0.009873231 
   95000    248.13587    11277.565     2924.207    30.402155 -0.016225545  -0.03411977 -0.0052809581 
   96000    257.33826    13746.258     2924.207    33.432521  -0.04210198 -0.017339089   0.04003435 
   97000    274.12775    16122.836     2924.207    34.358174 0.0047235811 0.0083661602  0.008554486 
   98000    276.92294    11378.819     2924.207    35.101912 -0.019950087  0.012377057 -0.0078098646 
   99000    266.25204    14021.882     2924.207    35.720061  -0.01329916  -0.01965899  0.010533281 
  100000    262.83567    13898.798     2924.207    35.282431 -0.046470575  0.008096065  0.055763594 
  101000    272.51646    16678.042     2924.207     32.16548 -0.00039090239  0.014062041 -0.015674886 
  102000    265.98267    10109.562     2924.207    31.571837 -0.0091927025  0.028796756 -0.045918509 
  103000    275.19446    11342.726     2924.207     33.15376 5.7772922e-05  0.041758527  0.037518839 
  104000    267.56738    16878.739     2924.207    35.590618 0.0079069323 -0.012092082 0.0013937235 
  105000    261.42383     15304.64     2924.207    35.014959 -0.028426175 0.00073565589  0.011040746 
  106000    254.25113    11090.333     2924.207    30.849251  0.016691155 -0.046669277  0.045335004 
  107000    284.30888    16038.801     2924.207     30.94012 -0.00068853817 0.0076766667  0.020262482 
  108000    261.71436    9863.9048     2924.207    32.715153 -0.0092902301 -0.011927199  0.031345874 
  109000    251.79794    15866.985     2924.207    32.552217 -0.0086777191 -0.0053749753  0.026086788 
  110000    259.59732    10919.319     2924.207    29.127311 0.0066483964 0.0044793291   0.01254182 
  111000    278.06688    8458.6622     2924.207    24.348066  0.016790085 0.0077150184  0.037429434 
  112000     236.2311    18621.043     2924.207    24.426992 -0.0074966902  0.014072023  0.012147498 
  113000      256.507    12522.001     2924.207     29.56593  -0.01956043  -0.01093658 0.0072260361 
  114000    271.85564    4063.9799     2924.207    34.296159 -0.0097768721 0.0048780773  0.028457633 
  115000    237.73173    19101.312     2924.207    33.969745  0.017734863 -0.052001061 -0.014346807 
  116000    272.53423     5624.285     2924.207     28.83425 -0.028482375 -0.0038537618 -0.020036467 
  117000    277.91961    13479.195     2924.207    28.173984  0.013692272 0.0088568053  0.011453445 
  118000    267.56643    12825.689     2924.207    27.827472  0.013067017  0.015904923 -0.033287905 
  119000    263.93693    9745.1871     2924.207    30.178219 -0.024417479  0.032011001 -0.026408043 
  120000      241.668    11219.239     2924.207    32.249168 0.0064915856 -0.015864437 0.0013108098 
  121000    283.29988    14198.792     2924.207     32.48999 -0.0063957781 0.0075595586  0.021145654 
  122000     235.4451    15102.549     2924.207    31.536768  0.014461293 -0.019140017 -0.0088642738 
  123000    270.97092    13439.891     2924.207    30.684191  0.048926525  0.010180581  0.010912614 
  124000    260.99025    11080.777     2924.207    29.986841  0.005395613 -0.0065920918  0.022645563 
  125000    265.98824    16880.756     2924.207    32.593171   0.03407781  0.010652493 -0.037072607 
  126000     273.7715    13710.453     2924.207    34.298599 -0.024273141 -0.0022345658 0.0065103718 
  127000    273.27346    8212.6853     2924.207    31.666869   0.02098888  0.024235165 -0.013678225 
  128000    250.67659    11642.439     2924.207    28.402886 -0.0081642146  0.013294432  0.024565198 
  129000    271.57919    5110.4911     2924.207    28.395825   -0.0311572 -0.00010613452 -0.010430012 
  130000    259.48929     16301.33     2924.207    27.708611 -0.030788831 0.0010149821 -0.024625252 
  131000    256.11629     14994.15     2924.207    24.942662 0.0036671372 0.0065014572  0.028541787 
  132000    272.99171    18066.652     2924.207    26.051242  0.018752987 -0.032510938  0.052071839 
  133000    280.46687    9705.7533     2924.207    27.486726 -0.0037491327 -0.0023499604  0.012396333 
  134000    242.62538    13928.321     2924.207    23.189878  0.015614193  -0.01774124 -0.030827044 
  135000    282.24309    13077.585     2924.207     19.64657 0.00010590212  -0.01276338 -0.0066901503 
  136000    263.21449    12204.246     2924.207    22.972109 -0.0056944287 -0.011541293 -0.0036279636 
  137000    265.37797    17309.077     2924.207    29.017507 -0.027431931  0.010377559 0.0042866819 
  138000    286.32683    5568.8587     2924.207    32.330913  0.014673925 -0.024897632  0.025952831 
  139000    252.28305    20183.344     2924.207    31.515479 -0.011367949 -0.011543841  0.023779634 
  140000    260.71076    14846.619     2924.207    25.954045 0.00022348739 -0.0073797536 -0.0018897855 
  141000    248.34263    16919.801     2924.207     20.64776 -0.0043862131 -0.0098190591  0.022878294 
  142000     267.8236     11408.19     2924.207    21.581724 -0.036625051  0.017587143 -0.028870981 
  143000    253.61495    18077.465     2924.207    28.107285 -0.022423521  0.029276526 -0.012200914 
  144000    273.28933    9963.0775     2924.207    34.046817 -0.020233128 -0.0015002111  0.019220917 
  145000    276.80574    10029.688     2924.207    34.418239  0.029557407 -0.0011977759 -0.020507104 
  146000    266.63884    17135.429     2924.207    30.665066 -0.0051833165 -0.015889718  0.019730725 
  147000    272.53388    4858.8391     2924.207    26.394765  0.022546784  0.020057276  0.013289933 
  148000    280.90301    16631.743     2924.207    25.097203 0.0041456764  0.028679897  0.023327885 
  149000    256.46232    13756.776     2924.207    26.813433 -0.030079067 0.0076617435  0.025834212 
  150000     257.2224     14448.29     2924.207     32.44584 -0.0043491878  0.019284948 -0.025654051 
  151000    274.87457     14090.09     2924.207    35.268627 -0.025658456  0.018644185 -0.015352247 
  152000    268.63439    14495.604     2924.207    33.893892 -0.0079055933  0.019654712 0.0070407566 
  153000    266.90168    13385.903     2924.207     31.77268 -0.017138769 -0.014604955 -0.0003777544 
  154000    270.64328    10023.227     2924.207    30.681314 -0.005849756  0.008925716 0.0016641252 
  155000    277.67336    10681.284     2924.207    30.765142 -0.0010332987  0.061803832 -0.014911901 
  156000    258.45416    15362.293     2924.207    31.129648 -0.0015092279  0.024905324  0.026581271 
  157000    274.03129    9982.1055     2924.207    30.793402 -0.0065195933  0.027585768 -0.010044676 
  158000    261.60892    8212.6153     2924.207    31.186435 -0.024941571 -0.0043660791   0.03170155 
  159000    240.09456    18621.921     2924.207    31.601669 0.0094722817  0.011811553 -0.00060095752 
  160000    286.30521    16923.596     2924.207    30.798803 -0.00068375684 0.0041212806  0.053790452 
  161000    247.93221    9445.8597     2924.207    30.114542 -0.013639617 0.0043044951 0.0005686271 
  162000    274.72588    9242.8418     2924.207    29.858388 0.0021961614 0.0052815263  0.014478141 
  163000    243.93267    11053.356     2924.207    30.811526 -0.0081966791     0.015154 0.0038565558 
  164000    266.59938    17332.634     2924.207    28.112564 0.0084032855  0.014132608 -0.011797417 
  165000    294.50245    7810.5008     2924.207    24.012426 0.0027806226  0.024506003  0.010155634 
  166000    239.44418    12580.276     2924.207    24.879313 0.0052328801 -0.0088013566  -0.01189783 
  167000    242.22424    12027.945     2924.207    29.362665 0.00097573519 -0.048268319 0.0087004147 
  168000    238.47971    23955.442     2924.207    32.988195  0.035028099 -0.0056394662 0.00023261231 
  169000    265.40286    7960.9132     2924.207    32.185091  0.025901989 -0.0065268968 -0.018489657 
  170000    271.32613    8176.0391     2924.207    27.228242  0.042276752 0.0091175591  0.036938368 
  171000    247.82609    17415.123     2924.207    22.170027 -0.019693226  0.012803451 0.0080691678 
  172000    254.41586    17677.919     2924.207    19.304556  -0.01351309  0.029006629 -0.0030385592 
  173000    277.51671    9464.2612     2924.207    21.188215 0.0096472468 0.0019610388 -0.0072077084 
  174000    268.62609    9299.7196     2924.207    26.390957  0.024966661  0.036042451 0.00032722096 
  175000    260.31176    12463.282     2924.207     25.67188  0.016303985 -0.030554504   0.01062131 
  176000    255.67885    9378.7957     2924.207    19.551503 -0.0034826214 -0.0099663775  0.015846362 
  177000    290.54137    11499.963     2924.207    21.560937  0.015214259 0.0092044954  0.024462772 
  178000    250.70876    15750.032     2924.207    21.570314   0.00584511 -0.0059679723   0.04893415 
  179000    274.09955    14075.933     2924.207    15.042608  0.016049527  -0.01027687 0.00024340818 
  180000    265.99113     15213.12     2924.207    23.907207 -0.011071613  0.022967364  0.019614231 
  181000    274.31497    6240.2344     2924.207    33.197501 -0.0080277911  0.017147732 -0.0046823296 
  182000    253.85452    17459.529     2924.207     27.93207 -0.0032979977 -0.013855343  0.029691568 
  183000    282.47914    6305.7373     2924.207     25.74931 -0.0046100243  -0.01787817  0.012928088 
  184000    300.43714    11049.409     2924.207    27.137969 0.0060695951 0.0082610094  0.018125913 
  185000    253.33106    9661.4755     2924.207    24.116215 0.0032390967 -0.023920416 -0.015013151 
  186000    257.30296    21216.736     2924.207    25.055533 -0.019135142 -0.0089618602 -0.041483602 
  187000    252.63912    7864.3246     2924.207    28.651134 0.0025012402 -0.0088843234 -0.023590388 
  188000    279.24523    14662.045     2924.207    30.089222  -0.01071691  0.025640536  -0.04997985 
  189000    261.56069    10834.457     2924.207    27.917122 0.0005342488  0.010919485 -0.049473507 
  190000    261.72789    15063.095     2924.207      26.2045 -0.0057732403 7.7553858e-05 -0.043367289 
  191000    264.17371    15873.909     2924.207    25.242575  0.020778061 -0.0081505621 -0.0074395318 
  192000    269.53757    8697.8567     2924.207    28.604966 -0.012126458  0.016637906  0.019363051 
  193000    259.76548    11823.117     2924.207    31.406177  0.047307127 0.0014880797  0.040301375 
  194000    259.50306    10566.924     2924.207    28.974042 -0.021643504  0.036221801 -0.0046037161 
  195000    264.87069    15968.335     2924.207    24.956925 -0.033690406  0.065520114 1.4390815e-05 
  196000    252.38761     9070.439     2924.207    23.435313  0.031809226 0.0087334647  0.017303752 
  197000    242.45321    20582.866     2924.207    26.880176  0.016205185 -0.024471815 -0.0055103981 
  198000    285.45714    2546.0696     2924.207      29.7842  0.017670868 0.00091310506 0.0063561838 
  199000    254.88431    14578.824     2924.207    31.731174 -0.036480697  0.027410447 -0.023627903 
  200000    264.82236    8760.7323     2924.207     29.39588 0.0063339566 -0.012564798   0.01448633 
  201000    270.07891    7029.2225     2924.207    24.708503 0.0060763275   0.02749435 -0.012436069 
  202000    278.71404    15624.605     2924.207    25.047716 0.0057178517  0.019528022  0.014615593 
  203000    273.36621    13814.312     2924.207    29.960891  0.001676134  0.045062988  0.044949983 
  204000    266.43222    11506.171     2924.207    33.171405 -0.047979006 -0.0060574896 -0.010055593 
  205000    283.87803    6634.9401     2924.207    32.581084 -0.033169799 -0.011708343  0.023022963 
  206000    249.01006    13780.704     2924.207    26.752001 0.0031859394 -0.0046412037 -0.010480607 
  207000     271.0919    8636.8711     2924.207    21.243031 -0.039272507 0.0039569787  0.014808814 
  208000    268.07023    8233.3722     2924.207    24.109245  -0.03140198  0.017763983  0.051555726 
  209000    272.76916    12260.458     2924.207    31.163618 -0.0053786198 0.0091189732  0.019964911 
  210000    274.10935    14170.073     2924.207    32.101836 -0.0042721213 -0.0029514845 0.0012029827 
  211000    275.84934    6653.3655     2924.207    28.330994 -0.011740613 -0.022324217  0.014097958 
  212000     272.7218    10373.503     2924.207    26.476554  0.023205444 -0.0029278359 -0.016318143 
  213000    269.13513    13055.224     2924.207    26.937878  0.017321355 0.0099661982 0.0039705356 
  214000    277.64982    10953.593     2924.207    29.390843 -0.0066089437  0.018138625 -0.0007349481 
  215000    268.27503     11808.96     2924.207    30.783318  0.021940206 0.0086990449 -0.038027045 
  216000    277.24811    7982.2914     2924.207    28.094581 0.00067305236   -0.0400405  0.012824113 
  217000    256.50446    12078.686     2924.207    22.006059 0.00061164686 -0.012831536 -0.0097306853 
  218000    262.02364    14658.663     2924.207      19.7031 -0.019152569 -0.0015836011 -0.0074737322 
  219000    278.78285     10844.88     2924.207    25.956518  0.027238789  0.019973897 -0.0097199154 
  220000    250.73925    15123.061     2924.207    31.852617  0.011430804 0.0066561639 -0.012379035 
  221000    255.96805    13581.805     2924.207    32.667619 0.0049814237  0.017383816  0.039621638 
  222000    285.79715    15197.023     2924.207    29.465924  0.028379076 0.0042182328 -0.012503312 
  223000    250.56416    8226.9526     2924.207     25.95902 -0.0018594494 -0.023339953  0.015620287 
  224000    268.18612    16621.293     2924.207    23.409283  0.043954401  0.040273508  0.013356398 
  225000     248.0055    8540.3829     2924.207    25.679174 0.0087413999 -0.015977943   0.02393985 
  226000    277.69506    18112.067     2924.207    29.700667 0.0083883396 -0.020014611 0.0099636264 
  227000      255.072    3803.6056     2924.207    31.814072  0.027009521 -0.0017566803  0.018377814 
  228000    272.88394    21227.703     2924.207    32.859672 -0.0050721937 -0.017631179 0.0081759793 
  229000    260.98736    3909.2258     2924.207     34.12699  0.013372384  0.017724479 -0.0073377413 
  230000    272.36266    15107.546     2924.207    34.573374  0.020160516 -0.0062906521  0.022933323 
  231000    242.62659    15888.219     2924.207    33.691006 0.0094084746 -0.013926204  0.017806732 
  232000    246.99241    10970.354     2924.207    31.217632 -0.011611536  -0.03151253 -0.0058063947 
  233000    261.33224    13079.293     2924.207    28.785354  0.028994122  0.015741401 -0.010764743 
  234000    254.21539    12339.521     2924.207    26.647901 0.0071535044 -0.019543235 -0.0055743133 
  235000     276.8905    10551.393     2924.207    27.192614 0.0042855623 0.0045009242 -0.020846128 
  236000    266.63921     12058.53     2924.207    27.376164 0.0074471697  0.013829168 0.0056275953 
  237000    252.11833    6309.4485     2924.207    30.738629 -0.022935937  0.014889768  0.018072178 
  238000    255.08801    13787.945     2924.207    33.229459 -0.0042287458 -0.0011579925 -0.0028173933 
  239000     255.6244    6849.8154     2924.207    33.005432 -0.0083497252  0.046947095 0.0058301571 
  240000    292.27345     11814.34     2924.207    31.026587 -0.020762052 -0.020716762  0.026337381 
  241000    246.62218    14302.274     2924.207    27.822231 -0.005478468 -0.012360489 -0.0086271018 
  242000    267.86424     13396.68     2924.207    26.297657 -0.0032743574 0.0059134198  0.041468664 
  243000    278.40044   -2462.3383     2924.207    28.271866  0.030080516 -0.0020228942 0.0083361871 
  244000    249.53463    25953.232     2924.207    31.927318  0.028411172  0.012666516  0.015661508 
  245000    255.26494    5653.1664     2924.207    31.299287 0.0016048271 -0.047025374  0.036648578 
  246000    262.11539    12708.877     2924.207    30.151802 -0.014921092 -0.009775814 -0.0020305975 
  247000    276.96979    11693.567     2924.207     29.42084 -0.033946717  0.020112043 -0.0038407536 
  248000    258.94986   -1550.1181     2924.207    31.457486 -0.022851367  0.005193759  0.025136875 
  249000    264.77064    20237.476     2924.207    33.453153 -0.015176582 -0.011963027 -0.00080638081 
  250000    259.69261    2583.3964     2924.207    34.424091  0.020996736 -0.00053677172  0.021823483 
  251000    264.94331    9421.8145     2924.207    33.975433 0.0025997827  0.014543044 -0.034542166 
  252000    263.87832     15462.34     2924.207    33.643872 -0.010152137 -0.010060419 -0.015263487 
  253000    255.92874    10815.661     2924.207    34.841781 -0.021369518 -0.029464357 -0.0072447831 
  254000    268.15642    6250.1802     2924.207     34.14287 -0.039001548 -0.015986323 -0.0041513225 
  255000    250.97608    6893.9085     2924.207    30.276187 -0.018873309 -0.037646944  0.026251441 
  256000    264.33546    15012.275     2924.207    29.652853  0.015629525 -0.040621175  0.009677877 
  257000    254.41631    14838.308     2924.207    31.655014 -0.037279525 -0.0019057843 -0.016267183 
  258000    266.61821    3981.2607     2924.207    32.417813 0.0067562944  0.041666781  0.016743687 
  259000    282.64016    8996.1773     2924.207    32.480647 -0.023916231  0.033279456 -0.016421233 
  260000    248.51127    19784.631     2924.207    32.377114 -0.016348311  0.033909348 -0.044848743 
  261000    258.26842    7135.0879     2924.207    32.935768  0.042847355 -0.010921514 -0.015819185 
  262000    264.08729     13663.55     2924.207    32.965844 -0.0067936415  0.016700038 0.0049208168 
  263000    260.11359     8876.262     2924.207    32.050249 -0.026512752  0.001338506  -0.05317894 
  264000    271.26128    11278.217     2924.207      30.8505 -0.013394004 -0.0082689044 -0.010610728 
  265000     257.7612    6963.3661     2924.207    30.107594 -0.011501588 -0.021108698 -0.011512578 
  266000    260.04167    17536.388     2924.207    29.815398  0.024444416 -0.017634802  0.010458097 
  267000    270.56696    2714.8733     2924.207    32.621383 0.0001991375 -0.022385462 -0.012108096 
  268000    260.27272    14347.438     2924.207    35.114264 -0.00073863112  0.019900102 0.0091907714 
  269000    270.53236    9857.3116     2924.207    33.986007  0.011303792  0.029129148 -0.011770319 
  270000    257.66537    7184.8002     2924.207    32.665773 -0.027248817 -0.018999103 -0.014454522 
  271000    287.35955    3700.1754     2924.207    27.932734 -0.0098512341  0.011065875  0.010504738 
  272000    247.76505     19599.72     2924.207    25.195927  0.053094408 -0.0065490631  0.019543084 
  273000    273.50039    5613.8459     2924.207    25.057373  0.043516072 -0.020057786   0.02236034 
  274000    256.91849    9475.7614     2924.207    27.307244 -0.033646575 -0.035826649 -0.0075478062 
  275000    276.71654    11352.571     2924.207    29.170444 -0.026788035   0.02148513 -0.012894371 
  276000    277.49828     4970.379     2924.207    29.648951 -0.017514828  0.011133347 -0.025815757 
  277000    263.58375    11500.534     2924.207    29.894489  0.022908377   0.01618465  0.025864254 
  278000    272.52901    2667.0922     2924.207    31.122783 -0.0075447636 -0.00069961649 -0.0047939341 
  279000    271.70902    15456.553     2924.207    32.969295  0.010130613  0.026926597 -0.0039811596 
  280000    262.69477    15758.874     2924.207    34.662203 -0.00073560743 -0.010526902 0.0028562789 
  281000    252.33164    7532.3079     2924.207     32.63322  0.028091781 -0.013016087  0.034132196 
  282000    248.08118      16469.5     2924.207    28.758801  -0.01752292  0.018558346   0.01924995 
  283000     252.0991      11475.6     2924.207    24.589275  0.012712011  0.016844292  0.034424654 
  284000    268.26267    10122.021     2924.207    22.006584 -0.0034496471 -0.030879415 -0.029019652 
  285000    258.49729    11343.604     2924.207    25.348006 -0.020202181 0.0033775852 -0.023272029 
  286000     248.6383    17096.691     2924.207    31.780039  0.011134604  0.018190517 0.0069589612 
  287000    265.33805     7966.678     2924.207    33.032107  0.009394326  0.013708628  0.015915924 
  288000    248.20635    12233.519     2924.207    28.947361 -0.0019963881 -0.026872056 -0.022912702 
  289000    241.24483    21353.028     2924.207    23.916924 -0.057215698 -0.0082155111 -0.0037125356 
  290000    277.81713     4615.569     2924.207    20.430585  0.038182331 0.00030357509 -0.038505108 
  291000    265.06406    20817.879     2924.207    21.460083  0.011237003 0.0049199104 -0.031843205 
  292000    251.86438    6673.2747     2924.207    25.445629 0.0028127807 -0.019766539 -0.010221954 
  293000    268.34413    12336.966     2924.207    27.353769 -0.024500534 -0.028278234 -0.0016902696 
  294000    251.37518    10187.646     2924.207    25.337077 0.0090488599 -0.043968299 -0.014661372 
  295000    281.08993    11912.439     2924.207    21.937602  0.015281018 -0.026791222 -0.015135999 
  296000    258.49626    16665.248     2924.207    21.927632  0.019727037 -0.012132835 -0.024949337 
  297000    262.03621    6984.8973     2924.207    27.022953 -0.0076183522 -0.0014857688 0.0023152866 
  298000    260.28019    13088.695     2924.207     33.65302  -0.04572149 0.0012869582 -0.0078257458 
  299000    264.33682    4236.9062     2924.207    33.046887  0.016023325 0.0012782852 -0.035527248 
  300000    259.19955    11944.664     2924.207    27.482138 -0.018510793 -0.014691105 0.0048925731 
  301000    258.57479    9783.4256     2924.207    26.640172 -0.021193957 -0.016150448  0.065376812 
  302000    258.51804    13278.734     2924.207    29.449633  0.015439382 -0.051155079 -0.011902659 
  303000     254.9886    9359.3498     2924.207    30.861843 -0.0033147977 -0.015274134 -0.0028201745 
  304000    255.50138    9924.8577     2924.207    29.649231 0.0052850343 -0.0029589057 -0.017443482 
  305000    235.90649    15263.664     2924.207    28.595893 -0.0050643589 -0.009818556  0.020198459 
  306000    266.35027    7220.7765     2924.207    29.153396 -0.032092784 -0.0062656984 -0.0096679546 
  307000    250.80428    15054.095     2924.207    31.051169  0.027410564  0.016003657 0.0038681184 
  308000    249.35999    20160.543     2924.207    32.025865 -0.014025839 -0.0036772301 0.0028126941 
  309000     262.6129    5596.4489     2924.207    30.975317  0.019343749 -0.010169302  0.041245507 
  310000    240.56757    20603.816     2924.207    29.019044 -0.028734948  0.034367556 0.0027846709 
  311000    251.49804    11032.128     2924.207     29.14523 0.0085717354 -0.0053789198 0.0052029493 
  312000    251.61958    11317.857     2924.207    29.340846 -0.0081458106 -0.0039595499 -0.027946963 
  313000     241.9805    14021.827     2924.207    29.653289 0.0083150389 -0.023720953 -0.024739671 
  314000     267.5905     10047.23     2924.207    28.674696 -0.019196674  0.014438811 -0.0016718553 
  315000     240.2311    15349.829     2924.207    27.199142 -0.019919084 -0.0090434661   0.01229297 
  316000     261.2064    12185.543     2924.207    27.925627  0.013953452  0.018822897  0.010760913 
  317000    236.32292    14860.431     2924.207    30.412201 -0.0078218819 -0.014402325 -0.023965964 
  318000    257.31203    7671.1101     2924.207    32.200172  0.013442495 -0.007584408 0.0062536434 
  319000     241.4551    17095.483     2924.207    33.202845  0.027692033 0.0023240123 0.0048016509 
  320000    247.77998     10145.23     2924.207    31.121361   0.01254229 -0.0055544813 0.0011454288 
  321000     248.2957    10559.462     2924.207    27.215585  0.013053366 -0.038615324 -0.0074928307 
  322000    225.93747    16191.083     2924.207    23.239822 0.0056436717 -0.025896897 2.8199106e-05 
  323000    272.60345    12337.648     2924.207    19.377082 -0.010559929  0.045668135 0.0033502926 
  324000    248.46477     15064.79     2924.207     22.05068 -0.0087104015  0.018570294 0.0033528811 
  325000    255.19499    13157.364     2924.207    28.365976 0.0008783168  0.014544643   0.01631774 
  326000    264.97476    12376.631     2924.207    33.825245  0.030752772 0.0010742298  0.023684379 
  327000    257.31548    12630.996     2924.207    36.069528 -0.044648949 -0.0079760636 -0.004117956 
  328000    254.39696    10640.264     2924.207    33.763608 -0.025361854  0.052686314 -0.0010863079 
  329000    261.72255    11349.485     2924.207    31.798431 0.0044060543 -0.012476128 0.0064262055 
  330000    260.55145    7232.2765     2924.207    32.497189 -0.0028156737  0.011465355 -0.0040415145 
  331000    249.31446    13111.743     2924.207    32.891041  0.015947156 -0.010888937 -0.013229137 
  332000    247.01588      8667.91     2924.207    32.317444 -0.023359209  0.036765295  -0.01022214 
  333000    264.59666    13277.868     2924.207    31.213615 -0.0021215558 -0.024823402 0.0098372363 
  334000    257.76046    10679.478     2924.207    33.503751 -0.015542603 -0.026794138  0.014414449 
  335000    239.38861     7870.024     2924.207    33.754633  0.019388339 0.0097596298  0.030762146 
  336000    249.05544    17089.338     2924.207    31.943581 -0.013872026  0.030322279 -0.0057885789 
  337000    253.50895    10265.255     2924.207    30.556552 -0.049108965  0.013147874 -0.011256945 
  338000    258.27684    15412.999     2924.207    28.603693  0.024378105 -0.011329117 -0.0094032768 
  339000    253.43712     11527.36     2924.207    26.091421  0.014279729  0.025873334 -0.043602141 
  340000     254.4213    11401.798     2924.207    25.938563 -0.0059993668  0.019825448 -0.039039161 
  341000    261.36814    7252.4509     2924.207    28.512313 -0.0081786916   0.02759617 -0.0021726687 
  342000     249.6528    9453.9548     2924.207     28.99756 -0.011550682  0.010514462 -0.0062334915 
  343000    260.01334    9859.6677     2924.207    27.922154  0.019351577 -0.0090518078 -0.00079925028 
  344000    262.87333    13001.863     2924.207    27.962804 0.00015873542 -0.0095913264 -0.038612461 
  345000    271.67418    7037.1701     2924.207    29.495486 -0.020023652  0.028882067  0.018269175 
  346000    244.51773     20417.25     2924.207    32.981482 0.0059515266  0.021177069 0.0081947398 
  347000    261.30363     11389.74     2924.207    35.615243 -0.031433404 0.00063608859 0.0081987655 
  348000    255.56107    10998.765     2924.207    31.217265 -0.00034741036 0.0040795703  0.020017159 
  349000     245.0261    7901.0038     2924.207    22.259419  0.016795047 0.0033659908  0.012088391 
  350000    257.58854    8802.1728     2924.207     16.63074  0.017140226 -0.0065307064  0.016821115 
  351000    252.72481    9480.7676     2924.207     21.74086 0.0016758022  0.041669818 -0.0012613051 
  352000    251.54216    10463.534     2924.207    26.782158 0.0076029793 -0.018241792  0.010689199 
  353000    250.00769    9509.0992     2924.207    28.682396 -0.0040732247 -0.012701755 0.0080680396 
  354000    255.91303    14060.943     2924.207    30.099388 -0.031371894 -0.0052829111  0.018910602 
  355000    239.81439    10516.148     2924.207     32.73866 -0.020512196 -0.0018549812 -0.0072602226 
  356000    267.02427     9554.169     2924.207    33.649482 -0.0014912027 -0.028656773   0.01282321 
  357000    268.77201    7255.2564     2924.207    32.317993 -0.011720508 -0.030668926 -0.020733108 
  358000    261.70983    8373.8735     2924.207    30.980332 -0.016040284 -0.057679305 -0.018859878 
  359000    256.99341    8123.8637     2924.207     29.00173 0.0063438384  0.030261187 -0.0012563642 
  360000    268.51278    7909.5195     2924.207    25.746794  0.016946631 -0.033813537 -0.035253202 
  361000    249.67881    16489.271     2924.207    24.420536 -0.025299801 -0.0014295152 -0.006847964 
  362000    258.58859     5383.983     2924.207     22.77441 0.0017950564  0.012023543 -0.067429691 
  363000    259.29019    13991.127     2924.207    21.514219 0.0075627318 -0.032734274 -0.018087746 
  364000    262.63243    3880.3539     2924.207    24.173298 -0.006686873  0.014011467  0.016584733 
  365000      258.397    13698.006     2924.207    28.634871 -0.0064442489 -0.021572821 -0.0054780013 
  366000    257.56261    7716.3299     2924.207    32.228545 -0.016704967   0.01367191 -0.012535754 
  367000    267.14365    16984.691     2924.207    31.817502 -0.044103634 0.0010648629 -0.024525773 
  368000     250.5176    5410.9514     2924.207    31.908876  0.013221837  0.021537225 -0.0016093452 
  369000    258.27065    12758.453     2924.207    32.457924 -0.023251782 -0.0055381915  0.033875228 
  370000    256.55332    18730.754     2924.207    33.168313   0.03866658 0.0061930523  -0.02070681 
  371000    252.15662   -258.44738     2924.207    33.222745  0.042202316 -0.00044358077  0.019097429 
  372000    254.82222    11644.366     2924.207    31.113542 -0.023540533 -0.018643878  0.010784443 
  373000    249.61891    11991.871     2924.207    30.312342 -0.053500831  0.041658375 -0.0044290228 
  374000    256.73132    10541.774     2924.207    28.378053 -0.040769764  0.021512913 0.0076104687 
  375000    260.34899    12742.069     2924.207    26.366584  0.031088187 -0.014974257 -0.010586506 
  376000    263.38727    9275.7753     2924.207    26.574535 0.0011364365 -0.00045814018 0.0059877896 
  377000    269.13754    974.04096     2924.207     26.33942  0.010358722 0.00052096955   0.02097831 
  378000    260.46954    11450.183     2924.207    25.922189 0.0072789794 -0.00016496791  0.018257687 
  379000    259.84829    7461.9427     2924.207    27.246873 0.0053873535 -0.012106569 -0.0035944283 
  380000    277.09647    8516.3968     2924.207    30.180343 -0.019486543 -0.034132741 0.0069042045 
  381000    252.89327    10951.013     2924.207    32.884546 -0.018042175   0.02131404  0.011436893 
  382000    266.46497    3639.5357     2924.207    33.836132 -0.0046585111 -0.0041633596 -0.0046454869 
  383000    261.55932     6284.185     2924.207    33.020645 -0.041070206 -0.023818773 -0.005149318 
  384000    258.77063    10014.018     2924.207    33.344046 -0.016926514 -0.0054802124 0.0016953749 
  385000    264.58181    11699.949     2924.207    31.593169 -0.024668496 -0.0014186185  0.029392921 
  386000    265.28716    6127.4257     2924.207    30.306952  0.013716794  0.025504528  0.024603683 
  387000    251.28722    7136.7524     2924.207    31.885704 7.6314643e-05  0.014784992 -0.011567765 
  388000    257.79008    17950.258     2924.207    30.645048 -0.016695602  0.010909606 -0.035162255 
  389000    278.21226    12339.913     2924.207    26.539855  0.022418735 -0.012062475  0.035210757 
  390000    244.90773    5240.0137     2924.207     25.68429 -0.027970013 -0.015291191  0.033317085 
  391000    264.77435    12314.818     2924.207     28.66268 -0.037384339 -0.027093247  -0.02691346 
  392000    257.68262    9214.0925     2924.207    32.116402  -0.01493532 -0.0086847823 -0.015803638 
  393000    262.66614    9869.2207     2924.207    34.745062 -0.0046713213 -0.0024896238 -0.019157509 
  394000     277.4971    11592.464     2924.207    33.152699 -0.0061873264 -0.032962021  0.060139477 
  395000    270.58027    5176.2691     2924.207    26.338188 -0.022273653  0.035016177 -0.0096592379 
  396000    263.74394    14096.387     2924.207    19.711052  -0.01645493  0.033881809 -0.00077107347 
  397000    272.55231    1292.6833     2924.207    17.858451  0.010304664 -0.010385948 -0.018978366 
  398000     257.6795    19271.046     2924.207    19.904809  0.036340521   -0.0429611 -0.031604237 
  399000     267.6356    5692.6104     2924.207      20.9084 -0.017539178 -0.0083020276 -0.018757928 
  400000    257.19091    13785.607     2924.207     21.53281  0.003852314 0.0094431961 -0.023501302 
  401000    261.01039    8865.7808     2924.207    25.405909 0.0089315537  0.032418808  0.016026656 
  402000     272.3234     6523.032     2924.207    30.482713 -0.0048262558  0.014791491 -0.010763416 
  403000    268.95955    10075.066     2924.207    32.092941  0.010342304  0.014154119 -0.017406011 
  404000    249.44058     9352.763     2924.207    32.041197  0.009619831 -0.018590337 -0.0067138872 
  405000     257.0833    3363.9593     2924.207    29.184468 -0.039611064 -0.040742866 -0.001184874 
  406000    262.17136    12042.689     2924.207    26.525469  0.025002267  0.035346391 -0.010369496 
  407000     267.1968    10045.193     2924.207    27.622793 -0.018843713 -0.0026960735 0.0052142167 
  408000    254.77125    12265.949     2924.207    30.620824 -0.0033275734  0.021590147 -0.0056416731 
  409000    262.46693    13036.758     2924.207    32.486996 -0.027470017  0.034434109 -0.032208528 
  410000    272.32015    9438.0672     2924.207    32.559152 -0.037078204 0.0018229557 -0.018044761 
  411000     256.8048    8368.4497     2924.207    30.738169  0.050038163 -0.0014303904 -0.018533146 
  412000     252.4126    15508.279     2924.207    28.406336  0.049998746  0.021066975 -0.0005064469 
  413000    253.96101    7013.6717     2924.207    29.537993 0.0096654974 -0.001481755 -0.033872025 
  414000    271.96801    3760.6938     2924.207    31.647355 0.0089744164 -0.012779377  0.014591948 
  415000    248.39124    11018.113     2924.207    31.657604 0.0088451376  0.025752095 0.0037895125 
  416000    250.84935    16680.139     2924.207    30.539207 -0.010338361 -0.037027503 -0.011195449 
  417000    266.93066    5659.6928     2924.207    29.529959  0.037854433 -0.028273007 0.0044979271 
  418000    251.65786    9838.3813     2924.207    28.810411   0.02491548  0.018025326  0.030503356 
  419000    253.53894    15009.732     2924.207     30.25805 0.0092453389  0.028827605  0.028524973 
  420000    246.45431    4843.7504     2924.207    30.345313 -0.0036810932  0.011960532  0.012180268 
  421000    265.59335    15921.238     2924.207    30.565912 -0.0091695879 -0.013751539  -0.05112353 
  422000    263.47088    14530.811     2924.207    30.863844 -0.0096955364 -0.015310377 -0.016000148 
  423000    248.85331    9738.4236     2924.207    30.680119 -0.00064405668 -0.0044328156  0.025767401 
  424000    248.67272    12211.354     2924.207    32.337592  0.016886395  0.021429015  0.025034923 
  425000    260.93885     13876.31     2924.207    32.597588 0.0052373949 -0.011567526 -0.0026319204 
  426000    258.68306    4243.5636     2924.207    31.258244  0.029876333 -0.015801506  0.018182257 
  427000    237.19743    16101.323     2924.207    28.554177 -0.013879346 -0.016840655 -0.012752899 
  428000    247.97364    8190.4763     2924.207    26.750638 -0.016655182 0.0038924044 -0.0049687145 
  429000      265.161    14588.617     2924.207    27.991505   -0.0118613 -0.00070882042  0.029366605 
  430000    254.65774   -297.11985     2924.207    27.721457  0.016620815 0.0072655201  0.027892421 
  431000    250.85088    15890.227     2924.207    26.913737 -0.018262807  0.029241034 0.0080232987 
  432000    255.66145    7144.3414     2924.207    25.642534 0.0090921008 -0.011952341  0.010250919 
  433000    270.97666    7227.6144     2924.207    22.882731  0.043212322  0.022711409 -0.011075042 
  434000    258.42135    10751.259     2924.207    21.182517 -0.0080990854 0.0022350402 -0.025324223 
  435000    259.90107    7154.1799     2924.207    20.280555 -0.043282348 -0.0083407671   0.03206187 
  436000    257.72852      11078.2     2924.207    20.547893 -0.013992791   0.01471496   0.02508715 
  437000    236.74553    16336.697     2924.207    19.397502 -0.00032507872 -0.017054099 -0.024820501 
  438000    250.26608    7559.5995     2924.207    18.044187 -0.039064317 -0.0075836935 -0.0036890271 
  439000    265.77597    9410.6129     2924.207    18.886349 -0.00053398074 -0.0061440154 -0.041509374 
  440000    271.56394    2860.1533     2924.207    22.247978 -0.021180672 -0.028811369 -0.0048067128 
  441000    253.11812    15998.585     2924.207     24.54339 -0.0034889901 -0.015891801  0.035252954 
  442000     232.9766    7667.1127     2924.207    26.950138 -0.0045849374 -0.017367504 -0.0022386178 
  443000    257.03877    10962.783     2924.207    25.994843 -0.001144802  -0.02194779 -0.0094621298 
  444000    246.93574    16737.011     2924.207    25.051056 0.0046275051 -0.020476642  0.018193888 
  445000    250.18499    6742.0126     2924.207    27.123171  -0.00464797  -0.01649177  0.034730454 
  446000    250.55537    10747.205     2924.207    31.637666 0.0038109217  0.011548269 0.0072671877 
  447000    244.25898    14678.336     2924.207    34.601128 -0.039679546 -0.030270009  0.023611677 
  448000    267.47021    3010.6166     2924.207    33.773033 -0.019546885 -0.015304361 -0.00013783976 
  449000    234.65978    13343.189     2924.207    29.875796 -0.021535549  0.016347345  0.019579215 
  450000    248.66534      11391.3     2924.207    25.468832  0.012710471 0.0026828168  0.015982298 
  451000    241.90056    6285.8729     2924.207    23.955957 -0.017090325 0.0015297569  0.032057677 
  452000     266.4157    8368.5759     2924.207    26.105498 0.0018149767 -0.059748113  -0.01276802 
  453000    259.98782    11770.814     2924.207    30.644898  0.025020773 -0.038180374 0.00053207755 
  454000    275.02948    10894.132     2924.207    32.613749 -0.00059786986 -0.037664555 0.00010062637 
  455000    259.22144    12513.368     2924.207    30.884213  -0.01476871 -0.022243488  0.006207518 
  456000    253.41107    6074.2277     2924.207    28.400989 -0.033404295 0.0012585469 0.0020147689 
  457000    271.92061    17138.939     2924.207    29.099006 -0.031350624  0.004669906   0.03490709 
  458000    254.94243    7587.5823     2924.207    31.862876  0.012608034 -0.010379203 0.0058889094 
  459000    258.00242    9695.4079     2924.207     31.10881 -0.040652486 -0.0062719878 -0.0035823457 
  460000    235.76207    10480.928     2924.207    22.286344  -0.01833421  0.024594152  -0.02529583 
  461000    251.16241    9790.1888     2924.207    16.113603  -0.01788816 -0.020404544 -0.0062287522 
  462000    261.36823    10929.436     2924.207    18.792192 -0.032132465 0.0088593977 -0.009110611 
  463000    246.65715    12530.379     2924.207    25.554998 -0.040435543 0.0014499284 -0.0056288931 
  464000    267.65484    7741.5155     2924.207    30.666023 0.0094614125 0.0044821881 -0.014686259 
  465000    256.30457    14108.351     2924.207     30.07128  0.041136573 -0.027236679  0.039004414 
  466000    264.07307    9470.1522     2924.207    28.295181  0.013899636  0.021350218  0.034327384 
  467000    245.88129    11464.803     2924.207    28.858778 -0.033862352  0.013983607  -0.00285279 
  468000    245.68882    13593.865     2924.207    31.548786  0.013775351  0.012710785  0.008840565 
  469000    250.36766    8046.1213     2924.207    32.915924 0.0087694482  0.030201974  0.013981859 
  470000    225.69833    10007.953     2924.207     31.03684 -0.0014430952 -0.004464007  0.030898528 
  471000    273.00255    8914.8128     2924.207    23.415233 -0.031815035 0.0010405882   0.02775534 
  472000     257.5799    15443.989     2924.207    21.521552 -0.023399927 -0.027505117 -0.0042118405 
  473000    255.74359    5778.7371     2924.207     23.28386 0.0017393001   -0.0165161  -0.02149291 
  474000    237.55452    7945.0691     2924.207    28.297074 -0.0015708803 0.0074048293  0.020317166 
  475000    242.92627    7272.1166     2924.207     30.24017  0.023710166 -0.021804863 -0.0052901936 
  476000    260.60337    13202.722     2924.207     26.00761 -0.010902973  0.003734509  0.042958018 
  477000    264.26468    3825.3776     2924.207    24.790154 -0.001029784  0.011006523 -0.007194912 
  478000    270.37579    7637.2347     2924.207    31.090446  0.025857974 -0.014909436 -0.0046547389 
  479000    247.02771    7423.8991     2924.207    35.142105 -0.015711899 -0.029610558 -0.0017882746 
  480000    262.26877     15541.52     2924.207    32.734924 -0.025981985  0.024668925   -0.0303336 
  481000    266.22079    8357.2664     2924.207    27.713927 -0.010772741 -0.0017473477 -0.019860004 
  482000    251.45715    6798.9343     2924.207    28.776888 0.0041788696 -0.0052447729 -0.033856229 
  483000    254.67989    14404.213     2924.207    31.458515 0.0034740215 -0.015152409 -0.035485352 
  484000    243.85257    7329.1832     2924.207    29.069588 -0.011207399 0.0081603064 0.0023921577 
  485000    261.77852    13124.074     2924.207    23.951544 -0.021868064 -0.00020980809  -0.01770848 
  486000    255.06854    10299.031     2924.207    26.180488  0.031551893 0.0040692239 -0.0084336799 
  487000    242.62069    9033.3006     2924.207    29.168751 -0.031221592 -0.016548973 0.0048837212 
  488000    241.46561    9153.3309     2924.207    25.799473  0.010920918  0.014729588 -0.0077834429 
  489000    253.12765    5569.0139     2924.207     18.96845  0.016111298  0.021019193 -0.0081328162 
  490000    248.57632    11958.775     2924.207    17.428411 -0.0081476915 -0.020284151  -0.01015073 
  491000    254.16335    8816.0993     2924.207     21.48799  0.030220881 -0.0014601742 -0.053847741 
  492000    246.73517    14795.289     2924.207    26.831964 -0.0012000931   -0.0109944 -0.053785099 
  493000    255.60254    1785.2852     2924.207    29.168731 0.0017563933  0.037237722 -0.018281038 
  494000    241.65289    18198.641     2924.207    27.855389  0.023940266  0.011019903  0.010165416 
  495000    254.57269    6239.1571     2924.207    26.011913  0.008417723  0.014267139  0.014190197 
  496000    253.68646    13682.116     2924.207    28.747917  0.018904088 -0.010919561 -0.0086818195 
  497000    226.00558    13061.917     2924.207    32.759012 -0.050203013  0.026013411 -0.007717553 
  498000    257.28759    4441.3979     2924.207    34.644081 -0.016181254 -0.0097446905  0.033080309 
  499000     229.4029    11445.614     2924.207    33.860454 -0.024373442 -0.0078811961 -0.0020519101 
  500000    249.53061    16262.766     2924.207    30.067513 -0.018319873  0.012454902 -0.032399628 
  501000    249.74497    10954.927     2924.207    24.867376  0.044630475  0.008523684 0.0094411553 
  502000    242.94272    6724.3616     2924.207    24.166903  0.003639255  -0.01494508 -0.024969217 
  503000    235.29219    10676.468     2924.207    25.130598 -0.011285652 0.0027559913 -0.0090533915 
  504000    260.44815    10377.035     2924.207    25.115511  0.011402771  -0.02698636 -0.022939329 
  505000    252.96298    10566.927     2924.207    27.027705 -0.016499823  0.010785004 0.0042365211 
  506000    252.68742    6311.7434     2924.207    30.350827  0.011898839  0.015031947 0.00011298128 
  507000    244.93109    10189.401     2924.207    33.610913  0.011354059  0.028249674 -0.0095668819 
  508000    250.97708    9073.3729     2924.207    34.344415  0.017723598 0.0046735836 -0.051368009 
  509000    249.52137    14493.676     2924.207    31.643663 -0.013907339 -0.003838275 -0.017228712 
  510000    256.20353    7341.8717     2924.207    27.378292  0.016505317   0.02104683 -0.031899019 
  511000    249.95487    15075.118     2924.207    26.666499  0.030452035 -0.013596503 0.0042267473 
  512000    248.71655    18521.448     2924.207    27.396658  0.010808735  0.020024217 0.0091689022 
  513000    253.60322    10863.585     2924.207    27.671635  -0.01052287 -0.011098543  0.021874241 
  514000    239.19537    16683.791     2924.207     27.57689 -0.026603856 -0.021869647  0.013548313 
  515000    242.88531    15736.397     2924.207    26.770267 -0.032679839 -0.014065963 -0.0017888815 
  516000     255.2116   -1792.3904     2924.207    27.483258  0.022972097  0.020195236 0.0063843997 
  517000    238.94541    14094.748     2924.207    30.031061  0.022415406  0.010345362 -0.005747915 
  518000    247.31956    8275.1049     2924.207    32.528188  0.031171747 -0.013847341 -0.0030846113 
  519000    258.98396    7583.7428     2924.207    32.513787  0.010570516  0.002652112  0.008991162 
  520000    255.70564    18959.263     2924.207     30.37678  0.017005265 -0.00039242162 0.00054555729 
  521000    230.32219    8089.6018     2924.207    29.195492 -0.013159184 -0.010569949  0.036417424 
  522000    232.49975     11086.75     2924.207    28.093167 -0.0014443544  0.015339969  0.032521907 
  523000    231.67065    6658.4679     2924.207    28.438337 -0.013960474 -0.021578202 -0.010256898 
  524000    272.98961    10084.634     2924.207    29.611779 -0.016518972 -0.0058622485  0.022440975 
  525000    244.50865    11372.746     2924.207    30.706345 0.0071139744  0.027454309  0.027694136 
  526000    247.58646    11646.878     2924.207    30.595257 -0.018621389 -0.0044379147 -0.0088248713 
  527000    258.09805    12990.785     2924.207    29.857193 -0.028363422  -0.03197408 -0.013062657 
  528000    249.14644    2788.6372     2924.207    31.499708  -0.01341792 -0.0074847345  0.017690944 
  529000    264.55995    14555.187     2924.207    32.940391 -0.00058396781 -0.028131577 0.0023194758 
  530000    238.80104    13220.565     2924.207    35.803965  0.049297387 0.0083912442 -0.0043340566 
  531000    230.91334    15708.254     2924.207    35.435608 0.00096706257 -0.025816315 0.0042257192 
  532000    254.92816    12502.923     2924.207     33.24265 -0.012929244 -0.0025483081 0.0019515898 
  533000    239.76223    15020.255     2924.207    32.083831 -0.034219767 -0.015497122 -0.022658902 
  534000    255.49814    11719.613     2924.207    31.951119 -0.00092467513 -0.025715496 0.0086791594 
  535000    238.06453    8707.6839     2924.207    29.289688 -0.021392287 -0.0021064866 0.0011213433 
  536000    254.23779     9143.797     2924.207     24.34456 -0.0026638585 -0.0056445858 -0.0090985345 
  537000    244.73417    18114.006     2924.207     22.60196 -0.0015827319 -0.0094582815  0.029126352 
  538000    240.72129    4842.8564     2924.207     22.68351  0.003283335 -0.031912896  0.020971154 
  539000    257.74155    7373.9003     2924.207    22.017934  0.054508839 -0.019433713 -0.0059314292 
  540000    247.58701    14395.364     2924.207    21.845207  0.010323869 -0.0045356775 -0.0038716209 
  541000    240.34331    4640.0613     2924.207    26.400515 0.0012948476 -0.0099301241 -0.010544422 
  542000    249.23478    16732.016     2924.207    30.055814  0.011790406 -0.0038889449 -0.0027887692 
  543000    261.80373     11269.66     2924.207    31.967941 0.0058565704 -0.008560939 -0.023064569 
  544000    245.60488    14436.882     2924.207    32.046296 -0.027317401   0.01682904 -0.019501855 
  545000    243.66604    10530.484     2924.207    29.993615  -0.02861437  0.027021452 -0.041187318 
  546000     240.8994    21500.557     2924.207    27.502815 -0.0051877917 -0.042850331 0.0052486026 
  547000    269.86998     819.9837     2924.207    26.272577  0.046440845 -0.020105422 -0.0031820385 
  548000    235.98446    11162.137     2924.207    25.541803  0.024014429  0.020523529 -0.025186103 
  549000    243.79799    17004.719     2924.207    25.047248  0.015234504 -0.014460682 0.0099297126 
  550000    248.07638     9482.518     2924.207    22.877244 -0.030365899  0.023475194 -0.023707673 
  551000    249.70569     14538.52     2924.207    21.502813 -0.022478693 -0.017203554 -0.0061651964 
  552000    267.36416    6654.7483     2924.207    22.046328 -0.020124156  0.018003656 -0.0092251779 
  553000    247.73486    15049.031     2924.207    21.689498 -0.027359146  0.006520376 -0.0019115836 
  554000     236.7569    13587.998     2924.207    22.544248   0.01990885 -0.029971871 0.0064096738 
  555000    253.13786    9615.3622     2924.207    26.800539   0.02142277 -0.0098447487 -0.011170169 
  556000    242.02323    17740.725     2924.207    27.140592 0.0099979081 0.0084317457 -0.0088829436 
  557000    239.19143    16064.321     2924.207    24.499112  0.041623713  0.028150631  -0.01636051 
  558000    244.19386    9505.2968     2924.207     20.45275  0.004406321 -0.031812839 -0.0021770852 
  559000    257.43186    8871.0313     2924.207    21.336834 -0.020482301 -0.0091100019 -0.043190215 
  560000    244.95549     14761.67     2924.207    26.795526 -0.0049465207 -0.041489782  0.012018236 
  561000    244.28452    12674.625     2924.207    31.771337 -0.021343149  0.016103306 -0.024352909 
  562000    254.38445    10026.999     2924.207    33.322541  0.017062969 -0.024081198 -0.0056983039 
  563000    259.32184    18689.968     2924.207    33.990048  0.018593658  0.010876242 -0.0050696258 
  564000    252.85546    8413.2268     2924.207    33.796559 -0.0032183593 -0.034571141  0.038325545 
  565000      270.169    6200.0011     2924.207    31.451947 -0.043492559  0.016938302  0.047740928 
  566000    242.87475    10037.398     2924.207    29.114631  0.012606876 0.0071169098 -0.014187547 
  567000    234.39216    15096.137     2924.207     27.90983 -0.0027362103 -0.016808216 -0.0044394241 
  568000    241.04508    10198.507     2924.207    29.316403 -0.00042751899 -0.026964449 -0.007348905 
  569000    232.66657    9720.3582     2924.207    30.701907  0.012900799 -0.00033715663  0.025580527 
  570000    250.73171    9459.9493     2924.207     31.95487 0.0042030736   0.02943159  0.005144845 
  571000    252.50617    9951.7691     2924.207    33.749977 0.0011077066 0.0041369166 -0.0047403478 
  572000    261.00861    11752.206     2924.207    34.498392 -0.0025898065 -0.014534699  -0.01549389 
  573000    229.60869    14935.437     2924.207    35.491626 -0.014334809 -0.027643244 -0.012314694 
  574000    239.90885    7673.5933     2924.207     35.58741  0.012827408 -0.012204853 0.0063867427 
  575000     260.6319    9650.7703     2924.207    34.739811 -0.029312272 -0.039136591 -0.0061726714 
  576000    247.84002    14042.972     2924.207    32.825941 2.5524704e-05 0.0065198069 0.0075668511 
  577000     252.3966    11938.976     2924.207    32.604098  0.015535406 -0.0052725544  0.017623252 
  578000    230.02018    12127.005     2924.207    31.879735 -0.0060371507  0.022802127  0.015640253 
  579000     264.7994    5651.8604     2924.207    30.024816 -0.012565635  0.012661445  0.035188307 
  580000    256.15551    4151.0534     2924.207    28.976539 -0.029832571 0.0021173247  -0.01856361 
  581000    222.50831    18857.093     2924.207    28.532299  0.024943654  0.004282637 0.0068325168 
  582000    249.76223    12137.338     2924.207    27.861243 -0.017080737 0.0074464459  0.025726564 
  583000    274.13044    4408.8096     2924.207    26.138039 -0.010269429  0.027918006 0.00034744371 
  584000    257.07945     18187.76     2924.207    23.014757 -0.037095031  0.020637534 -0.018953136 
  585000    233.55755    20042.985     2924.207    21.264134 -0.018855417 0.00095966277 -0.0041708923 
  586000    264.29701    922.62966     2924.207    22.752359 -0.0072772321 -0.010900831  0.014448113 
  587000    247.74494    17116.483     2924.207    24.870212 -0.0095403455 0.0034875852  0.014125199 
  588000    229.14114    7157.1827     2924.207    26.376206  0.028146766  0.015549595 0.0077113924 
  589000    220.04305    14498.416     2924.207    24.547194 0.0093952726 0.0057420219 -0.013171815 
  590000    244.45163    9414.7055     2924.207    20.110603 0.0079975569 -0.007177946 0.00076625134 
  591000    259.77705    9006.3558     2924.207    18.324844 -0.043125931 -0.002774109 0.0016857853 
  592000    261.65529    8257.8196     2924.207    18.081582 -0.0015815406  -0.01503713 0.0055533605 
  593000    242.67963    7911.1588     2924.207    19.886599 -0.0091623611  0.037986619  0.024994285 
  594000    235.42637    11159.511     2924.207    21.792138 0.0059603301  0.012133081 -0.0040902144 
  595000    269.21856    7088.3478     2924.207    24.402991 -0.041186824  0.026737071 -0.0027259711 
  596000    257.35652    8325.5339     2924.207    25.088547 -0.0015535403 0.0036315585 -0.0030497398 
  597000    255.01633    6635.0657     2924.207    23.684696 0.0081202129 -0.018896719 -0.007194281 
  598000    264.40761    6477.2575     2924.207    24.041055  0.027346466   0.02391633 -0.016777754 
  599000    239.52527    16140.768     2924.207    25.799265  0.016526271  0.039579847 4.8836742e-05 
  600000    231.83662    12704.022     2924.207    26.814598   0.02059787 -0.0037302178 0.0026044438 
  601000    250.09541    9648.7882     2924.207    27.975472  0.035929395 -0.016391584  0.044542489 
  602000    256.87091    10184.832     2924.207    28.324568 6.9036047e-05 -0.015470586 -0.032526656 
  603000     238.0046    10873.087     2924.207    25.384823 -0.045558524  0.022898964 -0.022974499 
  604000    251.69765    16746.339     2924.207     24.63601  -0.01906615  0.019090724  0.004814868 
  605000    241.16701    8422.5695     2924.207    25.026697 -0.028690042  0.019576148   0.00985191 
  606000    245.20817    11509.281     2924.207    27.436101 -0.0031167408  0.018336099 -0.00094258946 
  607000    240.18222    9312.8215     2924.207     31.76297 -0.001937175 -0.021912741 0.0045739662 
  608000    239.27083    14431.532     2924.207     34.60748 -0.0047086077  -0.03180134  0.015271814 
  609000    246.51294    12648.721     2924.207    35.835991 -0.0024329326 -0.018080162  0.022551989 
  610000    250.22506    14460.569     2924.207    35.868084 -0.0032574808  0.014563483 0.00021135746 
  611000    243.14201     5169.658     2924.207    35.047554 -0.038688522 -0.0049431206 -0.0092324483 
  612000    244.84985    10794.249     2924.207    33.897651 -0.0052602212 -0.013628866 0.0012098103 
  613000    243.42366    7982.1711     2924.207     32.94051  0.033803511  0.021713244 -0.010100903 
  614000    261.49452    14068.419     2924.207    32.185245 -0.0086833166 -0.0094287234 0.0095858047 
  615000     233.5572    16973.453     2924.207    29.367032 -0.013342703 -0.004382402 -0.0049758733 
  616000    255.33981    6867.4236     2924.207    27.336284 -0.0037399569 -0.026754148  0.026045765 
  617000    225.98181    10728.157     2924.207    24.922198 -0.0086961742 -0.012966644  0.020844545 
  618000    251.53791    9534.1638     2924.207    25.023645 0.0038650802  0.010802472 -0.041233149 
  619000    251.85277    8001.3057     2924.207    28.049818  0.022061706  0.019099654 -0.003356209 
  620000    234.24814    10109.652     2924.207    32.725252 0.0082704925  0.013065049 -0.022175186 
  621000    249.50842    14552.596     2924.207    33.569339 -0.010533408  0.037894702 0.0082474219 
  622000    251.54488    12159.439     2924.207    33.836523 -0.021850611  0.024672577   0.03229783 
  623000    259.97422      9839.16     2924.207    32.485688 0.0012713025 -0.0021829065 0.0084265504 
  624000    254.69559    13923.496     2924.207    31.628534 -0.0049428224 -0.0056663282  0.032705286 
  625000    246.43711    14185.075     2924.207    28.105758 -0.021240629  0.021545175  0.011468115 
  626000     269.5958    3129.8847     2924.207     26.81254 -0.011701616 -0.011228288 -0.0054717929 
  627000    253.84708     11419.87     2924.207    27.312776 -0.0079786329 -0.031468159 -0.011970341 
  628000    256.25347     4721.908     2924.207     25.49182  0.025492727 -0.035820315  0.010537016 
  629000    245.64147    11432.062     2924.207     24.95916  0.001245003  -0.01679227 0.0019786268 
  630000    254.52024    16113.423     2924.207    24.429701  0.022616431  0.012591152 0.0045923553 
  631000    261.88585     3654.866     2924.207    23.469975 -0.027986085 0.0077194144 -0.0095873288 
  632000    226.19785    22397.566     2924.207    22.963759 -0.015690092 0.0066687456 -0.033927451 
  633000    250.02041    7030.6288     2924.207    24.599231  0.011734365  0.001106063  -0.02820145 
  634000    245.25653    9999.5097     2924.207    28.939067  0.028529183  0.019917871  0.015838695 
  635000    267.38731    11623.036     2924.207    29.156134  0.003160679  0.024668712  0.004075451 
  636000    252.99716     1739.675     2924.207    26.839643 -0.013233414 0.00087672508  0.016622488 
  637000    253.14255    14962.849     2924.207    20.785721 0.0061427901 0.0032198221 0.0054548838 
  638000    252.66808    5282.3492     2924.207    15.862651  0.024585037 0.0035507111  0.023230086 
  639000    248.27386    15778.985     2924.207    13.180473 0.0052370713 -0.053425679 -0.014767875 
  640000    255.08692     14090.83     2924.207    15.896508  0.023546074  0.011188581 -0.034313219 
  641000      249.246    8265.6557     2924.207    20.763922 -0.0096526802 -0.015075861  0.034957426 
  642000     254.9904     7505.182     2924.207    24.421017 -0.017622172 -0.020490033 -0.016526663 
  643000    248.04694    7699.1047     2924.207    27.821364 0.0052470803  0.024662055 0.0081045252 
  644000    253.89877    9140.2162     2924.207    29.953816 -0.0090587947  0.013655769 -0.045703284 
  645000    252.25583    11048.715     2924.207    30.305447 0.0037970847  0.017651489 0.0047902421 
  646000    243.98809    9902.7016     2924.207    29.013571 -0.0035098602 0.0066802049 0.0047811662 
  647000     257.5489    4957.4833     2924.207    26.748201 -0.023495401 -0.0035682018  0.019387734 
  648000    229.36648    14278.487     2924.207     27.46592  0.017439478 0.0047780775  0.030130397 
  649000    245.79454    10010.497     2924.207    30.340166  0.012006976 0.0042005619  0.014471082 
  650000    241.56443    7125.8294     2924.207    32.498873  0.011501903 -0.019813422 -0.00065097264 
  651000    253.35885    17587.691     2924.207    31.533432 -0.033449379  0.028625317 -0.0080496736 
  652000    243.35208     9717.881     2924.207    30.423215  0.015108209  0.002200622 -0.020267132 
  653000    233.26422    5842.1121     2924.207    28.940072 -0.0049090609 0.0088530077 0.0019749352 
  654000    241.40918    16360.154     2924.207    26.406724 -0.016213579   0.01450047  -0.03080267 
  655000    244.65553    10705.879     2924.207    26.875878 -0.017987817 -0.014222573   0.03442624 
  656000    240.58597    4615.6887     2924.207    28.359221 0.00018906226  0.008488323    0.0183608 
  657000    243.85153    15069.544     2924.207    29.098616  0.010087045 -0.027179628 -0.00072151529 
  658000    268.52962    11435.704     2924.207    32.322606  0.045431083 0.0037555251  0.023158103 
  659000    250.49935     11959.51     2924.207    33.827352 -0.022360368 0.0077733769 -0.023098313 
  660000    227.32442    7739.5705     2924.207    32.146986  0.013313444 0.0068464635  0.023253085 
  661000      232.411    16067.217     2924.207    28.952852 0.0014356161 -0.013533608 -0.0045212243 
  662000    239.89163    7936.9947     2924.207    25.971702  0.004175763  0.025793677  0.012655971 
  663000     251.8334    13012.997     2924.207    22.074621  0.020401213  0.017836999 -0.0030480492 
  664000    243.51365     5720.675     2924.207    20.219795 -0.012278178  0.030562621  0.030153559 
  665000      230.959    17036.673     2924.207    22.778861 0.0046476202  0.020403223 -0.026480144 
  666000    238.76846    5756.0312     2924.207    25.579188 -0.045866007  0.046603109 0.0052552551 
  667000    262.14322    14475.133     2924.207    23.498628  0.028344621 -0.0031124127 -0.033134067 
  668000    225.73965    3427.1506     2924.207    24.998837  0.010333299  -0.03689803 -0.0037062225 
  669000    251.01932    12779.635     2924.207     30.37703  0.017618004  0.012846043 -0.010908208 
  670000    246.88566    14894.694     2924.207    32.058472 -0.0043046543 -0.027399809 -0.019435598 
  671000     253.4723    7596.0447     2924.207    30.539107 -0.010507389 0.0014013428 -0.0053095728 
  672000    251.54332     4169.383     2924.207    29.703831 -0.025905619  0.010080167  0.007548066 
  673000    240.63918    18628.515     2924.207    28.263388  0.028690234 0.0051045183 -0.0086098508 
  674000    216.42551    8396.1251     2924.207    25.974225 -0.015934834  0.033004991 -0.00035707142 
  675000    231.00846    12951.593     2924.207    22.656201  0.026565929  0.011249821 0.0092518389 
  676000    274.27774    10547.592     2924.207    21.691691 -0.0085199286 -0.0036688888  0.040172484 
  677000    239.16302    7209.1608     2924.207     21.77772  0.011984755  0.015180905 -0.0019162225 
  678000    255.07473    14968.442     2924.207     25.68039  0.012106809 -0.011970571  0.006417999 
  679000     239.2236    16066.991     2924.207     27.30201 -0.0051381969 -0.019182525 -0.011325558 
  680000    256.20444    6686.6834     2924.207     27.17248 0.0053454904 -0.014178623 -0.0036416892 
  681000    242.19994    11674.633     2924.207    26.255121  0.010748034 0.0046337541 0.0082438499 
  682000    256.30635    6821.9951     2924.207    25.762244 -0.0072871054  0.041038532 -0.0046707698 
  683000    244.68957    12960.202     2924.207    24.627823 -0.048975849 -0.028514607  0.012137161 
  684000    245.05484    2080.7589     2924.207    21.121122  0.017763129 -0.030946215  0.013909378 
  685000    245.73257    15453.038     2924.207    16.553285 -0.037383304  0.046878825 -0.0066221198 
  686000    259.66868    14004.736     2924.207    15.078521 -0.0028581612   0.01262845 -0.014311589 
  687000    247.12251    6723.0881     2924.207    17.253671 -0.026344643 -0.0023193947   0.02356135 
  688000    248.93932    15640.848     2924.207    22.364834 -0.012032511  0.032309964  -0.02674335 
  689000    252.73426    6688.1557     2924.207    26.453489  0.016743113  0.012185987 -0.020380383 
  690000    257.31613    9281.6692     2924.207    26.848326 -0.008565289 -0.030500785 -0.0086056751 
  691000     240.5262     14537.01     2924.207     25.57334 0.0010714649 -0.0039435104 -0.016700348 
  692000    251.99438    502.59604     2924.207    26.734449 0.0080298061 -0.015764374 -0.0062373833 
  693000    228.67472    16487.384     2924.207    28.916967  0.018638124 -0.021454294 -0.029877914 
  694000    237.59097    8002.8495     2924.207    29.007986  0.025368746   0.01261791  0.025663608 
  695000    272.98692    11008.399     2924.207    25.490236  0.008295805 -0.047005269 -0.011150701 
  696000     247.4355    8662.0317     2924.207     22.52194 0.00061724561  0.004424014 -0.016972195 
  697000    263.39352    2554.1759     2924.207    24.214197  0.017705765 -0.049313077 -0.0026350363 
  698000    233.28333    14943.896     2924.207    26.599766 0.0079089259 -0.0030791888 -0.014800053 
  699000    258.78314    7596.0291     2924.207    26.635484 -0.0052818959 -0.014521852  0.024431965 
  700000    250.83385    6615.2689     2924.207    25.096739  0.011543118 -0.00017688803  0.043441443 
  701000    244.52897    15544.806     2924.207    24.114018  0.029570986  0.051527405  0.043936556 
  702000    266.94175    5041.5803     2924.207    21.403692  0.014701522  0.021625875  0.025784408 
  703000    253.79717    11168.622     2924.207    17.407262  0.039351263 0.00029031485 0.0031832207 
  704000    235.86241    18602.886     2924.207    16.116047 -0.0027616611 -0.00083037551 -0.0089907014 
  705000    254.20019    6074.3454     2924.207    17.591873 0.0094373429 -0.030472041  0.011728449 
  706000    241.76297     9928.835     2924.207    17.622111  0.029064022 -0.023357653 -0.0072707047 
  707000    250.93306    13576.944     2924.207    21.765889 0.0026342622 -0.023484834 -0.022368145 
  708000    252.47366    4007.2831     2924.207    27.911406 -0.0093279285  0.005956851 -0.022671363 
  709000    246.44333    15585.833     2924.207    29.557819 -0.0073320062  0.011941914 -0.0061823061 
  710000    248.33321    4401.7313     2924.207    26.855102 -0.014645921  0.018455948  -0.01355306 
  711000    251.23157    10064.944     2924.207    24.796983 -0.055140945  0.021427103 -0.014213443 
  712000    262.45275    9940.7089     2924.207    26.336916 -0.0060473608 0.0011917133  0.024327905 
  713000    237.94881    10128.196     2924.207    28.500061 -0.005707644 0.0052308927 -0.0096449503 
  714000    242.93263    18947.389     2924.207    29.564754 -0.012670539  0.016332735  0.029497482 
  715000    251.59173    6956.0319     2924.207    30.657589  0.022664666  0.016289018  0.025909638 
  716000    266.68714    14224.875     2924.207     31.53122 0.0054744548 -0.016580918 -0.015137927 
  717000    246.24561    10283.585     2924.207    29.922411  0.021368932 -0.0072700649 -0.010621124 
  718000    242.74892    5073.3504     2924.207    29.204262  -0.01275155 0.0011646298   0.04579787 
  719000     244.6511    9884.6758     2924.207    30.096795 -0.0050069837  0.020797481  0.019767253 
  720000    242.25866    9126.5398     2924.207    32.306529   0.01052198 0.0094366641 -0.027482157 
  721000    239.19257    8587.4341     2924.207    34.252855 -0.0076445539  0.028100594 -0.032449256 
  722000    254.95281    11231.837     2924.207     35.43429   0.02775035   -0.0113238 -0.00033433023 
  723000    234.70454    10189.446     2924.207    35.347584 -0.0043527628 -0.019030918 -0.0074796633 
  724000    251.16634    14760.532     2924.207    34.879036 -0.033351962 -0.0038699249  0.014267933 
  725000    251.22567    1088.8278     2924.207    33.880724 -0.0029422854  0.023982573 0.0020042889 
  726000    244.96973    16094.665     2924.207    31.774202 0.0077033267 -0.026262903  0.033147392 
  727000    249.89754    8153.4095     2924.207    30.499904 0.0067269013 0.0005661811 -0.0030330081 
  728000    232.48739      6626.33     2924.207    30.462985  0.012243167  0.011756135  0.022528755 
  729000    258.16573     10806.55     2924.207    29.262639  0.023310102  0.020311865 0.0025573822 
  730000    250.71458    7466.7232     2924.207    29.214199 -0.0051226793 0.0076421837 -0.010284498 
  731000    238.93882    13636.448     2924.207    30.179924 -0.0042853616 -0.026690917  0.034623224 
  732000    265.80874    4001.1311     2924.207    31.409828  0.027717696 -0.0005462295 -0.011040179 
  733000    256.09479    11073.425     2924.207    32.674752 0.0025812798 -0.0057343045 0.0026583263 
  734000    251.92283    5397.8939     2924.207    33.930528  0.010854338 0.0011811144 -0.030098521 
  735000    246.25101    11176.438     2924.207    34.546166 -0.032275149 -0.031536685 -0.0095846965 
  736000    250.80359    11368.354     2924.207    33.027486  0.027054697 -0.027416246  0.020655714 
  737000    243.67531    7292.1556     2924.207    30.953223 -0.009714776  0.033441228 0.0082859999 
  738000    259.34166    13425.134     2924.207    26.926204  0.014325492 -0.0043723742 0.0058823861 
  739000    263.57564    6255.4502     2924.207    24.302742  0.017678688 -0.039161417 -0.023125685 
  740000    252.72331    10862.564     2924.207    26.461216 -0.011833169 -0.010985622  0.021029224 
  741000    257.41976    7312.8355     2924.207    30.338739 0.0054249467 -0.0057574306 -0.031393307 
  742000     240.0239    15441.333     2924.207    32.570295 -0.023240953 -0.015584103  0.002982874 
  743000    239.84094    5443.1104     2924.207    32.257433  -0.01456981 0.0070567281  0.018777028 
  744000    238.78275    4208.6643     2924.207    29.035293 -0.011913256  0.015086972 0.0032194163 
  745000    266.15435    6673.1839     2924.207    29.498863 -0.016707812  0.032052209 -0.0051811835 
  746000    250.31386    7991.8653     2924.207    30.803922  0.027485037  0.015517503 -0.039158832 
  747000    262.99323    8238.8293     2924.207    30.977051 -0.037251308  0.029434584 -0.015965122 
  748000    245.51856    7248.4522     2924.207    31.085633 -0.038712182 0.0016144843 -0.025868872 
  749000    262.27225    9239.0178     2924.207    32.049759 -9.333853e-05 0.0096788872 -0.0038184287 
  750000    239.03708    8199.1808     2924.207    33.529897 -0.037323424 0.0039589835 -0.013959475 
  751000    239.34198    11910.092     2924.207    34.797319  0.014750048 0.0088338487 0.00058040201 
  752000    245.03462    13472.974     2924.207    34.383247  0.014716426  0.010704632  0.011792259 
  753000    258.30598    9746.4862     2924.207    33.593165 -0.0028007669  0.012302053 -0.0034114781 
  754000    253.89723    5990.8879     2924.207    31.754924 -0.0010343518 -0.0076956317 -0.0011862136 
  755000    284.57443    7445.4468     2924.207    28.860735 -0.022802107  0.016629288 -0.012136971 
  756000    252.38545    10464.623     2924.207    25.364095  0.014092451  0.021824378  0.022498199 
  757000    244.70942    9906.8367     2924.207    24.217782  0.011194205 -0.014059009 -0.002687315 
  758000    258.06536    7950.5372     2924.207    25.114775  0.012332311 0.0056104734  0.033480003 
  759000    240.79541    6861.8115     2924.207    28.045391  0.028917942 -0.0066219241 -0.0033051042 
  760000    258.14497    15857.261     2924.207    31.480687  0.012522898 -0.014071841  0.020327374 
  761000     242.6543    5610.9309     2924.207    35.166246  -0.01700482   0.02454971 0.0052784399 
  762000    254.90706    8960.6015     2924.207    33.908161 -0.0046147815 0.00013129212  0.024563808 
  763000    247.34732    13208.838     2924.207    29.611597 -0.019342581  0.040495233 -0.0067130422 
  764000    245.12417    4560.8948     2924.207    28.620513   0.01753634  0.039788012 -0.00034191041 
  765000      229.574    5124.7243     2924.207    29.901499 -0.009210124  0.010148819 -0.00089916171 
  766000    258.65773    14397.961     2924.207    31.087646  -0.03023016 -0.0029363678 -0.008130379 
  767000    256.97251    7732.5222     2924.207    31.460226  -0.00127357 0.0039521995 0.0084779576 
  768000    247.35059    9591.8148     2924.207    30.974619 0.0061138365 -0.016616354 -0.0013534951 
  769000    232.30199    15025.832     2924.207    32.282057 -0.003301384 -0.0020187777   0.03036252 
  770000    240.05923    4772.8489     2924.207    34.822973 0.0048808249 -0.00064640189 -0.00084544315 
  771000    238.20193    13265.838     2924.207    33.818398  0.033352176 0.0003625475  0.032401374 
  772000    248.96103    4394.5953     2924.207    30.068696 -0.021791668 -0.0045903856 0.0020121433 
  773000    248.91279    7785.7053     2924.207    27.399737  0.003050354  0.027302326 -0.030155503 
  774000    235.44246    10723.755     2924.207    28.809049 -0.020700301 -0.0056294074 -0.041565473 
  775000    270.92224    7094.3519     2924.207     29.71393 -0.022672035  0.049847088 0.0096098261 
  776000    232.97844    6055.4648     2924.207    27.763067  0.040683543  0.001984595  0.027401912 
  777000     239.7399    13733.722     2924.207    22.156955 -0.018223714  0.013263812  -0.01466541 
  778000    238.66682      7107.61     2924.207    19.501086  -0.02044936 0.0056599825 -0.023377459 
  779000    240.78583    8206.0046     2924.207    21.357495 -0.012071168 0.0096676885 0.0019622761 
  780000    252.85942    10988.085     2924.207    24.755228 -0.067411695 -0.013695554  0.010549783 
  781000    263.78085     10115.92     2924.207    25.734708 -0.013761818  0.013282801 0.0012262222 
  782000    257.06656    11010.986     2924.207    22.233906 -0.035993774 0.0022732824 0.0048029838 
  783000    243.34671    7104.0877     2924.207    22.594019 -0.048404527  0.022907118  0.020242352 
  784000    252.11034    7171.6673     2924.207     28.72146 -0.0086801314  0.006874956 -0.0058372114 
  785000    242.61291    17523.223     2924.207    34.103442 -0.034824244  0.031435933 -0.032522343 
  786000    248.62286    5986.9155     2924.207    34.351661 -0.010448977 0.0047374696 -0.0030149174 
  787000    271.93764     6584.974     2924.207    30.052655  -0.01785292 -0.024181821 0.00044639314 
  788000    254.12627    13191.567     2924.207    25.246411  0.036350551 -0.051773455  0.018119403 
  789000    236.34965    7688.6524     2924.207    22.840672  0.023118684 -0.026621873  0.022740532 
  790000    257.36856    8435.6097     2924.207    22.125519 -0.0018025691 -0.026102938 -0.0013142878 
  791000    252.40115    9880.6815     2924.207    23.981866 -0.018410371 -0.0080942803 -0.0019677102 
  792000    244.14762    10244.031     2924.207    27.691341 -0.0084100364  0.024206961  0.038426433 
  793000    237.13736    8670.0027     2924.207    31.054044 -0.0061436381  -0.02901343 -0.0068382375 
  794000    247.70125    5643.5528     2924.207    31.309803 -0.0055435703  0.018034122  0.015317612 
  795000    243.55398    16510.201     2924.207    27.507323 -0.0053546073 -0.025042652 -0.009043712 
  796000    250.03619   -2167.3105     2924.207    24.213934  0.011069672 -0.024983658 0.0059902302 
  797000    257.49388    17323.898     2924.207    24.429367 -0.0039297591   0.01073122 -0.014287396 
  798000    246.12075    4226.1434     2924.207    25.512709  0.010275713 -0.010896483 -5.9914095e-06 
  799000    237.40669    2586.6205     2924.207    25.605648 0.0024897766 -0.024291558  0.022692675 
  800000    247.51832    15980.737     2924.207    22.885584 -0.013763474 -0.038120427 0.0040051012 
  801000    242.26088    7678.3686     2924.207    19.864869  0.023924022 0.0022640301 -0.013256046 
  802000    259.99415    3771.3935     2924.207    16.930549 -0.0092193877  0.033913757 -0.014039481 
  803000    251.92462    17441.716     2924.207    15.722318    0.0139015 -0.0096671249 0.0035018628 
  804000    252.54779    2474.3198     2924.207    19.086368 -0.0074612603 0.0066549409 -0.006197622 
  805000    258.52156    12107.026     2924.207     27.58791 -0.022808076 -0.016051959     0.026879 
  806000    243.14966     9970.683     2924.207    33.438158 0.0017833461 -0.030016683 -0.00021548687 
  807000    246.91855    14000.011     2924.207    33.227039  0.037582797 -0.018982304 -0.0033317831 
  808000     261.9512    3010.0859     2924.207    26.449972 -0.037998828 -0.0013387973 0.0082324797 
  809000    254.68491    9493.7408     2924.207    18.432191  0.024811352  0.016591129  0.013528563 
  810000    259.65467    12594.572     2924.207     16.53641  0.015129955 -0.027145635 0.0036332509 
  811000    268.06984    8524.9926     2924.207    21.898483  0.019217435 -0.00016897239 -0.058341176 
  812000    263.04689    7448.1255     2924.207    28.283391 -0.014104559  0.026409725  0.019187695 
  813000    256.38864    15831.399     2924.207    33.132648  0.013003529 0.0015351796  0.016919283 
  814000    250.81102    6608.5292     2924.207    35.659189 -0.024480828 -0.013621446 -0.016320755 
  815000    239.54161    8260.0881     2924.207    36.086963 -0.0013424237 0.00060225746 0.0034249979 
  816000    248.92878    12807.702     2924.207    34.678045 -0.0087821625  0.021457623  0.013091743 
  817000    252.66914    739.17714     2924.207     32.10753 -0.013461066   0.02671405 -0.0029649307 
  818000    251.32496    13246.114     2924.207    29.833906 -0.010499539  0.013509932 0.0071072479 
  819000    234.21291    7511.4136     2924.207    28.140347 -0.013123667 -0.013284695 0.0096772316 
  820000    251.04291    9652.1669     2924.207    28.236204 -0.016362425 -0.010779544 -0.037476969 
  821000    229.66252    8751.8315     2924.207    28.101556  0.022520056 -0.023242701  0.014739291 
  822000    251.69543     9111.745     2924.207    28.298942  0.038036894  0.038007721 -0.023797007 
  823000    242.99429    4647.8704     2924.207    28.074377 -0.018792277  0.037494546  0.010113642 
  824000    235.50022    11596.651     2924.207    29.067028 -0.036384893  0.028066287 -0.014433532 
  825000    248.90137    7253.4616     2924.207    30.686714  0.025825869 0.0080162182 -0.0086123229 
  826000    242.19612    14774.183     2924.207    33.032375  0.018443098 0.00040754211 -0.000522567 
  827000    248.83377    11366.752     2924.207    33.325204 0.0055460018 -0.0048580608 0.0040186948 
  828000    241.19162    3197.4043     2924.207    29.124041 -0.0016540423  0.020965494 -0.0010088381 
  829000    254.58235    7778.9831     2924.207    25.196898  0.011362271 -0.026692296  0.036767912 
  830000    261.22689    14255.812     2924.207    24.121924 -0.0057403943 -0.023700117  0.046043774 
  831000    237.46651    8332.4552     2924.207    25.928472  0.032647306 -0.0036535064  0.018592537 
  832000    250.30162    5452.0235     2924.207    29.588364 -0.0018630673 0.0023461518 0.0052502062 
  833000    261.50649    12362.136     2924.207    31.929443 -0.011305826 -0.030672716   0.01688143 
  834000    257.40452    8913.1687     2924.207    32.826906 -0.025275383 -0.0019294154  0.018247762 
  835000    251.44847   -5584.4232     2924.207    32.274575 0.0037972036 -0.0015382298 -0.003900508 
  836000    246.87928    14512.872     2924.207    31.456664 -0.025263549 -0.042431011  0.037771335 
  837000    259.78228    8677.9668     2924.207    29.489106 -0.020023545  0.044930087 -0.016610059 
  838000    260.01156    5344.3327     2924.207     27.07526 -0.016211347 -0.018448421 -0.0010694128 
  839000    235.64253      7899.47     2924.207    24.835381 -0.013722922   0.02284918 -0.011158154 
  840000     260.8019     12100.88     2924.207    26.385599 0.0054916149 -0.032887769  0.012819139 
  841000    254.18687    7302.7097     2924.207    29.278117 -0.018016974  0.012841684 -0.00069013478 
  842000    255.18028    10358.865     2924.207    29.814374   0.02988716 -0.034618601 -0.0061958575 
  843000    237.13182    12805.654     2924.207    29.145261 -0.008086875  0.008378408 -0.023146429 
  844000    245.19454    4049.3391     2924.207     29.01379 -0.0064262517  0.014737353 0.0060809965 
  845000    243.66052    8731.7463     2924.207    28.106851 -0.023102646  0.021962536 0.0011973962 
  846000    252.80744    9728.3647     2924.207    27.561738  0.024315522  0.020117831 0.00010042669 
  847000    225.78535   -1887.1908     2924.207    26.776837 -0.006131054  0.026188159  0.020336712 
  848000     250.6479    13629.322     2924.207    24.186991 -0.0072804847 0.0064019198  0.035830782 
  849000    250.16337    6037.1188     2924.207    20.949589 -0.0090719191 -0.011139002 -0.013717591 
  850000     242.3064   -4189.0482     2924.207    24.263361 -0.0015422522 -0.012031655  0.040623948 
  851000    232.05359    16744.203     2924.207     29.43361 -0.036198683 -0.0071753722 -0.049505083 
  852000    236.17325    7585.8747     2924.207    33.332521 -0.0092756108 0.0059238551  0.021611362 
  853000    238.31004    11076.499     2924.207    35.133453 -0.00064445129 -0.015578531  0.016987342 
  854000    253.00866    7109.7996     2924.207    35.775231  0.039041791 -0.019879439 -0.021020901 
  855000    229.90585    4622.9217     2924.207    35.390686 -0.004204879 0.0029015326 -0.031325445 
  856000    256.68807    14263.115     2924.207    32.985115 -0.021111375 -0.016792925 0.00063421244 
  857000    238.79811    3050.3987     2924.207    29.597468  0.010275075 -0.013067654 -0.0060272267 
  858000    263.42466    12523.926     2924.207    28.408445 -0.0015676928 -0.016839617 -0.020195082 
  859000    257.02411    7145.1082     2924.207    28.647484  0.023948831 0.0092800466 -0.048909545 
  860000    234.82467     4242.533     2924.207     29.13216  0.012602658 -0.0015434427 -0.059087288 
  861000    242.15273    13085.119     2924.207    31.925748 -0.0047195475 -0.0054610829 -0.020771324 
  862000    240.70953    5877.1339     2924.207    34.082838 -0.003934863 -0.012808411 0.0083732984 
  863000    261.29979    10523.791     2924.207    33.403509 -0.0020018051 -0.031217137  0.039866747 
  864000    256.66414    4832.6377     2924.207    33.215924  -0.02655672 -0.0059072585  0.046494274 
  865000    263.21913    9547.3873     2924.207    30.205136  0.021129264   0.01604299  0.025479804 
  866000    237.92264    5944.6587     2924.207    26.981383  0.031091309  0.020745552 0.0010752432 
  867000    250.64383    7265.7609     2924.207    24.848205 6.6322117e-05  0.029330523  -0.01213005 
  868000    246.83472    863.74707     2924.207    24.954332 0.0064559634  0.041476558  0.014371424 
  869000    247.46824    14401.964     2924.207    25.611007 0.0043107213 -0.0066285417 -0.0015918582 
  870000    232.58725    12229.361     2924.207    25.476107 -0.0028162101 0.0087814082   0.01055865 
  871000    252.35851    4578.1834     2924.207    26.998384 0.0063425465 -0.043762133 -0.0009279262 
  872000    251.35343    5360.1798     2924.207    31.760214 0.0085181258 -0.031369752 0.0022331902 
  873000    252.61802    13197.427     2924.207    35.542984 -0.024919063  0.013954794  -0.02063092 
  874000    248.29075    9548.0623     2924.207    34.273287  0.014509143 0.00054997356 -0.013931245 
  875000    241.96652    1508.5324     2924.207    27.838645  0.023918847   0.02930961 0.00046508169 
  876000    251.86851    19981.529     2924.207    20.611118 0.00081862133  0.010834137 -0.0037203646 
  877000    252.70385   -3844.7977     2924.207    16.240477 -0.011590528  0.025400242  -0.01005915 
  878000    260.25656    14293.155     2924.207    16.155116  0.004707907 0.00029621468 -0.011739471 
  879000    249.87417    10594.704     2924.207    20.607097  0.002504413 0.0069801195  0.010050086 
  880000    247.30256    3542.0178     2924.207    22.689959  0.021581063 -0.0035912836 -0.036498195 
  881000    237.76889    9290.0435     2924.207    21.831493 -0.027119077  0.027859288 -0.0019728747 
  882000     255.0145    7378.9896     2924.207    23.472087  0.029818461 -0.023518321  0.010612632 
  883000    229.57177    11695.486     2924.207    25.968509  0.011514877 -0.0064170345 -0.024842972 
  884000    241.99293    9383.6767     2924.207    29.787045 -0.0085646324 -0.0081227165  0.005627178 
  885000    238.02133    12764.152     2924.207    29.626586 -0.015380119 -0.022017996 0.0064320787 
  886000    256.44935    10154.607     2924.207    27.614136 -0.0074061236 -0.043715444  0.016726819 
  887000    241.12907    7576.4396     2924.207    22.970648 -0.015385288 -0.0037945404 0.0027634954 
  888000    248.37266    9049.7899     2924.207    17.682733 -0.0056847843 -0.043452387  -0.03350278 
  889000    250.71502    8184.7912     2924.207    13.242171  0.002938058  0.025701941 -0.018630961 
  890000    251.63829    4084.0943     2924.207    13.673872 0.0070016771  0.004046533 -0.023323222 
  891000    252.72537    6910.4812     2924.207    16.796548 -0.026288467  0.014182457 0.0060981166 
  892000    244.72935    11976.207     2924.207    21.413297 -0.0041303808 0.0093405032  0.018154228 
  893000     238.5709    9306.9944     2924.207    25.761603 0.0018380101 0.0068556524 -0.019421709 
  894000    265.44414    9142.8676     2924.207    29.809289 -0.024885152  0.039872713  0.016069776 
  895000    264.91684    6253.2985     2924.207    31.383319  0.062096794 0.0022561973  -0.01415728 
  896000    222.76879    13014.385     2924.207    30.967845  0.010844548 -0.00033510865  0.014679319 
  897000    234.40906    12083.215     2924.207    30.106977 -0.0038807584 -0.0019145019   0.02649843 
  898000    239.83699    4525.1694     2924.207    28.993992 0.0088203507  0.036206329  0.062055815 
  899000    232.66468    16797.753     2924.207    29.115113 -0.019451678  0.008536803  0.020723736 
  900000    245.35842    5909.7682     2924.207    28.710956  0.025760407 -0.0073340592 -0.010995268 
  901000    261.84254    5185.1953     2924.207    29.086507 -0.019122889  0.010175856  0.018442725 
  902000    247.07624    19154.074     2924.207    29.915335  -0.04562749 -0.0079863308 -0.010190546 
  903000     241.8097    1786.5349     2924.207    32.016337 -0.020741532 -0.016214632 -0.044977853 
  904000    244.65087    9086.1809     2924.207    32.331896  0.020623501  0.035970837 -0.025488355 
  905000    231.08206     10883.45     2924.207     30.32062  0.016311841 -0.0083140505  0.014478189 
  906000    246.87867    14865.405     2924.207    26.602469  0.031126867 -0.020237466 0.0076711571 
  907000    269.65849     1398.606     2924.207    23.126934 -0.021600064 0.0080898614  0.015005304 
  908000    243.65514    10126.621     2924.207    23.716303  0.034734348 -0.0024523153  0.033868931 
  909000    243.83808    16862.536     2924.207    26.016642 0.00033397007 -0.044448951  0.024929605 
  910000    233.43798   -371.94539     2924.207    26.608978   0.01320004 -0.0047500125  0.017321621 
  911000    236.35235    13798.424     2924.207    26.215656 -0.0065504803 -0.0013992613  0.042829851 
  912000    251.18857    7015.3045     2924.207    28.078939 -0.0036602871 -0.003187479 0.0024280165 
  913000    259.71311    5714.6868     2924.207     29.39098 -0.012019205 -0.013670972 -0.032276597 
  914000    243.02087    14716.933     2924.207    28.320089 0.0081089105 0.0063597482 0.0029484034 
  915000    252.93814    5119.9886     2924.207    27.644267 0.0088913146 -0.00078770424 -0.036190455 
  916000    231.46461     7428.402     2924.207     27.78103  0.019807284 -0.025533502  0.012717462 
  917000    237.50966    14161.637     2924.207    26.251359 -0.030783549   0.01412545 -0.032631469 
  918000    239.44977    9047.2809     2924.207    26.096609 -0.016023661 0.0081674166 -0.012602259 
  919000    242.83961    10492.782     2924.207    25.865809 0.0031062189  0.022260967  0.015289462 
  920000    254.24515    7909.5119     2924.207    25.645322 0.0059100071 -0.016507626 0.0098657099 
  921000    251.65272    8845.3029     2924.207    24.607944   0.02227549  0.039099931 -0.020930376 
  922000    229.59318    10094.464     2924.207    20.578046 -0.0092542823  0.049628849 -0.0067280658 
  923000    241.89375    10746.333     2924.207    19.028413 -0.002431722  0.018269284 0.0036755166 
  924000    242.60879    7173.8809     2924.207    20.698349 -0.0064897777 -0.045116384 -0.015333785 
  925000    251.26503    11971.015     2924.207    23.892353  0.001160935  0.032500623 -0.028815526 
  926000    255.95965    9813.3974     2924.207    25.458343 0.0094920233  0.029510011 -0.0091457119 
  927000    244.73796    12547.956     2924.207    25.939791  0.010557394 -0.015501303 0.0080470673 
  928000    219.92803    48.433999     2924.207    25.303059 -0.015216328 -3.0446628e-05 -0.015181356 
  929000    247.28685    16077.269     2924.207    26.437161  0.017266146  0.009031184  0.010771386 
  930000    261.25305    7358.0359     2924.207    26.032626 -0.0091838771 -0.0026230701 0.00059484853 
  931000    227.51756    3723.0153     2924.207    24.523319 -0.015152582 0.0059188575  0.017754547 
  932000    251.71076    17801.794     2924.207    24.109073   0.02484463 -0.0042076429  0.022673337 
  933000    242.62893    11814.864     2924.207    22.894738 0.00034800711 -0.0077372448 -0.002196111 
  934000    248.43701    5400.6172     2924.207    21.389741  0.015359006 0.0050761735  0.016717315 
  935000    237.00565    6822.9264     2924.207    21.703468  0.017815057 -0.0065210521  0.024176552 
  936000    243.61867    8902.5448     2924.207    22.663554 -0.013245029 0.00047673473  0.025869632 
  937000    246.39011    6560.9535     2924.207    22.095839  0.010039542 -0.0059520291 0.00046245951 
  938000    231.90686    10888.227     2924.207    22.453109  0.046456928  0.044187619 0.0023531322 
  939000    238.92222    7202.5449     2924.207    22.002715   0.02008737 -0.023625297 0.0078149195 
  940000    230.04048    11377.234     2924.207    21.912508 -0.015482749 -0.017018495 -0.0021973717 
  941000    224.66291    6419.8442     2924.207    23.407564 0.0058707558   -0.0159864 -0.017992417 
  942000    226.90334      10590.1     2924.207    25.305592 -0.007038296  0.026441439 -0.0075961822 
  943000    247.70426    2062.8647     2924.207     28.38232  0.012724267  0.002007083 -0.025238972 
  944000    241.71561    14759.361     2924.207    31.772421 -0.0098461632 -0.036723957 0.0025097477 
  945000    243.23492    7830.1925     2924.207    33.605784  -0.02946272  0.015307776 0.0082802771 
  946000    226.08435    9228.6254     2924.207    31.807858  0.002944911 -0.0046337491 -0.0066699967 
  947000    254.41244    15119.182     2924.207    29.062583 -0.021435632  -0.01986254 0.0031709574 
  948000    248.69089    9030.2591     2924.207     27.50061 -0.012315911 -0.012444634  0.037025137 
  949000    255.76178    6177.3224     2924.207     28.50572 -0.016885426 -0.014942724 -0.0082843797 
  950000    238.02665    11948.229     2924.207    28.844194 -0.0091595842 -0.023671756 -0.012448489 
  951000    235.53479    10079.572     2924.207    26.519193 -0.034838991 0.0075865554 0.0073661428 
  952000     252.5212    6817.8314     2924.207    25.468828 -0.014073651 -0.016436745 -0.013374648 
  953000    227.98997    16413.023     2924.207    25.018305 -0.013748905 0.0019463131 -0.0062233022 
  954000      254.487     9592.466     2924.207     26.07393  0.014672887  0.041432603  0.031963989 
  955000    256.63856    9649.7735     2924.207    27.242514 0.0010575358 -0.0034978361 0.0088264067 
  956000    257.85247    3806.5427     2924.207    26.851672 0.0082547018 -0.018017892 -0.0058145556 
  957000    265.43022    3691.5606     2924.207    26.604368 -0.0040867813   0.01955131  0.023039308 
  958000    253.48745    8753.3206     2924.207    24.844319 -0.016296563 -0.0079128083 0.0025521727 
  959000    248.16919    6005.2378     2924.207    22.316164 0.0057927504 -0.0046390937 -0.011063574 
  960000    252.27894    14321.592     2924.207    21.743694 -0.0088904927  0.029849653  0.015170909 
  961000    256.41567    1861.4811     2924.207    24.099499 -0.022651625 0.0053400122  0.026037534 
  962000    263.34011    10044.799     2924.207    28.759319 -0.0082945953 -0.00031553618  0.054463048 
  963000     236.6191    10700.617     2924.207    31.293556 -0.0069751467 -0.033508528  0.007181681 
  964000    227.93704    4522.7638     2924.207    30.836035 -0.013280371 -0.010264866  0.013968251 
  965000    228.61591    12926.811     2924.207    30.180635 -0.016655185 -0.034871322   0.01577606 
  966000     252.6571    10781.486     2924.207      28.7681 0.0023532546  0.046123492  0.021376628 
  967000    248.67149    9017.3923     2924.207    24.991551 -0.023057081  0.016446115   0.04093076 
  968000    236.46832    6888.5167     2924.207    22.358983  0.020883531  0.022235986  0.011502049 
  969000    228.59406    6281.2456     2924.207    21.036699 0.0016760912 0.0032814495  0.010753377 
  970000    262.12202    16138.068     2924.207    21.221194 -0.028281726 -0.024664552  0.027752074 
  971000    237.64659    2914.8731     2924.207    24.434311 0.0070068516 -0.0057739466  0.021463214 
  972000    273.13233    7209.2718     2924.207    25.870319 0.0034256629  0.026969283 -0.037006143 
  973000    245.30043    16200.029     2924.207    27.468287 -0.0082900815 -0.0088508775 -0.012313418 
  974000    245.31726    5325.0531     2924.207     27.88823 -0.0037827626 0.0089796697 0.0024898672 
  975000     239.0027    14654.129     2924.207    26.926473 -0.050236417 -0.038643402 0.0080601191 
  976000    241.06636    12380.318     2924.207    28.739053 -0.00090137118 -0.015951562  0.038672139 
  977000    236.68781     9348.647     2924.207    31.690062  0.010116808  0.030831579  0.029095923 
  978000    254.43622    12598.508     2924.207    32.120577  0.011510948 -0.002653512  0.017889715 
  979000    254.14482    4788.0211     2924.207    28.759542  0.013282343 0.0057104274 -0.028738725 
  980000    232.70176    13449.763     2924.207      25.5812 -0.010366297  -0.01108463  0.013212511 
  981000    243.17302    6641.2868     2924.207    24.154543 -0.0014403356 0.0029445735 -0.032187194 
  982000    239.31255    13534.617     2924.207     24.74596 -0.020710703 -0.011742485 -0.015544281 
  983000     246.7101    6610.7999     2924.207    26.351029 -0.0051269245  0.010195571 -0.028527901 
  984000    249.60047    9591.6003     2924.207    26.423212 -0.0059469888 -0.018871218 0.0064288975 
  985000    239.63508    11727.754     2924.207    28.070635 -0.023456167 -0.0030638492 -0.011027003 
  986000    237.13916    13415.757     2924.207    29.735657 -0.010133496 0.0053838453 -0.0096506525 
  987000    237.89208    5940.2426     2924.207    29.658325  0.010451832 -0.023556204 -0.010106227 
  988000    228.52794    12191.598     2924.207    26.739188 -0.00026295957 -0.020589784  0.017069138 
  989000    252.36457    8520.5718     2924.207     26.21356  0.029138495 -0.014174409  0.023605331 
  990000    247.34519    3501.9161     2924.207    25.925768 -0.017527482   0.02030997 -0.001211423 
  991000     240.5978    13893.677     2924.207    23.806763 -0.034750164  0.011078199  0.016221642 
  992000    243.85763    7847.7907     2924.207    22.311108 -0.022841969  0.011051224 -0.033032467 
  993000    253.13532    9396.2454     2924.207    22.089411  0.034167431 -0.010732013  0.016082908 
  994000    248.71239    4818.3042     2924.207    23.000455  0.015019749 0.0029125072 -0.055908593 
  995000    254.69014    6296.8938     2924.207    24.442694 -0.00094517473    -0.018504 -0.016033363 
  996000    242.59463    13711.842     2924.207    27.465737 -0.024771813 -0.023905907 -0.025217813 
  997000    232.83414    9044.1579     2924.207     29.01086  0.017791363 -0.051582797  0.020128939 
  998000    243.27169    10116.918     2924.207    28.733366  0.013239429  0.026827398 -0.023044911 
  999000    254.92502    9008.4913     2924.207    27.891557  0.020521488  0.027127585  -0.01586361 
 1000000    244.20564    7870.7873     2924.207    25.593378 -0.016228453  0.020323646 -0.014721872 
Loop time of 11438.1 on 2 procs for 1000000 steps with 240 atoms

Pair  time (%) = 9202.71 (80.4564)
Bond  time (%) = 0.389648 (0.00340657)
Neigh time (%) = 35.6706 (0.311857)
Comm  time (%) = 2074.02 (18.1325)
Outpt time (%) = 0.659606 (0.00576673)
Other time (%) = 124.684 (1.09007)

Nlocal:    120 ave 122 max 118 min
Histogram: 1 0 0 0 0 0 0 0 0 1
Nghost:    5067 ave 5074 max 5060 min
Histogram: 1 0 0 0 0 0 0 0 0 1
Neighs:    45567 ave 46441 max 44693 min
Histogram: 1 0 0 0 0 0 0 0 0 1
FullNghs:  91134 ave 92789 max 89479 min
Histogram: 1 0 0 0 0 0 0 0 0 1

Total # of neighbors = 182268
Ave neighs/atom = 759.45
Ave special neighs/atom = 0
Neighbor list builds = 6060
Dangerous builds = 0
#	run			10000
	unfix			1
	uncompute		myKE
	uncompute		myPE
	uncompute		myStress
	uncompute		flux
	uncompute		myDis
	unfix			JJ

	next seed
	next iseed
jump lmp.in.gk loop_seed
variable iseed loop 10
variable seed index 11111 22222 33333 44444 55555 66666 77777 88888 99999 11110
clear
###########################################################################
#x0
###########################################################################
units 			metal
atom_style		full
read_data		fort.26.nonbonded
  0 = max bonds/atom
  0 = max angles/atom
  0 = max dihedrals/atom
  triclinic box = (0 0 0) to (14.3 14.3 14.3) with tilt (0 0 0)
  1 by 1 by 2 MPI processor grid
  240 atoms
  0 bonds
  0 angles
  0 dihedrals
  0 = max # of 1-2 neighbors
  0 = max # of 1-3 neighbors
  0 = max # of 1-4 neighbors
  1 = max # of special neighbors
group         		C type = 1
60 atoms in group C
###########################################################################
#OLPS
###########################################################################

################################################################################
#### Pair potentials
################################################################################
pair_style hybrid/overlay tersoff lj/cut 12.0
pair_coeff * * tersoff C.4.tersoff 1 2 3 4
pair_coeff 1 2 lj/cut 0.0007000000 3.5500000000
pair_coeff 1 3 lj/cut 0.0007000000 3.5500000000
pair_coeff 1 4 lj/cut 0.0007000000 3.5500000000
pair_coeff 2 3 lj/cut 0.0007000000 3.5500000000
pair_coeff 2 4 lj/cut 0.0007000000 3.5500000000
pair_coeff 3 4 lj/cut 0.0007000000 3.5500000000
special_bonds lj 0.0 0.0 0.0 coul 0.0 0.0 0.0

#pair_style tersoff
#pair_coeff * * C.4.tersoff 1 2 3 4

#pair_style lj/cut 12.0
#pair_coeff 1 1 0.0700000000 3.5500000000
#special_bonds lj 0.0 0.0 0.0 coul 0.0 0.0 0.0
###########################################################################

#--------------------------------------------------------------------------
#variables
#--------------------------------------------------------------------------
variable   	dt 		equal 0.001
#--------------------------------------------------------------------------
#kappa parameters
#--------------------------------------------------------------------------
variable    	p 		equal 100000 	# correlation length
variable    	s 		equal 10  	# sample interval
variable    	d 		equal $p*$s 	# dump interval
variable    	d 		equal 100000*$s 	
variable    	d 		equal 100000*10 	

#--------------------------------------------------------------------------
variable 	T_run 		equal 300
#--------------------------------------------------------------------------

log 	log_heat_${iseed}.lammps
log 	log_heat_9.lammps
