	reset_timestep  	0
	fix 			1 all nve
	compute   		myKE all ke/atom
	compute   		myPE all pe/atom
	compute   		myStress all stress/atom virial
	compute   		flux all heat/flux myKE myPE myStress
	variable  		Jx equal c_flux[1]/vol
	variable  		Jy equal c_flux[2]/vol
	variable  		Jz equal c_flux[3]/vol
	fix       		JJ all ave/correlate $s $p $d c_flux[1] c_flux[2] c_flux[3] type auto file J0Jt_${iseed}.dat ave running
	fix       		JJ all ave/correlate 10 $p $d c_flux[1] c_flux[2] c_flux[3] type auto file J0Jt_${iseed}.dat ave running
	fix       		JJ all ave/correlate 10 100000 $d c_flux[1] c_flux[2] c_flux[3] type auto file J0Jt_${iseed}.dat ave running
	fix       		JJ all ave/correlate 10 100000 1000000 c_flux[1] c_flux[2] c_flux[3] type auto file J0Jt_${iseed}.dat ave running
	fix       		JJ all ave/correlate 10 100000 1000000 c_flux[1] c_flux[2] c_flux[3] type auto file J0Jt_6.dat ave running
	compute 		myDis all msd
	thermo_style 		custom step temp press vol c_myDis[4] v_Jx v_Jy v_Jz
	thermo			1000
	timestep		${dt}
	timestep		0.0010000000000000000208
	run			1000000
Memory usage per processor = 7.28915 Mbytes
Step Temp Press Volume myDis[4] Jx Jy Jz 
       0    315.24798    8456.0625     2924.207 2.3434011e-30  0.031320174 -0.029971006 -0.017794249 
    1000    278.73483    16471.239     2924.207    13.293186 0.0077545562 -0.029129967  0.022053666 
    2000    284.69735    8724.7478     2924.207     18.43779 0.0032638131  -0.02424658 -0.040769351 
    3000    270.40334    16792.835     2924.207    15.950728  0.048420446    0.0107947  0.018522932 
    4000    297.09078    15324.627     2924.207    19.450925 -0.022289346  0.040108109 -0.0038017351 
    5000    296.12787    9365.9167     2924.207    20.865889   0.04876216 0.0062372422 -0.0085690644 
    6000    269.63936    13380.652     2924.207    19.915954 0.00017582359 -0.018860025 -0.042462782 
    7000    296.11064    14429.999     2924.207    24.423638 -0.049457018  0.051313809 0.0005344803 
    8000    295.68579    2397.1131     2924.207    27.345621  0.034791093 -0.0017108545 0.0015532368 
    9000    298.17316    15678.559     2924.207    25.099659 -0.019855091 -0.0083779871  0.020870474 
   10000     297.3484     6981.207     2924.207    27.708195 -0.033677933  0.017111465 -0.0065224935 
   11000    284.48534    15230.515     2924.207    29.953547 -0.037295449 -0.017822001 -0.037164487 
   12000    296.74449    10842.639     2924.207    25.028812  0.026260552   -0.0399105   0.03559506 
   13000    308.17748    8964.6213     2924.207    22.542583     0.010618  -0.02556115 -0.039234693 
   14000    254.39562      16465.4     2924.207    27.865064 -0.025521266 -0.013460209 -0.010174957 
   15000    248.41912    10724.341     2924.207    31.591244  0.025709464 0.0089498701  0.024574706 
   16000    290.50448    18499.952     2924.207    30.393163  0.011345283  0.013097265  0.027635082 
   17000    284.25666    10564.569     2924.207    31.515834 -0.0042996982  0.012894087  0.011169672 
   18000    259.78122    12056.816     2924.207    35.703146 -0.0068254321 -0.032812548 -0.025469773 
   19000    277.10471     19192.67     2924.207    33.591694 -0.0087304897 -0.020438064 -0.020002113 
   20000    300.93792    10697.602     2924.207    28.034299 -0.014948597  0.013948644 0.0042465397 
   21000    268.77596     20072.25     2924.207    26.154142 0.0074177942  0.025932616  0.044798067 
   22000     267.3453    19353.512     2924.207    29.646638 -0.021508426  0.016962021  0.020748135 
   23000    301.75898    14143.923     2924.207    33.299978 -0.012684961 -0.019656843  0.012300834 
   24000    282.79611    14231.301     2924.207     35.21159  0.010406731  0.043190437 -0.022125985 
   25000    273.18491    14107.933     2924.207    33.200139 -0.0081682578  0.053183187 -0.012930368 
   26000    275.65484    15540.267     2924.207     29.85652  0.024733767 -0.025095732 -0.032666831 
   27000     285.4217    17085.601     2924.207    28.727949  0.037889265 -0.011221095  0.016070717 
   28000    240.91378    19723.503     2924.207    29.527875  0.018125644  -0.03500024 -0.008179659 
   29000    254.46044    17424.929     2924.207    29.362155 -0.012677668 -0.0054512015  0.012253396 
   30000    253.09622    13128.527     2924.207    28.458746  0.012944547  -0.01150001  0.032435856 
   31000    269.09224    18283.368     2924.207    29.479022   0.01859196  0.020993712 -0.019360763 
   32000    286.17745    14518.957     2924.207    33.206862 0.0073950492 -0.0067343384  0.056669724 
   33000    259.82673    17080.034     2924.207    35.533351  -0.01374902 0.0078577702  0.016194297 
   34000    253.01629    11956.264     2924.207    31.114471 -0.016279676   0.03540882 -0.014633884 
   35000    282.58943    18528.531     2924.207    25.184027  0.052828605 0.0065072267 0.0026793375 
   36000    289.26683    9365.2395     2924.207    28.196905 -0.0079655346   0.01239216  0.026989092 
   37000      243.959    10835.381     2924.207    32.966869  0.010286673 -0.034958625  0.011143088 
   38000    293.73364    11435.453     2924.207    28.522518  0.042010512 0.0029940874  0.021747647 
   39000     290.8419    13203.566     2924.207    20.926229 -0.0019315665 0.00073787175  0.033569562 
   40000    278.28502    5454.7744     2924.207    18.123394 -0.0032637067  0.037828941 -0.021073186 
   41000    288.86674    18707.581     2924.207    24.216497   0.01838377  0.016865753 -0.0046074349 
   42000    282.78481    11978.345     2924.207    30.928651  0.029651696 0.0012330933 -0.006653985 
   43000    287.95663    9257.9484     2924.207    24.320964  0.000343058  0.017466564 -0.043188066 
   44000    290.53367    16858.389     2924.207    15.583138 -0.032869804  0.055290336  0.019318918 
   45000    290.10215     13699.96     2924.207    21.456463 0.00095131799 0.0023601834  0.014434771 
   46000    297.41051    12398.445     2924.207    29.565519  0.017341435  0.019432573  0.022452978 
   47000     284.2695    7455.6807     2924.207    28.527469 -0.035631037  0.059369055 0.0017647913 
   48000    288.09387    9229.8309     2924.207    25.248067  0.021478371  0.067483729 0.0009893515 
   49000    295.92079    12677.047     2924.207    25.738203  0.016746406 -0.0073725471  0.010138162 
   50000    284.60548    10787.558     2924.207    28.700207 -0.015891777 -0.0040681241  0.040260556 
   51000    280.14747    12905.044     2924.207    27.476363 -0.035271131 0.0010189449  0.017711145 
   52000    280.56979        15398     2924.207    24.288824 -0.018222719  0.035563535 -0.039281117 
   53000    300.37845    12515.823     2924.207    24.827926 -0.0084648773 0.0021835742 -0.040328083 
   54000    285.57281    13945.337     2924.207    29.000478 -0.00090060985  0.016170047  0.052082501 
   55000     300.7558    11566.959     2924.207    31.883957 -0.043215745 0.0064375859 -0.011113707 
   56000    286.42909    10255.102     2924.207    31.010881 0.0052709076 -0.0027107809  0.013289051 
   57000     258.4143    19455.809     2924.207    29.718648 -0.006763749  0.014113498 -0.028906565 
   58000    317.15393    6257.1003     2924.207    28.892192 -0.027149189 -0.0085560965 -0.037751353 
   59000    287.88806    14138.123     2924.207    28.676333 -0.035047454 -0.013448588 -0.0028970991 
   60000    294.33845    14882.854     2924.207    29.135043  -0.02507287  0.040787106 -0.055197396 
   61000     281.2662    12588.947     2924.207    31.472648  0.011022586 -0.016325912 -0.033701826 
   62000    302.17204    8945.9459     2924.207    32.524631 -0.0059841892 -0.023154437 -0.019849648 
   63000    294.71142    16492.223     2924.207    29.431005   0.03112262   0.06028131   0.01517731 
   64000    290.12529    7425.5208     2924.207    28.033533 0.00043519758 0.0073052716 -0.019112027 
   65000    281.70087    15210.788     2924.207    32.202933  0.011531114  0.015627897 -0.044746064 
   66000    293.86501    6179.2051     2924.207    32.845276 0.0028273039  -0.07700198 -0.009739595 
   67000    288.14076    16917.067     2924.207    25.550476  0.052371295 -0.0015674403   0.00542897 
   68000     307.1915    5889.7305     2924.207    23.186958 -0.031388539 -0.021792397  0.044081517 
   69000    300.89369    12995.162     2924.207    30.196033 -0.014757724  0.030087085  0.058873947 
   70000    304.03946    11314.353     2924.207    31.812163 0.0061281415 0.0045157067   0.03230037 
   71000    268.72625    12953.927     2924.207    25.963872  0.041629988  0.013506992 -0.013727042 
   72000    296.38499    8432.6233     2924.207    20.493387   0.03193667 -0.0027461268  0.019787396 
   73000    265.32021    19203.787     2924.207    19.691905 -0.0011553836  0.027546606  0.012653596 
   74000    275.50734    14273.197     2924.207    22.517544 -0.034943318   0.02770617  0.025071217 
   75000    296.71309    4140.9197     2924.207    24.772098 -0.014999683 -0.037398897 0.0092471658 
   76000    273.41225     22205.98     2924.207    26.472975  0.023540791 -0.067726225 -0.015305347 
   77000     256.7213    9916.0292     2924.207    27.878676  0.062087991 -0.0044564529  0.033976987 
   78000    321.09483    7202.0463     2924.207    27.148033 0.0041356135  0.015279297 -0.019249657 
   79000    255.49205    14429.565     2924.207    27.550919 -0.030946505  0.033749924  0.011853003 
   80000     277.4421    15648.662     2924.207    25.807918 0.0041367209   0.02987515  0.055295186 
   81000    299.82439    5707.6333     2924.207    27.990018 -0.041114875 -0.021072159 -0.023723606 
   82000    268.53597     17071.46     2924.207    29.921407 -0.048081761 -0.0080276494 0.0098743179 
   83000    285.52238    6866.9624     2924.207    29.163331 -0.014137882 -0.0069526702  -0.01379188 
   84000    276.68194    18468.514     2924.207    30.693428  0.013518192 0.0034134045 -0.026900297 
   85000    286.49531    3967.7875     2924.207    32.824663 0.00043403926 -0.014743174 -0.016164158 
   86000    287.24141    13501.276     2924.207    29.885938 0.0084775029 -0.010197874  0.023383207 
   87000    267.89675    16002.109     2924.207     26.08735  0.065650535 -0.023873652 -0.016418554 
   88000    279.55974    18538.268     2924.207    27.163281 0.0013308458  0.016029367  0.048055037 
   89000    267.08241    10372.796     2924.207    28.723195 -0.018084802 -0.029340654 0.0060868337 
   90000    304.80022    12226.876     2924.207    28.410424 -0.010896743 -0.031330427 -0.00060042648 
   91000    274.38803    11469.575     2924.207    27.629301 -0.010088207 0.0080160172 0.0015601438 
   92000    272.22227    11119.913     2924.207    27.106257  0.027300817  0.032318452  0.031599083 
   93000     292.2897    15928.262     2924.207    26.685117  0.011568993 -0.041771087 -0.0073866358 
   94000    281.22631    9413.1201     2924.207    23.651735 -0.019449698 -0.013224552 -0.024527262 
   95000    292.98241      12280.5     2924.207    18.384654 -0.029312388 -0.0085354784 -0.052936214 
   96000    287.33112     18877.54     2924.207    22.045121 0.0076416387  0.010332743 -0.017277859 
   97000    297.34807    6266.3696     2924.207     32.44275  0.019239853 -0.0020333082  -0.02129653 
   98000    282.06688     16229.45     2924.207    34.935212  0.039508817 -0.011662763 -0.016039946 
   99000    278.95254    10349.533     2924.207    29.337445 0.0062726071 -0.022834354 -0.029342869 
  100000    276.54019    14496.311     2924.207    19.804452  0.018776454 -0.00084396652 -0.0009688326 
  101000    293.45163    8561.5842     2924.207    17.873094  0.013133678 -0.018960658 -0.015336396 
  102000    298.97131    9546.5967     2924.207    23.752823  -0.05630658 -0.020755804  0.026550051 
  103000    285.71078    16087.301     2924.207    31.983234  0.020654064  0.027239667  0.027795257 
  104000     281.9721    11872.612     2924.207    31.719091 -0.020504369 0.0034366087 -0.021941581 
  105000    280.63199    9417.4699     2924.207    26.552231 -0.0052420283  0.003700012 0.0096604655 
  106000    290.34394    9629.3979     2924.207    20.113585 0.0012209075 -0.023522819 -0.035130505 
  107000    279.39314     17183.24     2924.207    22.542343 -0.023558477 0.0025703087 -0.020942899 
  108000    304.85876    11503.892     2924.207    27.839924  0.014694097 -0.062618186 -0.007961721 
  109000    278.50889    14311.412     2924.207    28.660736 0.0070436643 -0.0068723719 -0.0018053516 
  110000    283.93719    12126.635     2924.207    31.165083 -0.0073543721  0.015659066 -0.0035496519 
  111000    276.73472    9873.9334     2924.207    34.707767  -0.02302184 -0.026549401 0.0045714177 
  112000    295.50611    11394.105     2924.207    31.221061 -0.010396309  0.006964987 -0.036298864 
  113000    286.33763    13279.156     2924.207    24.704529  0.010265224 -0.047222263 -0.013230422 
  114000    286.36647     1426.878     2924.207    21.878536   0.03469539 0.0021546533 -0.035322426 
  115000     287.7787    10694.047     2924.207    24.774227 -0.013861592  0.020617247    0.0183047 
  116000    296.02421    10433.698     2924.207    30.603572 -0.020407164 -0.0078059254 -0.034563524 
  117000    275.92621    10926.005     2924.207    33.128003 -9.7602955e-05 0.0043128115 0.0039247192 
  118000    295.81863    15529.772     2924.207    33.536509  0.027845417 -0.0039839842 -0.025712976 
  119000    286.40496    7551.7051     2924.207    33.549544 -0.0090489726  0.018504499  0.034943025 
  120000    285.48385    8759.4774     2924.207    32.519697  0.009247258 -0.0023728147  -0.02067535 
  121000    276.27982    15274.664     2924.207    28.509907    0.0151459  0.004284215 -0.0023616664 
  122000    280.99641    2432.9928     2924.207    27.346449  0.027982134 -0.067788081 0.0024243474 
  123000    259.54601    13416.041     2924.207    28.978228 -0.035559295  0.018763046 0.0040662714 
  124000    282.58336    10037.774     2924.207    26.723445 -0.0069844611  0.016545893   0.03904463 
  125000    268.90216    15784.018     2924.207    21.198578  0.031541049 0.0091384237  0.010024908 
  126000    293.93982     6864.478     2924.207    22.767064 -0.0055390072 -0.0038806985  0.039295408 
  127000    287.12906    14779.432     2924.207    27.772894 -0.004316433 -0.021918214 -0.011413459 
  128000    281.61033    17293.644     2924.207    29.166712 -0.034805672 0.0052074249  -0.01330892 
  129000    279.52198     5292.121     2924.207    29.325955 -0.029737894 -0.038498829  0.037383667 
  130000     293.4104     13317.33     2924.207    26.093249 -0.015710222  0.021589263   0.01290872 
  131000    283.27813    15476.252     2924.207    21.903672  0.030242152  0.028801717 -0.012201466 
  132000    287.95456    7674.8981     2924.207    24.535889 -0.010994964  0.017082578  0.012316053 
  133000    281.88734    8504.4487     2924.207    26.885171 -0.010770226 -0.0072966599  0.015063921 
  134000    296.79491    5978.7109     2924.207    28.166823  0.030575589 -0.023979085 -0.027847199 
  135000    296.40068    15116.475     2924.207    27.992962 -0.016172406  -0.03258644 -0.040750968 
  136000    271.31041    12489.542     2924.207    24.220741  0.029696983 -0.0016235436  0.012559921 
  137000    298.06836    9409.1844     2924.207    23.744167 0.0047451527  0.050214197  0.030432211 
  138000    276.67062    16582.822     2924.207    24.882512 -0.046568291 -0.0065680602 0.0020866234 
  139000    294.97799    5661.8459     2924.207    26.721013 -0.021436093 -0.037058366 -0.0045425979 
  140000    277.80057    18403.937     2924.207    30.103515 0.0028534949  0.018224902 -0.010853087 
  141000    273.30886    12396.681     2924.207    33.408412 -0.0090230119 0.0059159182  0.011382972 
  142000    280.96858    10122.888     2924.207    35.132253 -0.020570132  0.003663788 -0.029529918 
  143000    297.13845    9287.5401     2924.207    32.082331  -0.04932825 -0.0047960208    0.0044067 
  144000    254.92665    14048.965     2924.207    27.296508 -0.023883531  0.032225015  0.013812031 
  145000    274.68572    12122.245     2924.207     25.70556 -0.0032060897 -0.038023755  0.019924236 
  146000    307.49537    6936.8368     2924.207    28.955765 -0.0010382676 0.0065362417 -0.015289504 
  147000    273.69536    11913.742     2924.207    32.064001 0.0029827197 -0.031390334 -0.020851624 
  148000    296.00379    8484.7914     2924.207    27.907374  0.033746474 0.0043162318 0.0087110932 
  149000    288.66761    11285.972     2924.207    21.941761  0.031201476   0.02271455 0.0095571111 
  150000    274.15802     14061.95     2924.207    24.422161 -0.0043270888  0.010786011  0.016051999 
  151000    280.76908    5829.0236     2924.207    32.572709 -0.011764701  0.005765262 -0.0031328434 
  152000    290.05366    16641.362     2924.207     31.88159 0.00013750596 -0.026441608 -0.015542556 
  153000    268.51984    11703.915     2924.207    24.940624 -0.035368567  0.017674582 -0.023899707 
  154000    298.85902    12971.542     2924.207    20.631869 -0.019241852  0.011785575 -0.017274933 
  155000    275.09086     6171.411     2924.207    23.646369  0.023236583  0.020159895 0.0071466237 
  156000    265.51204    19067.705     2924.207    28.543249 0.0023464391  0.016210467 -0.014298215 
  157000    275.56618    7611.3243     2924.207    31.714434 -0.021852144 -0.025991589  0.019697124 
  158000     253.1653    12784.994     2924.207     32.08424 0.0094785261  0.011893533 -0.0067616447 
  159000    277.11964    17604.725     2924.207     30.15877 -0.017002279 -0.0057067174 -0.012902869 
  160000     270.1314    10688.186     2924.207    30.136531 -0.037834096  0.011489473 0.0088926728 
  161000    269.27772    12488.075     2924.207    30.871489  0.014609888 -0.0017550312 -0.0023963617 
  162000    275.13834    10454.735     2924.207    30.766263 -0.0089535894 -0.037576456 -0.013329359 
  163000    272.25455    15854.995     2924.207     32.36477 -0.016040088 -0.048202141 -0.049671824 
  164000    263.00277    8195.5142     2924.207    33.464364  0.012574163  0.036875798 -0.018519411 
  165000    264.57795    11392.479     2924.207    32.981436 -0.020867522 -0.011725643  0.028316456 
  166000    262.09749    10171.162     2924.207    30.784911 -0.013838737 0.0013705431 -0.0041883209 
  167000    256.06851    12561.485     2924.207    29.578037 -0.030956495 -0.014353368 -0.0091264449 
  168000    271.60305    15429.213     2924.207    26.282839 -0.026233669 -0.010151049 0.0039155806 
  169000    287.19123    9127.5699     2924.207    23.999342 0.0034745245   0.02548558  0.011051711 
  170000     243.7857    14755.825     2924.207    28.830201  0.015983705 -0.010753575 -0.0054998071 
  171000    284.53989    14872.895     2924.207     33.72903 -0.041885653  0.020402135 -0.0047192728 
  172000    241.83282    6603.0651     2924.207    33.446328   0.04447837 -0.006286084 -0.027391957 
  173000    295.81512    13760.469     2924.207      26.7628 -0.023879394 -0.00058770234  0.019595564 
  174000    271.76687    8607.0363     2924.207    24.897098 -0.040818138 -0.033601467 -0.038540065 
  175000     244.2214    14922.619     2924.207    27.101128 -0.015602115 0.0064382488 -0.0017526579 
  176000    264.33178    22024.988     2924.207    26.051859 -0.018746962 0.0087433549  -0.01784306 
  177000    287.04771    18364.488     2924.207    25.764433 -0.013855351 -0.031590221  0.012823842 
  178000    270.28713    6178.7498     2924.207    28.305933 0.0058650282 0.0054960806   0.02303145 
  179000    251.52112    19712.736     2924.207    31.772734 0.0065340565 -0.026478965 -0.018643647 
  180000    272.43095    10213.874     2924.207    30.903614 -0.0039583863 -0.0035340443 -0.012437365 
  181000    269.85113        10299     2924.207    27.064306 -0.020880678 -0.014213366 -0.0096865565 
  182000     282.1325    16155.603     2924.207    25.154396 -0.042039536 -0.031945887  0.016775499 
  183000    272.46425    5387.2285     2924.207    28.544651 -0.0056052323 -0.036565606 -0.028536252 
  184000    250.41069    16594.287     2924.207    33.196719  0.011720297 -0.054254658 -0.029553146 
  185000       282.62    4052.3541     2924.207    35.621428  0.034908049  -0.01607153 -0.052660364 
  186000    297.85927    11588.967     2924.207    33.364147  -0.03470207 -0.011628472  0.011957499 
  187000    273.99035    5436.3197     2924.207    29.788987 -0.010274923 0.0032928235 -0.0075621863 
  188000    274.34077    11158.255     2924.207    26.650612 -0.061735112  0.014683025 -0.023473701 
  189000    284.16741    15799.494     2924.207    24.697248  0.029084216 -0.033875555 -0.024188093 
  190000    281.41923    6728.0966     2924.207    28.507991 -0.0019884908  0.013790861 -0.026695565 
  191000    277.70665    10880.344     2924.207    32.910773  0.043445343 -0.023805512  0.011889023 
  192000    292.82191    15724.992     2924.207    32.879089 0.0017840325 -0.012647257 -0.031487666 
  193000    254.24392    14069.209     2924.207     31.26962 -0.039320457  0.038919719 -0.012475977 
  194000    270.25788    14192.477     2924.207    32.245809 -0.011483597  0.061265771  0.022954594 
  195000     286.0034    13129.917     2924.207    33.926403 -0.015253376 -0.0016475724 0.00045092926 
  196000    274.35436    8643.6062     2924.207    31.677026 0.0055298958  0.041003447  0.011627831 
  197000    273.52559    17164.193     2924.207     28.31419 -0.031329491  0.015502217 -0.017491531 
  198000    283.20787    7165.4143     2924.207    29.383795 -0.0096267742 0.0093350716  0.015317892 
  199000    290.83123    12435.401     2924.207    31.108168  0.005927806  0.021033848 -0.033904752 
  200000    281.31306    2915.7602     2924.207     28.03824 -0.0048191976  0.019140996 -0.013594166 
  201000    277.36048    8576.0128     2924.207    24.255424 -0.0012105101 -0.0034470097 0.0012424818 
  202000    272.57596    12375.887     2924.207    27.554241  -0.01019244 0.0076022415 -0.032360649 
  203000     283.9554    9099.6454     2924.207    33.455758  0.013709469 -0.0018641281 0.0090716218 
  204000    293.55172     2655.314     2924.207    31.900672 0.0048800521 0.0021014894 0.0086581808 
  205000    279.78855    13708.019     2924.207    25.719311  0.020271998 -0.022803704 -0.015292071 
  206000    287.05265    9747.1402     2924.207    25.997867 0.0031005633  0.021791497 -0.0015459592 
  207000    289.75937    9288.1049     2924.207    28.855584 -0.036697423  0.019828206 -0.015312281 
  208000    285.97162    14569.348     2924.207    25.440665 -0.0038546055 -0.019146842 0.0030526358 
  209000    275.81035     9434.458     2924.207    23.326838 -0.047903873  0.011934947  0.028719506 
  210000    302.50532    9394.1649     2924.207    27.996696 0.0050398802 -0.0088596164 -0.044113354 
  211000    284.90489    11937.923     2924.207    31.409125  -0.01134544 -0.023700688 0.0040549575 
  212000    302.53699     12565.86     2924.207    26.170911 -0.022406551 -0.0032475611 -0.021428915 
  213000    267.72858    11866.283     2924.207    21.610252 -0.041078496 0.0098566765 -0.0052474349 
  214000    275.11429    14681.953     2924.207    28.414462  0.012308197 -0.0040284638 -0.011823986 
  215000    292.74942    6500.8828     2924.207    33.082731 -0.033931032   0.03988352  0.026753554 
  216000    292.47109    17625.601     2924.207     28.46444 0.0068020734 -0.0019486973 -0.012762382 
  217000     285.8032    4482.4582     2924.207    20.306288  0.001719737 -0.0093428403   -0.0123326 
  218000    288.45708    11552.299     2924.207    24.169981 0.0055156489  0.014810307 -0.007815566 
  219000    271.31807    7495.6592     2924.207    33.464818  0.020533112 -0.030284259 -0.0082940468 
  220000    275.77338    15561.898     2924.207    32.117099   0.01746719  0.053653614 6.7898705e-05 
  221000    292.62475     10152.91     2924.207    22.779469 -0.011069732 0.0041325608 -0.006723361 
  222000    273.17417    9043.2747     2924.207    19.153278  0.012866579 -0.025534235 -0.0046759801 
  223000    290.31083    7322.9219     2924.207    21.032129  0.024410489  0.019095658 -0.031018461 
  224000    273.05212    7588.7564     2924.207    23.161149  0.037973923  0.012611524 -0.013191645 
  225000     291.6308    12263.218     2924.207    27.394404 -0.0053822466   0.02947494 -0.042402382 
  226000    298.51413    12638.706     2924.207     31.10245 -0.027456059  0.028728432 -0.049665994 
  227000    297.08623    9124.1165     2924.207    28.524062 -0.0096162522 -0.029921794 -0.0018738943 
  228000     287.3374    7086.5302     2924.207    25.383086 -0.0072581897 -0.013324301 -0.048748602 
  229000    248.74793    12159.513     2924.207    28.576348 -0.0068863771 -0.0088439911 -0.014323977 
  230000    289.54063    6069.2789     2924.207    32.054812 -0.0062980503 -0.029088188 -0.036190873 
  231000    283.99625    10452.448     2924.207    30.148315 6.3806043e-06 -0.067508048 -0.0070680141 
  232000    265.97533    14082.017     2924.207    27.264746 -0.020166009 -0.0024032256 -0.0033229919 
  233000    281.33131    9819.5144     2924.207    26.621651  0.012470034 -0.0065791485 0.00011608279 
  234000    289.80543    11337.465     2924.207    27.955517  0.010316263 0.0027742848 -0.012716773 
  235000    284.09477     8736.483     2924.207    26.126904  0.011498952 -0.014213037  0.044317899 
  236000    287.78789     11265.65     2924.207    19.953123  0.003669076 -0.038301867 -0.049787403 
  237000    285.33957    13912.216     2924.207    19.515184 -0.0056098152 0.0020333336 -0.033311812 
  238000    276.19262    13039.712     2924.207    26.637043  0.025917028  0.012963066  0.052407629 
  239000     279.2322    3237.8341     2924.207    31.733722  0.011863762  0.011717698  0.025167797 
  240000    300.98105    7609.1552     2924.207    27.987387 0.0087963788 0.0035442448 0.0024953997 
  241000    288.60614    12435.792     2924.207    24.360277  0.006737997 -0.026333977  -0.01151958 
  242000    289.87325    10314.844     2924.207     25.37777  0.015433089 -0.021649193   0.00424896 
  243000    280.23177    13628.416     2924.207    26.624263  0.032002726 0.0047824972 -0.015246109 
  244000    260.51253    6556.2619     2924.207     26.13143 0.0068400234  0.012029927 -0.055466069 
  245000    292.82263    8519.4463     2924.207    27.990395 0.0062896022 -0.011361685 0.0043994833 
  246000    278.54738    18265.151     2924.207    32.773722 -0.0073498479 -0.026718325 -0.0078751123 
  247000    270.84931    5918.5905     2924.207    30.897564 -0.0023595541 -0.068111784 -0.0042544865 
  248000    278.91348    12859.574     2924.207    25.766005  0.012336386  0.024581518 0.0062839707 
  249000    275.62945    12344.638     2924.207    24.630743  0.013086762 -0.0068752473 -0.021932501 
  250000    282.69531    8721.9278     2924.207    27.685838  0.016360227 -0.012671177  -0.01753454 
  251000     286.0876    8242.7273     2924.207    32.867217  0.022248592 0.0010681325  0.022065101 
  252000    283.39174    5855.7891     2924.207    33.610208 -0.018424691  0.026230433  0.005608656 
  253000    254.35379    11135.888     2924.207    29.410035  -0.02881058 -0.0040098156 0.0061814892 
  254000    281.59504    1971.3634     2924.207     26.08595 -0.030276236 -0.0055342474 -0.017326618 
  255000    281.60349    19063.234     2924.207    24.964238 -0.029240556 0.0044368328 -0.039224666 
  256000    267.11717    5877.5897     2924.207    25.222514 -0.013526893 -0.0064794897 -0.00039939335 
  257000    274.85965    18130.356     2924.207    28.354868 -0.0058820835 0.0064232022 -0.0033296666 
  258000    279.35248    9192.6893     2924.207    31.875321 -0.0022837382 -0.011959242  0.041118753 
  259000    281.10791    12774.073     2924.207    33.129181  0.012669183 -0.0035531792  0.051415013 
  260000     281.3168    10239.241     2924.207    31.176487  0.037859442 0.0063425792  0.039959141 
  261000    278.44044    9968.9555     2924.207    26.578426  0.012851542 -0.022999831 -0.015506157 
  262000    283.23487    7477.2721     2924.207    22.521319 0.0064538991 -0.020786354 -0.025086405 
  263000    290.76482    12257.906     2924.207    23.206306  0.015584293 -0.012126088  0.042870883 
  264000     265.4725    8891.9414     2924.207    27.472802 -0.011081937 -0.0079239394  0.029563143 
  265000    261.52493    16939.115     2924.207    31.028191 -0.0050610145 -0.032245929 -0.00032009605 
  266000    276.27658    8103.5328     2924.207    32.666126  0.011164521 -0.023880987 -0.010986159 
  267000    263.93357    11962.467     2924.207     30.59893 0.0014152797 -0.012549468 -0.027208317 
  268000    261.53836    9416.5092     2924.207    28.809417 -0.015830921  0.041156627 -0.0088832323 
  269000    264.54099    13433.821     2924.207    26.536806  0.026880312  0.033097058  0.003743161 
  270000    288.66749    8141.8306     2924.207    25.861314  0.013183563 -0.013678948 0.0046992037 
  271000     280.0646    9141.6876     2924.207    27.911198 -0.019097385  0.011321977  0.016577871 
  272000    271.38376    14223.423     2924.207    30.012161 -0.010479763  0.046875073 -0.0050483314 
  273000    263.30014    13482.652     2924.207    30.219556  0.025806563  0.054851017 -0.010361052 
  274000    269.49435     10297.62     2924.207     29.19498  0.016409798   0.02906897 -0.0025402092 
  275000    271.71032    11748.512     2924.207    32.032653 0.0072690202  0.010567377  0.019317263 
  276000    259.31665    10522.072     2924.207    34.218472 -0.012789312  0.027258381 -0.016147794 
  277000    270.92732    9937.6086     2924.207    35.342192 0.0061667795 0.0030193148  0.019671774 
  278000    252.52681    15708.768     2924.207    32.915158 -0.004537883 0.0023000183  0.032017939 
  279000    283.05936    10524.535     2924.207     28.61272  0.036778204 -0.016789546 -0.023957638 
  280000    280.32134    7417.0639     2924.207     26.84731 -0.015619882 -0.019973318  0.040490282 
  281000    278.33987    9550.1287     2924.207    27.677624 0.0022255739 0.00074400322  0.022200432 
  282000    255.40633    17519.388     2924.207     32.22245 -0.015203647 0.0061581428 0.0030217367 
  283000    268.81763     9648.046     2924.207    34.829731 -0.0038540627  0.023569766  0.020915808 
  284000    255.53995    10182.694     2924.207     32.63174 -0.013965752 -0.011228134 -0.019557619 
  285000    253.46614    17691.199     2924.207    28.861786  0.031420172 -0.029329189  0.012956191 
  286000    276.67085    13960.177     2924.207    28.193856 -0.029689369 0.0079685179  -0.01049626 
  287000    269.37787    12728.929     2924.207    30.595903  0.027891456 0.0064867729 -0.0081446505 
  288000    276.30067    7371.2816     2924.207    32.913868 0.0023310691  0.042596935 -0.024887495 
  289000    265.80812    14958.375     2924.207    34.417139 -0.006465627   0.02517564 -0.020468289 
  290000    266.95703    8907.3342     2924.207    34.650766   0.02012764  0.022003625  0.029013126 
  291000      267.778    9789.6452     2924.207     34.12214 -0.011993051  0.010457188  0.026618447 
  292000    278.02745    10679.913     2924.207    32.988824 -0.020566337  0.030818689   -0.0218916 
  293000     268.9906    12008.099     2924.207    33.091452   0.01809174  0.018873057 0.0010553813 
  294000    276.54953    7070.8212     2924.207    34.265455  0.019475757  0.027166142 -0.0037732832 
  295000     268.1244     14951.97     2924.207    34.426241 0.0071935233 -0.014862578 -0.071721946 
  296000     289.6068    685.47677     2924.207    34.234834  0.022561131 -0.031028587 -0.023880264 
  297000    266.88287    11244.167     2924.207    32.506473 -0.020998789 0.0040243991 -0.013326817 
  298000    258.72008    19867.515     2924.207    28.522074 -0.012886063  0.043628765 0.0093498817 
  299000    261.00781    6407.2319     2924.207     25.68851 -0.028539849 -0.056001828 -0.012288896 
  300000    250.33822    10989.708     2924.207    23.894559 0.0092481181  0.051056295 -0.035585191 
  301000    285.17498    8788.3088     2924.207      23.8226 -0.010657784   0.02638793  0.031647777 
  302000    272.04642    11397.649     2924.207    27.788108 0.0028150871 -0.036663662   0.02474938 
  303000    280.85494    4843.4301     2924.207    31.448113  0.020278958 0.0045693665  0.012647585 
  304000    275.62769    11973.528     2924.207    32.694507  0.011573418 -0.026916839 -0.013540271 
  305000    266.29128    11084.527     2924.207    33.158251  0.047795958  0.027700989 0.0064789657 
  306000    292.21254    10430.399     2924.207    33.920853 -0.013381426  0.015284671  0.027451989 
  307000    264.98715    8902.5041     2924.207    33.962314 -0.035468123 -0.0098299183   0.01549364 
  308000    271.44209    18813.703     2924.207    31.327113 0.0076219192 0.0058643023  0.035938213 
  309000    274.08469    4539.4919     2924.207    30.188883 -0.0036423142 -0.0060867143   0.02148339 
  310000    275.96601    22897.769     2924.207    29.376634 -0.0092255575  0.020466776 -0.012296584 
  311000     275.4314    9914.7639     2924.207     28.31277 -0.032725468 -0.024819456 0.00054846808 
  312000    259.28313    10428.341     2924.207    30.922289 0.0091563808  0.019340673 -0.013719494 
  313000    261.84182    11883.965     2924.207    32.495468  0.020198958  0.028876974  -0.01506486 
  314000    281.12061    8581.9441     2924.207    31.627011 -0.001095703 -0.0003327436 -0.0063705712 
  315000     247.2211    7445.2495     2924.207    30.395175  0.010324749  0.011786216 -0.030660396 
  316000     268.8443    14741.631     2924.207    28.993941  0.026268979 -0.0018150648 -0.0070425196 
  317000    283.06899    5015.3049     2924.207     29.74281 -0.014140508   0.01190009 -0.018169979 
  318000    273.58832    4817.7826     2924.207    31.840731 -0.011507897 -0.012609117 0.0037951098 
  319000    266.55454    13536.308     2924.207    34.494305 -0.0092055271 0.0058565146 -0.020464379 
  320000     270.9271    10524.808     2924.207    36.020011 -0.021559547 0.0069331824 3.992851e-05 
  321000    280.14983    7000.4647     2924.207      35.2125 -0.018548848 -0.0065792735 -0.0023660934 
  322000    249.60561    10901.577     2924.207    32.936976  0.037744511 -0.0058772273 0.00024761359 
  323000    252.52505     13647.75     2924.207    28.940715 -0.015299387 -0.012962728  0.040126251 
  324000    270.53195    4910.6153     2924.207    28.471539 -0.0080942403  0.010853412 -0.015845127 
  325000    269.38623     6087.135     2924.207    28.490884 -0.018166941 -0.0029001864 0.0039664006 
  326000    278.65159    15207.083     2924.207    25.451856   0.01175074  -0.01355939  0.041762161 
  327000    252.08111    7341.3174     2924.207    26.089144 0.00045976677  0.018467037 -0.0045814753 
  328000    260.53165    14624.726     2924.207    29.560596 -0.021358573  0.024566135 0.0011497647 
  329000    262.55001    4971.4776     2924.207    32.101269 -0.011819675  0.017969232 0.0074001868 
  330000    255.39151    21919.767     2924.207    32.828186 -0.00016932532  0.026049806 -0.034117387 
  331000    256.74631    13420.886     2924.207    34.099235  0.015676277 -0.019219248 -0.0097911718 
  332000     253.1879    10462.319     2924.207    34.511935 0.0095669147  0.011778787 -0.057367612 
  333000    265.95711    7206.7851     2924.207    34.547541 -0.033001081  0.019112971 -0.037526155 
  334000    273.46396    16848.573     2924.207    34.252132 0.0034194758  0.036054749 -0.028484381 
  335000    270.55029    11294.713     2924.207    31.874975  0.047382483  0.051150049 -0.014105115 
  336000    261.44304    5248.0572     2924.207    30.212017  0.043205531 0.00047485788  -0.03087382 
  337000    246.06237    15364.033     2924.207    30.701343 -0.0043854305  -0.02967042  0.010933675 
  338000    273.89551    10097.495     2924.207    31.609406  0.049386351  0.010119064 -0.035107415 
  339000    271.68369    13373.992     2924.207    33.935174 -0.026606291 0.0039508563 -0.056161906 
  340000    274.16577    8903.8032     2924.207    34.894102 -0.0025332408 -0.0036887722 -0.015028866 
  341000    262.86865    8804.3104     2924.207    32.363735 0.0039796215  0.012063908 -0.019470045 
  342000    287.48925     8388.167     2924.207    29.523402 -0.027121898  0.019144366 -0.0026152045 
  343000    256.91979    13243.195     2924.207     28.14209 -0.016675031 -0.0058836675   0.03506473 
  344000    264.50253    5810.8401     2924.207    26.442955 -0.0070266054  0.014748875 -0.021496595 
  345000    258.58808    11796.924     2924.207    21.427399  0.030096931  0.066770453  -0.01232897 
  346000    277.03435    7858.1884     2924.207    19.898019 0.0057657747 -0.027162929 -0.0010809524 
  347000    242.76303    18762.978     2924.207    22.099965  0.027079437 -0.034221732 -0.020624002 
  348000    270.98625    7573.9094     2924.207    22.156392 -0.023469467  -0.01957318 -0.033080024 
  349000    251.24645    13368.917     2924.207    21.926364 -0.030036558 -0.032006267  0.017242503 
  350000    277.78749    7746.8587     2924.207    20.346626 -0.0096380362 -0.0088615097 -0.031063917 
  351000    254.40398    9529.6277     2924.207    19.893814  0.013043382 0.0080698525 -0.015020692 
  352000    279.40837    10957.132     2924.207    21.121158  0.019563248  0.019527767 -0.036271581 
  353000    259.03119    15784.533     2924.207     23.11351  0.023928582 0.0021141189 0.0004458578 
  354000    255.33583    6837.5534     2924.207    21.248617 0.0039081448 -0.00020439604  0.010284658 
  355000    287.30001    9776.3208     2924.207    16.578328   0.01134303 -0.026063474 0.0059052176 
  356000    273.23101    2169.4839     2924.207      17.2529 -0.015493601 -0.0053788521 -0.009098042 
  357000    261.41003    14468.543     2924.207    21.551562  0.015829379 -0.015769401 -0.00068285303 
  358000    275.25681    8087.2253     2924.207    28.193495 0.0071422492  -0.02448836  0.019363218 
  359000    244.40689     8343.745     2924.207    33.726525 -0.010031131  0.024517142 -0.0036905801 
  360000    283.65588    16926.023     2924.207    34.645718 -0.048938811  0.037610127  0.013027462 
  361000    245.90568    3182.3215     2924.207    33.712865  0.006359011 -0.031267993 -0.0056989199 
  362000     283.8975    11339.145     2924.207    32.539439 -0.013977696  0.018835555  0.026527372 
  363000    266.72824    6184.6729     2924.207    30.660799  0.014744526 -0.019588736 -0.047494217 
  364000    260.02663    17058.787     2924.207    26.113022 0.0079783018 -0.021150084 -0.0070616505 
  365000    279.31173    6896.3125     2924.207    22.302862  0.064798534 0.0051835729 -0.0014556891 
  366000    260.89543    12207.287     2924.207    22.912254 0.0038985762  0.016424179  0.033943307 
  367000     260.2642    12886.573     2924.207    24.433084 -0.0094351782 0.0015865957  0.034718436 
  368000    288.29326    6723.3226     2924.207    25.497681 -0.0095373012 -0.023999756 -0.018493809 
  369000    272.61972    10349.818     2924.207    25.835765 -0.0088368274 -0.056135367  0.014063063 
  370000    242.64388    15383.298     2924.207    26.331605  0.012356665 0.00060338395  0.039815495 
  371000    258.25696    9317.0465     2924.207    26.898534 -0.0002622164 -0.036393739 -0.0095492316 
  372000    272.51584    6384.0448     2924.207     26.58788 -0.035711243  0.007893707  0.020478741 
  373000    258.42031    8734.4986     2924.207    23.314826 -0.027842982  0.028064829  0.015459538 
  374000    268.55006    9790.5449     2924.207    17.715203   0.01266098 -0.070060081  0.030608126 
  375000    269.53977    9229.5246     2924.207    17.497707 -0.018355458 -0.0031429533 -0.029950292 
  376000    260.53776    8971.4376     2924.207    22.722053 -0.018037801  0.042579737 -0.0066547849 
  377000    263.92041    10549.687     2924.207    25.133857  0.017435154 -0.030597041 -0.052190499 
  378000     271.7305    13793.534     2924.207    23.806245 0.0018496507 -0.0056398941 -0.0050379634 
  379000    245.88241    12624.894     2924.207    21.848326 -0.0018860974  0.016140689 0.0025738752 
  380000    252.90451    8219.3236     2924.207    20.784069    0.0219754 -0.012250308  -0.01603368 
  381000    266.30249     14761.21     2924.207    24.066668 0.0080316381  0.035798483  0.012754018 
  382000    268.20972    6075.0871     2924.207    28.176596 -0.020836411   0.01184902 -0.015367927 
  383000    282.14967    9718.8699     2924.207    31.617439 -0.055587967 -0.018137046 -0.0089046232 
  384000    264.27369    7251.2748     2924.207    31.027148 -0.015757307 -0.032156145 -0.0051138586 
  385000    258.12084    15948.345     2924.207    29.876747 0.0025148955 -0.0036056558 -0.041380476 
  386000     254.1802    9801.5497     2924.207    30.711468   0.02734424 0.00049811253  0.024951918 
  387000    273.69145     6969.883     2924.207    33.233586  0.018446959  0.013396288 0.0032952568 
  388000    269.43143    12443.257     2924.207    33.616492  0.023053398 -0.049086658 -0.045929365 
  389000    265.85793    9708.2169     2924.207    33.168967  0.010490886  0.011728931 -0.016237845 
  390000     234.5222    12071.323     2924.207    33.338137  0.014223202 0.0043157251  0.021075832 
  391000    277.83068    11940.184     2924.207    33.663904  0.035135343  0.011113301  0.040053691 
  392000    258.42149    6811.6372     2924.207    33.310331 -0.0094350344 -0.0029955028 -0.0020204478 
  393000      260.173    15599.295     2924.207    30.914774 0.0043604689 -0.010113078 -0.0096075384 
  394000    278.73387    9167.8697     2924.207    28.699561 -0.021272343 -0.0011376502  0.026773476 
  395000    245.11582    13067.333     2924.207    29.433622  0.012221441 -0.0052344927 0.0011425868 
  396000    262.11183    14463.815     2924.207    31.949163  -0.03128334 -0.0097362668 -0.023446806 
  397000    279.30374    11857.683     2924.207    34.629703 -0.013597405  0.022675906  0.019894231 
  398000     243.2834    14244.822     2924.207    35.384268 -0.0082663414 -0.014952468 -0.016366477 
  399000    263.76942    8826.0874     2924.207    33.369319 -0.022338684 -0.010026225 -0.0086676925 
  400000    268.98042     11789.73     2924.207    31.825558  0.019535708 0.0080879977 -0.024723745 
  401000    261.77427    8548.0944     2924.207    30.835404  0.040495471 -0.0068912632 -0.017723372 
  402000    269.38808    8419.5564     2924.207    30.477535 0.0014674746 -0.026428261 0.0048539247 
  403000    273.27632    12774.989     2924.207    29.801502 -0.0099262617  0.034397202  0.040212896 
  404000    250.87095    6025.7713     2924.207    26.935142 0.0072720292 -0.007516272 -0.00061018385 
  405000    270.34656    9096.4957     2924.207    24.197141 -0.023049583 0.0029644065 -0.0056215868 
  406000    252.91213     4667.706     2924.207    24.887632 -0.0026231408 -0.00095464543  0.019282664 
  407000    265.82368    10135.304     2924.207    27.776158  0.023378031 -0.013037805  0.019883884 
  408000    269.90513    11479.169     2924.207    30.668354 0.0063782907 -0.004552583  0.009282699 
  409000    265.23041    5770.6428     2924.207    32.104882 -0.014146458  0.041276163  0.016496612 
  410000    273.98647    11321.004     2924.207    28.304883 -0.019004234 -0.015058462 -0.013213308 
  411000    286.00397    5760.8253     2924.207    21.888891  0.042460215  0.005765991 -0.014007693 
  412000    260.06319    14523.644     2924.207    21.151926  0.079455481 -0.0072872215   -0.0253033 
  413000    269.00357    4296.0459     2924.207    25.511317 0.0014477501 0.0063773127  0.011085083 
  414000    250.03389    18214.112     2924.207    26.356344  0.011712684 -0.030353435   -0.0296045 
  415000    259.98056    965.35485     2924.207    22.187934 -0.00022153872  0.022687067  0.025935679 
  416000    278.92493    11633.551     2924.207    17.593773 0.0099663516   0.02115987  0.021366754 
  417000    276.37634    12016.831     2924.207    19.488386 0.0027321289 -0.038775551   0.02839719 
  418000    266.89026     5711.501     2924.207    22.848509  -0.01227034 -0.028714302 -0.0026594828 
  419000     260.9599    8603.3968     2924.207    22.120197 -0.028701399 -0.0087417755  0.029537619 
  420000     270.8073    13054.477     2924.207    18.548816 -0.0058522718 0.00069004766 -0.0032501928 
  421000    282.43988    11227.372     2924.207    16.988058  0.010348413  0.010178459  0.022155395 
  422000    274.39016    7053.3008     2924.207    23.685833 0.0094672617 -0.028332033 -0.0040075724 
  423000    277.64694    2677.5047     2924.207    31.308931 -0.0054701467 -0.00088639334 0.0012097388 
  424000    262.92289    17659.179     2924.207    34.791141  -0.01303186 -0.018039079 -0.025183647 
  425000    286.02957    6080.0322     2924.207     32.90385  0.013425996 -0.043526807 -0.019947943 
  426000    277.14882    10541.986     2924.207    28.482954  -0.04269396 -0.017585297  0.018379644 
  427000    251.98179    9046.3865     2924.207    26.983294 -0.014533833  0.023537949  0.033142008 
  428000     257.2594    8784.1539     2924.207    25.924192 -0.052840105  0.033142356  0.020398884 
  429000    273.34661    10051.864     2924.207    24.633759  0.032080334 0.0037516655 -0.020439317 
  430000    277.14756    15971.098     2924.207    26.119639 -0.012696312  0.001663492 -0.056752508 
  431000    263.91804    11571.617     2924.207     31.00118 -0.026071505 -0.0045530251 -0.016904781 
  432000    259.62743    178.84169     2924.207    34.698034 -0.004241025  0.028355082 0.0045709946 
  433000    266.10534    14094.366     2924.207    33.236802 -0.022088654 0.0040373237 -0.010697021 
  434000      287.258    10574.924     2924.207    29.072323 -0.021544727 -0.0074766071 -0.047433968 
  435000    262.26212    5805.5147     2924.207    26.025799 -0.037581553 -0.017959709 0.0084034024 
  436000    257.95376    9511.1315     2924.207      27.4118 -0.022949479  0.017268315  0.018274805 
  437000    270.42297    9227.5751     2924.207    32.131997 -0.018823417 -0.021237069 0.0037087769 
  438000    284.06689    4614.4683     2924.207    33.539637 0.0012781288 0.0053509637  0.010531784 
  439000    259.09911    14682.882     2924.207    30.763898 -0.0083496491 0.0085691921 -0.022364731 
  440000    278.05674    7836.8823     2924.207    26.443282 -0.028752529 -0.016710413  0.028135616 
  441000    277.18132    7324.9053     2924.207    25.230985 -0.013588262 -0.027762602 -0.026314227 
  442000    267.45586    13651.337     2924.207    27.639823 0.0058122829 -0.040563029 -0.050011022 
  443000    275.83196    7115.1286     2924.207    28.988351 -0.014396186  0.024407345  0.011212532 
  444000    275.01106     12977.64     2924.207    25.606193  0.021165512  0.020104292 -0.005804541 
  445000    263.79159   -883.42983     2924.207    23.880082 -0.031146634 -0.020688038  0.015597428 
  446000    276.07584    15542.101     2924.207    24.819724  0.041368803  0.042901418 -0.00010820869 
  447000    270.09832    7064.4211     2924.207    28.172461  0.024450612 0.0099439248  0.028662514 
  448000     262.5308    9356.0224     2924.207    30.410083   0.05232793 -0.011222199  0.016516267 
  449000    259.03132    9145.7836     2924.207    30.421021  0.061467209 -0.040563881 -0.029773056 
  450000    271.89395     11669.66     2924.207    29.411145 0.0049954934  0.021993039  0.024682761 
  451000    253.85747    11649.871     2924.207    29.881932  0.003174048  -0.03069767 -0.012190094 
  452000    257.26198    14540.541     2924.207    29.898366 -9.1564031e-05 -0.0046015251 -0.011759713 
  453000    270.55287    4853.4612     2924.207    26.021546 -0.052970883 -0.015192821  0.032043495 
  454000    271.43119    11809.384     2924.207    22.159014 -0.043436073   0.02571676 -0.016872369 
  455000     284.8278    7991.6099     2924.207    23.148003 -0.0087860379 -0.0036041483  0.027547924 
  456000    276.37231    8181.8269     2924.207    27.189142  0.023668924 0.0020884576 0.0089513901 
  457000    276.76927    5241.0988     2924.207    28.829378  0.001811316 0.0018550777  0.041834045 
  458000    282.90555    1316.8652     2924.207    29.116358  0.030371428  0.011160232  0.033308817 
  459000    268.38506    9015.5706     2924.207    29.097074  0.023728383 -0.019741855  0.028849252 
  460000    267.75136    15121.969     2924.207    27.868147 0.0079358345 -0.032760028 -0.0036080268 
  461000     279.5214    7900.9312     2924.207     27.29081 -0.026202844  0.029750247  0.020420747 
  462000    281.42652    11805.963     2924.207    25.987817 0.0049362058 -0.0055397623  0.022047366 
  463000    285.93705    9053.9083     2924.207    23.013324 -0.022374257 -0.0088124773 -0.011413673 
  464000    266.13366    2843.7953     2924.207    24.665639 0.0019526036 -0.014629772 -0.034143349 
  465000    278.09887    13395.599     2924.207    28.959887 0.0055885168  0.047345272 -0.010881163 
  466000    265.41182    8642.7193     2924.207    31.868095 0.0054726965 0.0090233174  0.033174632 
  467000     276.7811    6347.6731     2924.207     28.85837 0.0079522608  0.012937277  0.064134592 
  468000    270.13301    4758.8741     2924.207    23.076925 -0.0098628247  0.008039378  0.039699725 
  469000    276.84773    7020.4497     2924.207    23.909304  0.010777716  0.029090389 -0.0093428981 
  470000    259.82139    6665.4251     2924.207    30.792199 -0.025817027  0.057435697  0.022367696 
  471000    259.70365    9675.5884     2924.207     35.05504  0.017519109  0.039998785 -0.0035511334 
  472000    277.96824    8620.9868     2924.207     33.37124  0.018249797  0.015187705 -0.015448522 
  473000    261.86087    10923.539     2924.207    25.571959  0.011388955 -0.011273394  0.018889387 
  474000    264.28096    8038.4981     2924.207    20.919987 -0.015090274  -0.01561326 0.0092558822 
  475000    262.43945     9175.856     2924.207    24.323503  0.022000384  0.023532212 0.0088079444 
  476000    269.95876    4519.8301     2924.207    31.264745 -0.027993407 -0.0052175246 -0.0026737521 
  477000    255.54617    8460.1374     2924.207    35.694858 -0.048708245 -0.00043053154 0.0011863813 
  478000    272.12087    12137.622     2924.207    34.952463  -0.01097561  -0.02964654 -0.041840528 
  479000    259.21472     12218.13     2924.207    32.928271  0.013482704 0.00060757625 -0.016582055 
  480000    268.76481    3417.3487     2924.207    31.811294  0.006940114  -0.01536681 -0.00061809236 
  481000    264.07007    10637.053     2924.207    29.822813 -0.010316841 -0.027220094 -0.018581805 
  482000    271.12165    13274.708     2924.207    28.186359  0.059687713 -0.033798791 -0.00064035356 
  483000    263.65427    6345.2247     2924.207    28.771328 -0.00056486448 -0.035365547 0.00029097919 
  484000    270.87721    9870.2942     2924.207    31.064644  0.020132921 -0.0055997874 -0.0087074159 
  485000     255.9058    12399.429     2924.207    33.894119 -0.011174405 -0.015468048  0.032935597 
  486000    267.54474    3266.9367     2924.207    35.172323 -0.0087712207 0.0036281592 -0.018722287 
  487000    262.12226    15546.642     2924.207    34.931147 -0.0014056775 -0.0080909975  0.018367332 
  488000    267.25824    9578.5752     2924.207    33.580648 -0.010285603  0.017667279 -0.0085725036 
  489000    250.94656    10739.523     2924.207    29.359984 -0.028026954  0.046482031 -0.0035991809 
  490000     266.0611    13303.672     2924.207     23.65314 -0.026077327  0.032714327  0.013560964 
  491000    262.31912    6987.7731     2924.207    18.428825  0.014325024 0.00013491586 -0.018686598 
  492000    251.71274    7627.3281     2924.207    18.792958 -0.0050290794  0.028624628  0.030034013 
  493000    264.98742    10977.445     2924.207    23.065505 0.0052945655 -0.009309988 -0.019577332 
  494000    257.62583    5731.0159     2924.207    28.643041 -0.017431987  0.012391551 0.0099237629 
  495000    265.14107    13972.452     2924.207    30.584909  0.023143371 0.00078328113 -0.0099203395 
  496000    252.82368    10252.386     2924.207    29.018454 0.0079509576 -0.0032768043 -0.037443357 
  497000    259.22811    2670.2798     2924.207    25.930071 -0.0081350919  0.004967337  0.024875583 
  498000    285.26557    19076.065     2924.207    24.516968 -0.0086068622   0.04890519 -0.013173404 
  499000    253.86112    8047.9023     2924.207    27.152063 -0.001525929 -0.019416688  0.012008679 
  500000    263.63613    9078.0026     2924.207    29.203123 -0.034799054 -0.016981166 -0.060619762 
  501000    274.84707    9722.0836     2924.207    28.390083 -0.011321918 -0.011357786 -0.021558875 
  502000    270.20264    8242.2855     2924.207    24.981808 -0.010645424 -0.0069980898  0.026547459 
  503000    280.19298    10832.163     2924.207    21.215546 0.0047952146 -0.015080543 -0.0034057206 
  504000     248.4497    10467.962     2924.207    23.621175 -0.021531047 -0.049444795  0.020449638 
  505000      268.846    13763.611     2924.207    26.726326  0.026921038   0.03261429  0.011039677 
  506000    272.33603    1241.3343     2924.207    24.250108 -0.0014471506  0.028886412 -0.018666605 
  507000    267.67777     7770.402     2924.207    21.226557 0.0035440058  0.018790165  0.013345415 
  508000    267.19498    8856.1472     2924.207    26.118026  0.016402746 -0.0051791046 -0.021229138 
  509000     270.8351    16077.532     2924.207    32.245882 0.0040031103 -0.016477674 0.0085366607 
  510000    255.34043    8353.0097     2924.207    28.345251  0.023819946 -0.032363792 0.0097425673 
  511000    268.47529    9148.8997     2924.207    20.220929  0.037741059 -0.025930437 -0.0021870917 
  512000    266.98245    5383.1312     2924.207    18.201342 -0.038072781 -0.035123189  0.019970807 
  513000    263.14661    10080.777     2924.207    21.184315  0.028750329 -0.0078892626 -0.0097413814 
  514000    259.91155    10639.596     2924.207    25.600929 0.00081278089 -0.042447298 -0.038587874 
  515000    269.85165    13236.501     2924.207     30.72039 -0.0019846274 0.0076958229 -0.023414412 
  516000    267.02118    6891.9834     2924.207    33.193958 -0.0045179007 -0.014493398 0.0076017924 
  517000    258.41418    10441.532     2924.207     33.81563  0.012176763  0.046719615 0.0095446577 
  518000     268.3786    14100.696     2924.207    35.160278 -0.014174119  0.017913815 -0.021622638 
  519000    249.82142    4926.2712     2924.207    34.174419 -0.045501829 -0.013984238  0.038801092 
  520000    265.36541    12845.192     2924.207    28.159383 -0.0036760112 0.0093209206  0.042446744 
  521000    268.60025    14788.457     2924.207    19.393866 -0.014057315   0.03855688 0.0092223569 
  522000    283.70637    521.02759     2924.207    14.629932 0.0085460258 -0.017422562 -0.0057005087 
  523000    254.86813    18489.118     2924.207    16.140978  0.027478819 -0.018319857 -0.0093601846 
  524000    263.75353    7534.8828     2924.207    20.236043 -0.008649859  0.016350818 0.0093581348 
  525000    257.77006    8876.8352     2924.207    23.781014 -0.033552342  0.013507416  0.017378475 
  526000    283.17624    10029.682     2924.207      27.9262  -0.01156489 -0.048244929 -0.0090090443 
  527000    265.44778    2486.2823     2924.207    30.440149  0.027597726 -0.023720287 -0.0082514455 
  528000    256.27807    15646.433     2924.207    27.850322 -0.0041454342 -0.034547706  0.035970152 
  529000     249.8666    8630.0981     2924.207    26.033556 -0.016092068   0.01545084 -0.011489214 
  530000    287.60092    8150.8067     2924.207    28.136338  0.035116119  0.012540469 0.0056773381 
  531000    247.41062    4414.1303     2924.207    31.361736 -0.021377145 -0.0028185976  0.035560395 
  532000     259.9232    15794.977     2924.207    33.963106 -0.00023382025 -0.028413375  0.006317123 
  533000    255.59343    8543.4928     2924.207    34.408388  0.014286981  0.001645292 -0.018744877 
  534000    256.83388    1057.2155     2924.207    30.009573 -0.024588997 -0.014576269  0.034004581 
  535000    251.87269    11098.279     2924.207    26.603251 -0.011330828  0.025256238 -0.035517575 
  536000    264.13427    16012.348     2924.207    26.130102   0.01297434 -0.0076534569 -0.039568109 
  537000    249.53898    7025.1036     2924.207    27.024836  0.012400918  0.028159741  -0.01273135 
  538000    267.48132    10316.335     2924.207    28.035049  0.017061129 0.0034102221  0.046223029 
  539000    256.02143    17267.788     2924.207    26.866726 -0.0068732237  0.015251841 -0.017257442 
  540000     270.8011    6418.9512     2924.207    27.398208 -0.021047527 0.0089345678 -0.031864439 
  541000     268.2328    11730.079     2924.207    30.276057 -0.008678475  0.026893391 -0.027011752 
  542000    249.70167    13953.147     2924.207    30.733613 -0.0070925138  0.056494337  0.012597694 
  543000    274.82407    7602.1041     2924.207    32.307229 -0.0030702211 -0.013085982 -0.0021327915 
  544000    269.47398    7286.5217     2924.207    33.869811  0.012410109 -0.024930986 0.0015502817 
  545000    257.60043    12940.408     2924.207    32.168645  0.027121877 0.0059817245 -0.023174285 
  546000     271.9127    7505.4482     2924.207     28.85832 -0.0098564231 -0.016019833  0.008272136 
  547000    267.12498    8001.9259     2924.207    25.863958 -0.011778291 -0.040921385 -0.016699234 
  548000    258.17201    8228.2675     2924.207    24.318877  0.018575036 0.0099843348  -0.02289977 
  549000    262.93517    17090.688     2924.207     23.30059 0.0061080724 -0.042346248 -0.035844159 
  550000     267.1487    9155.6765     2924.207    21.467923  0.039400496 0.0050719816 -0.057685305 
  551000    277.49914    3886.9227     2924.207    21.805807 1.5670023e-05  -0.02724554 -0.0088548671 
  552000     262.4979    15451.407     2924.207    22.567348  0.035138932 -0.0062027052 -0.002616173 
  553000    261.56306    6761.5672     2924.207     25.67508 -0.0073595603  0.013668951 -0.0078732459 
  554000    260.28381    8674.1778     2924.207    31.748724 -0.0011209389 -0.023957687  0.010167336 
  555000    273.19406    12606.419     2924.207    34.344154 0.0033676552   0.02501633 0.0060090886 
  556000    249.12274    9230.8066     2924.207      30.4407  0.012975616 -0.021938752  0.016523219 
  557000    252.93105    15546.128     2924.207    25.671349 0.0032317391  0.013409089  0.031881405 
  558000    259.97037    5852.9165     2924.207    26.595825 -0.012485228 -0.017657872  0.051602893 
  559000    273.61624    14494.103     2924.207    30.301741  0.024880217 0.0063082445  0.017385993 
  560000    276.46075    12406.378     2924.207    31.981227 -0.029925411 -0.010835226  0.030841791 
  561000    263.47973    5674.2776     2924.207    31.737927 -0.0018411943 -0.014097046 -0.042633129 
  562000     239.1269    9718.3539     2924.207    31.008084  0.025110022 -0.0045755398 -0.028505535 
  563000    276.53458     7807.585     2924.207    29.307308  0.012755048 -0.013302789 0.0098671908 
  564000    269.77192    8501.1334     2924.207    28.131077  0.038841843 -0.046392513 -0.016288859 
  565000    267.95943    5635.1495     2924.207    24.743859  0.010794606 -0.003058847 -0.012233179 
  566000    247.76924    18718.863     2924.207    24.471731  0.029904505 -0.031343676  0.024912669 
  567000    258.04308    7769.9882     2924.207    27.022679 -0.0089500611 -0.014636622  0.025050917 
  568000    251.37767    10099.564     2924.207    28.120492  0.016544969 -0.0074964749 -0.010739318 
  569000    262.48279    14049.127     2924.207    25.943608  -0.02782437  0.033207779  0.033397708 
  570000    274.63054    1423.9536     2924.207    23.660559 0.0024525621 -0.029104245 -0.011420484 
  571000    266.56802    15944.163     2924.207    25.029293 -0.011499567 -0.029530264 -0.0050935802 
  572000    260.22758    13143.237     2924.207    29.767073 -0.012911257 -0.013683563 -0.053010412 
  573000    255.88718    8807.2959     2924.207    33.214798 0.0051879796 -0.0078807395 -0.027410791 
  574000    269.57677    10402.969     2924.207    31.285691 -0.0068518747 -0.0023442261  0.012497305 
  575000    254.89648    17433.918     2924.207    27.082658  0.042031376 0.0095174423  0.011636008 
  576000     247.6746    2095.8818     2924.207    23.894477  0.033107364 -0.049870695 -0.013693277 
  577000    252.31979    7950.2925     2924.207    23.959961   -0.0150342 0.0033485503   0.01711262 
  578000     254.5167    11246.251     2924.207    27.809591   0.01751899  0.046766871 -0.027099211 
  579000    270.13399    16354.455     2924.207    31.327645 -0.0062495832  0.042448876  0.013933332 
  580000    264.47531    12562.014     2924.207    31.818441 -0.022865212  0.026413722 0.0039442922 
  581000    246.43733    7945.9865     2924.207    28.167575 -0.014920496  0.012957184  0.037315964 
  582000    250.73946    7393.4196     2924.207     24.76859 -0.017530208  0.024260572 -0.031398851 
  583000    278.75449    12999.577     2924.207    21.565129  0.025154749 -0.013455442  0.051057108 
  584000    250.55772    3819.4314     2924.207     21.92028 -0.013260406 -0.0085083894  0.015670705 
  585000    260.43289    12843.759     2924.207     23.49662 0.0074882517 -0.015911653   0.01849404 
  586000    247.09766    13850.257     2924.207    24.627808  0.003206272 0.0095982953 0.0052915436 
  587000    266.80112    7439.6663     2924.207    24.815765  0.046345534 -0.013540923 -0.020398884 
  588000    265.54061    15316.313     2924.207     25.41596 0.0073349141  0.034000424 -0.053353165 
  589000    254.17231    8897.4644     2924.207     27.32058  0.029390489  -0.01140604  0.021629227 
  590000    260.40005    9586.1751     2924.207    29.151737 -0.012257778  0.014538378 -0.009190481 
  591000    263.42654    8112.8745     2924.207    30.251983 -0.013375573  -0.03891886 -0.018711681 
  592000    265.87403     4284.699     2924.207    33.339138  0.016712547  0.026523961 8.2381348e-05 
  593000    284.68672     7567.741     2924.207     34.91308 -0.0042734023 0.0055274576 0.0014352606 
  594000    270.22526    11829.285     2924.207    35.650618  0.018842422  0.010615179  0.010134079 
  595000    261.86981    8888.7001     2924.207    35.602266  0.015273394 0.0099538154  0.020199212 
  596000    274.20448    4131.7998     2924.207    34.724353  0.045778505  0.012579008 -0.0082220765 
  597000    270.89061    13124.556     2924.207    31.922064 -0.00018128378 -0.0041407362  -0.01030228 
  598000    272.55793    7507.3168     2924.207    27.042862 -0.011935301  0.018810094  -0.03184376 
  599000    276.71298    9773.2732     2924.207     22.50941 -0.010933756 -0.026221509 -0.0053109876 
  600000    264.11743    10409.086     2924.207    22.636372 -0.012215797 -0.0013192174 0.00091760779 
  601000    260.11631    7578.0505     2924.207    27.153222  0.010381924 0.00035866374 -0.00019099502 
  602000    279.57675    11423.656     2924.207    31.963479 -0.0078182782 -0.025309089 -0.026624299 
  603000    287.68324     7237.873     2924.207    33.845325  -0.04627288 -0.023389902 -0.0062280698 
  604000    282.34992    8944.7473     2924.207    31.324356 -0.0032379413  0.012497224 -0.007724123 
  605000     261.7285    9087.4417     2924.207    27.056637  0.011159727   0.02803391 -0.0015861408 
  606000    275.47502    11256.284     2924.207    25.544267  0.022661763  0.042096632  0.019274832 
  607000    271.89151    6596.9314     2924.207    26.507933 0.0099752063 -0.022998293 -0.020057729 
  608000    282.24917    10972.117     2924.207    25.615093  0.019467208 0.0028608527 -0.035003138 
  609000    263.01055    8305.1433     2924.207    22.671782 -0.046379662 -0.036502534  0.010063609 
  610000    273.36106    6966.0992     2924.207    21.542755 -0.0073492585  0.045080431  0.043748655 
  611000    255.98168    5994.4529     2924.207     23.94515 -0.0033539697 0.0051511044 -0.0015744708 
  612000    273.29538    11173.645     2924.207    27.166407 -0.019517988  0.027215235 0.0033526429 
  613000     259.4001    4175.6406     2924.207    28.754024  0.004038481 -0.029570507 -0.0092501019 
  614000    285.02207    6434.4884     2924.207    28.799913 0.0088270222 -0.010606966  0.012461359 
  615000    263.25489    14963.839     2924.207    25.972993  -0.00780286 -0.021428222   0.02158125 
  616000    257.71028    8903.2634     2924.207    22.769501  0.023472456 -0.020603011 -0.017969784 
  617000    277.50442    9058.6289     2924.207    24.736388 -0.007230381  -0.01553253 -0.0090274827 
  618000    263.66474    8269.4301     2924.207    26.425833 -0.0098207162 0.0070517523 -0.0053805577 
  619000    271.34462    9051.7768     2924.207    24.029719 0.0080074599 -0.0036144583 -0.027242855 
  620000    274.57416    12246.892     2924.207     18.17044 -0.00028965043 -0.023319451 -0.015507282 
  621000    267.86724    9197.0469     2924.207    14.118149 -0.021378496  0.021997037  0.033934304 
  622000    250.30854    5252.6682     2924.207    16.700274  0.038072027 -0.0074024983 -0.0099422043 
  623000    262.29631    14421.751     2924.207    23.181924   0.03247899 -0.008043123  0.023694092 
  624000    258.50351    12367.858     2924.207    26.279804 -0.019280881  0.065683615 0.0082131569 
  625000    274.24937   -1868.3354     2924.207    26.085517   0.02534332  0.028680043 -0.021115003 
  626000    261.08927    11221.735     2924.207    23.957453  0.033757205 -0.023524501 0.0031450396 
  627000    245.08019    13025.392     2924.207    20.858941  0.011989823 -0.003716313 -0.011442304 
  628000    268.65296    9865.0211     2924.207    17.698331  0.015114845 0.0023840684  0.021787307 
  629000    264.40708    4807.1393     2924.207    18.147719 0.0050723663 -0.016703776 0.0084313014 
  630000    242.23059     12279.57     2924.207    21.323495 -0.011434766 -0.0063894658  0.023388505 
  631000    269.35698    7920.8133     2924.207    25.611397 -0.025662087 -0.018202935 -0.040169562 
  632000     267.8298    8060.9523     2924.207    25.788365 -0.045948183 -0.0046548746 0.0069575392 
  633000     259.5581    15595.407     2924.207    25.949284 -0.047828141 -0.028282534 -0.018061631 
  634000    271.04817    10985.039     2924.207    25.485323 -0.017669163 -0.022239889 0.0043377789 
  635000    262.91154    5943.7682     2924.207    24.851684  0.030215353 0.0076037311  0.034881163 
  636000    259.23496    11554.719     2924.207    24.690237 -0.015521309   0.01575606 -0.017953566 
  637000    259.00182    5189.8523     2924.207      25.8502 -0.00076538512 -0.025594407  0.026342375 
  638000    261.26942    10961.694     2924.207    29.341151  0.030033858 -0.033913584 -0.004150843 
  639000    269.78538    18924.246     2924.207    30.409235 0.0065901269 -0.009541707 -0.0022591272 
  640000    270.14195   -2503.5589     2924.207    27.091048 0.0024059979 -0.015109855 -0.026238849 
  641000    254.81526    14533.042     2924.207    22.128762  0.023454951 0.0016389764 -0.029784249 
  642000    274.83297    7352.2975     2924.207    17.976305 0.0089402579  0.018585494  0.002404151 
  643000    263.92888    12984.037     2924.207    17.507101 0.0066136225 -0.013260355 -0.048055979 
  644000    242.81458     11066.63     2924.207    19.406216  0.016298757  0.010371553 -0.016842959 
  645000    252.23525    955.10382     2924.207    22.953723 -0.011921862  0.012511236 0.0022199452 
  646000    260.90311    13224.968     2924.207    27.040283 -0.0021398017  0.012985921  0.020512101 
  647000    246.89502    12873.234     2924.207    30.280032  0.005597404 0.0092203829 -0.0050306595 
  648000    245.62804    10768.178     2924.207    32.267084 -0.030387681  0.011767316  0.015143336 
  649000    258.24427    14003.515     2924.207     30.15373  0.013904659 -0.022369715 -0.0072689321 
  650000    273.46462    8464.7389     2924.207    24.183139 -0.0045940263  0.001073447   0.03970768 
  651000    258.93624    9296.9788     2924.207    20.396328 0.0031394553 -0.014182015  0.023542704 
  652000    267.84094    5320.2963     2924.207    22.159015 0.0065800277 0.00068318204 -0.014026487 
  653000    255.22439    9310.0156     2924.207     28.25223  0.011091896   0.02335932 0.0079145444 
  654000    272.30877    7809.1561     2924.207     34.16665  0.017013254 -0.0019458926 -0.013273114 
  655000    252.98266     9696.301     2924.207     35.99589 0.0056153858  0.015526675 -0.004689306 
  656000    278.34382    10965.096     2924.207    33.652468  0.029804499 -0.038822836 -0.052520366 
  657000    256.48819    8136.9296     2924.207    31.047514   0.01713825 -0.017224562 -0.033455609 
  658000     261.8472    15432.324     2924.207    28.268236 -0.017522067 -0.0099887452 -0.0038788519 
  659000    272.22629    5064.5835     2924.207    25.744673  0.020563976  0.020102961  0.022412979 
  660000    269.78264    5696.0027     2924.207    21.911719  0.002595192  0.021402022  0.010650656 
  661000    257.38749    12068.999     2924.207    20.506148  0.034468187 -0.0027480181   0.02512457 
  662000    254.88724    15683.874     2924.207    20.965961 0.0056939746  0.018245364 -0.0087519259 
  663000    247.52551    3215.9054     2924.207    20.195991  -0.01232993 0.0025364743  0.010769274 
  664000    245.44852    19984.044     2924.207    19.756625 0.0016791633  0.045863996  -0.01353118 
  665000    281.64515   -2512.6184     2924.207    20.083514  0.046942611  0.063055371 -0.033427304 
  666000    267.69337    15320.698     2924.207    20.600656  0.036762986 -0.015014918 -0.012279397 
  667000      247.757    4406.3295     2924.207    21.088228   0.02684015  0.010122905 -0.049982652 
  668000    250.11861    10620.196     2924.207    21.166518  0.015553261  0.012639142  0.019244345 
  669000      254.994    15359.301     2924.207    23.536933  0.012180231 0.00034333598 -0.002375924 
  670000    255.97106    6980.0626     2924.207    27.599684 -0.027352073 -0.007147189 -0.022727918 
  671000    253.20769    7701.3819     2924.207    29.793769 -0.027188424 -0.0072140413  0.023072111 
  672000     250.1625    14299.083     2924.207    29.613744 -0.025930976 0.0044704734 -0.015808841 
  673000    241.45398    13110.666     2924.207    29.164205 -0.013164309  0.012546034  0.012353272 
  674000     262.7612    7605.4886     2924.207    29.049114 -0.0067940444 0.00034201971 -0.0036212869 
  675000    264.61639    13824.968     2924.207    29.525423 -0.0062820401  0.012904613 -0.0080838669 
  676000     248.0906    4517.2433     2924.207    26.939453 0.0064571528 0.0082597339  -0.02829973 
  677000    271.74444    8176.5871     2924.207    23.323842 0.00039378046 0.0097872094 -0.035508692 
  678000    243.31865    9443.3001     2924.207    23.031761  -0.02097947  0.020897227 -0.0047800693 
  679000    262.93712    11030.115     2924.207    23.433095  0.027212432  0.019104271 -0.023550256 
  680000    254.23396    11466.632     2924.207    23.779306 -0.019058185   0.02743785 -0.013601834 
  681000    252.71881    7667.9734     2924.207    24.108639 -0.014839519 0.0007250741 -0.013890584 
  682000    262.66346    12973.559     2924.207     25.58314  0.032228665  -0.01788679 -0.023332373 
  683000    246.56106    15181.531     2924.207    27.730671  0.027002429  0.021980256 -0.0034961025 
  684000    265.22101     3681.616     2924.207    26.844479 -0.0034900844 -0.0086736836 0.0080713751 
  685000    255.59716    9935.6153     2924.207    24.732967 0.00049280546 0.0070884597  0.024366906 
  686000    269.59531    7780.6587     2924.207    21.856137 -0.0065515789 -0.0064572593  0.015747903 
  687000    257.40985    12033.953     2924.207    19.498407 -0.00047685976 -0.016704606  0.027466826 
  688000    248.15513    9246.4661     2924.207    21.245353 -0.011702702  -0.01480489 0.0061994049 
  689000    255.28336    7096.5906     2924.207    22.471453  0.038231681 -0.0062141473    0.0393784 
  690000    267.40411    12615.362     2924.207    22.566525 -0.023780736  0.010630751 0.0042893382 
  691000    251.60285    9819.9435     2924.207    23.035138  0.010638043 0.0056161337  0.026777471 
  692000    266.00414    4016.4966     2924.207    22.183569 0.0013080368 0.00037476066 0.0041504877 
  693000     256.6379    9342.5203     2924.207    20.293224 -0.026641523 -0.0093980358  0.019526684 
  694000    271.13499    10393.601     2924.207     20.97055 -0.024782285  -0.02933833 -0.0092693934 
  695000     247.5562     11178.39     2924.207    23.531596 0.0022546703  0.019383087  0.044033192 
  696000    264.97738     6973.573     2924.207     27.70859 -0.023872563  0.035684401 -0.038309215 
  697000    262.19089    10129.821     2924.207    29.820991 -0.023387253 -0.003679762 -0.0083306312 
  698000     268.2074    5156.2816     2924.207    28.675729  0.019254648 -0.010512649 -0.031497558 
  699000    257.10123    14312.529     2924.207    26.682677 0.0014669257  0.025680184 0.0015437396 
  700000     272.8173    6039.8347     2924.207    25.647546 -0.037303254 0.0085066934  0.021987658 
  701000     256.9498    8152.3672     2924.207    27.609975  0.036105867 0.0089531146 0.00060882584 
  702000    255.89386    13320.404     2924.207    29.589525 -0.041544151 -0.0076181123 0.0010617714 
  703000    281.00253    11093.234     2924.207    31.585339 -0.017269215 0.0097298745  0.014366441 
  704000    256.16342    10505.106     2924.207    32.044397   0.01445375  0.033858695  0.030299943 
  705000    249.75144    13174.287     2924.207    33.968077 -0.0069200116 0.0031853501 -0.021693445 
  706000     263.5305    4541.9045     2924.207    34.267811 -0.020903117  0.021056512  -0.03192161 
  707000    263.63442    11945.779     2924.207    31.136208  0.012101336 0.0074484837 -0.013143488 
  708000    253.68643    9781.5133     2924.207    30.148922  0.023388788 -0.012331906 -0.033959569 
  709000    261.29855    14169.971     2924.207     31.40579 -0.023164514 -0.012705746 -0.018490705 
  710000    268.30946    2414.5425     2924.207    33.020851 0.0077921247 -0.0039243243 -0.020700514 
  711000    256.48384    6367.9644     2924.207    33.045467 -0.034052912  0.024619205 -1.5583963e-05 
  712000    239.22353    10686.112     2924.207     30.76545 -0.013310065 0.0082498371 -0.027169432 
  713000     246.7664    11982.377     2924.207    27.601385  0.015680153 -0.0055999532  0.026174169 
  714000    251.26905    6156.2064     2924.207    27.071417 0.0059843933 -0.00097548983  0.004190058 
  715000    258.49828    11006.673     2924.207    27.555877 0.0068126374 0.0048826077 -0.0035172333 
  716000    263.85211    10276.564     2924.207    28.780903 0.0085330767 -0.0090632204 0.0087528339 
  717000    269.44595    7477.1229     2924.207       31.965  0.017133956  0.021784468 -0.0048350306 
  718000    251.38462    7059.7651     2924.207    31.650667 0.0040588796  0.011887938 -0.027134843 
  719000    285.01073    12799.086     2924.207    27.871364  0.019342488 -0.015250062 0.00061063911 
  720000    260.70439    5229.9001     2924.207    26.434526 -0.012716172  0.012568837 -0.013748583 
  721000    277.88117      10277.9     2924.207    27.288768  0.047620838 -0.0023374703   0.01383166 
  722000    253.40673    9383.7649     2924.207    25.896732 -0.043634132 -0.0052333044  0.024871827 
  723000     256.7421    6913.1261     2924.207     24.20369   0.02074328 -0.0076968413 -0.044084369 
  724000     269.4383    7469.1812     2924.207    24.511855 -0.027424229  0.022556272  0.016767594 
  725000    262.44335    9321.6386     2924.207     24.67958 -0.040567407 -0.0007485651 -0.038042428 
  726000    265.51761    6460.8419     2924.207    25.092306 -0.0045374669  -0.05407863 -0.019714819 
  727000    267.52049    8228.2289     2924.207    25.296547  0.013327168 -0.025165644 0.0088078091 
  728000    253.01051    7784.5179     2924.207     26.43257 0.0040537387 -0.046499456 -0.018749347 
  729000    260.77672    9373.8577     2924.207    28.311973 -0.033223304 -0.043239414 0.0078625398 
  730000    271.50659    1744.4933     2924.207    31.310887 -0.011674893  0.023337215 -0.016824464 
  731000    277.83663     15550.79     2924.207    34.090484  0.010895542  0.014120632 -0.042983278 
  732000    223.29407    11120.311     2924.207    33.582453  0.025281778  0.025156787  0.015631839 
  733000    269.25237    12595.941     2924.207    33.156292 0.0022821345 0.0053678302 -0.042975301 
  734000    271.24008    10369.107     2924.207    33.604149    0.0155221    0.0561963  0.010379538 
  735000     251.5466    2474.8011     2924.207    33.300882 -0.0036152828 -0.016543098 0.0020925347 
  736000    242.22851    19175.421     2924.207     30.72665 -0.0097319255 -0.020940915 -0.012799154 
  737000    252.42694    5770.8768     2924.207    28.199314 -0.037626372 -0.0022048727 0.0047265168 
  738000    242.06962    9546.5175     2924.207    25.784111 0.0062010757 -0.008895936 -0.0064061918 
  739000    256.05357    15412.858     2924.207    24.356375  0.012526307 -0.0086437843 -0.033297175 
  740000    246.55848    1455.4724     2924.207    25.520618 -0.020208309  -0.05821258 -0.0070725477 
  741000    258.11511    18400.669     2924.207    27.911905  0.019800609  0.020544041 -0.011329576 
  742000    258.33605    8858.5792     2924.207    29.533809 -0.0069814642   0.01305763  0.038768876 
  743000    250.01623    8151.1734     2924.207    30.377207 -0.0067326451 -0.027148957 -0.018100913 
  744000      250.713    11519.433     2924.207    29.760356  0.021493868 -0.022253589 -0.0081940851 
  745000    238.75474    10307.643     2924.207     28.19222 -0.0073852551 0.0029840103  0.008412969 
  746000    262.32264    10484.929     2924.207    27.837602 0.0090318803 -0.0066209696  0.011694111 
  747000    231.74924    8315.3851     2924.207    28.238096  0.016260666 -0.0050179214   0.01794305 
  748000    256.66276    6616.1216     2924.207    29.272203 -0.014810823 -0.0096628651 -0.032011917 
  749000    245.14055    14575.757     2924.207    29.650393 0.0098782819 0.00035108456 -0.019129358 
  750000    252.17726    7128.8849     2924.207    29.833444 0.0024054198 -0.0022436043 -0.023898187 
  751000    252.88068    11374.723     2924.207    30.284691  0.028652538 0.0095405897 -0.0066079911 
  752000    264.02477    9761.8314     2924.207    29.786498  0.037683874 -0.0036529711 -0.007941898 
  753000    231.39107    9416.4302     2924.207    27.563128  0.039723401 -0.018471199 -0.0011772862 
  754000    264.87647    7903.2664     2924.207    24.894219  0.034632069 -0.0079496377 -0.0062953516 
  755000    259.09465    8493.7123     2924.207     23.26536 -0.019368031  0.011795906 -0.013044274 
  756000    259.55367     8272.504     2924.207    23.682279   0.03636741  0.040104645  -0.01181489 
  757000    242.29982    13806.464     2924.207    22.580538  0.018926625  0.016443831 0.00094790307 
  758000    264.34379    10243.597     2924.207    21.868823 -0.018856383 -0.0093299446 -0.0018121624 
  759000    256.08685     5254.307     2924.207    25.506565  0.025471994 -0.033913902 0.00030065275 
  760000    247.04536    12497.307     2924.207    29.599195 -0.018032769 -0.012622511 -0.012938346 
  761000    258.44349    5893.0337     2924.207    31.346269  0.027190951 0.0015287128 -0.010825715 
  762000    265.38752    5038.3763     2924.207    28.865236 0.0047508006  0.025742112  0.024850811 
  763000    264.15754    12049.793     2924.207    28.224502  0.011649965 0.0072530507 -0.035729278 
  764000    240.49505    8476.8991     2924.207     29.55236 -0.014589814 0.0027072916 -0.010897107 
  765000    268.11397    12170.115     2924.207    32.059984 -0.026929838 0.00044242113  0.010515183 
  766000    242.74861    15137.861     2924.207    34.077992 -0.015531615  0.027259816  0.005837958 
  767000    253.30021    8870.8242     2924.207    34.751667 -0.017296452  0.027811697  0.017785873 
  768000    251.37669    11572.203     2924.207    33.787841  0.018881085 -0.024027807 -0.028372767 
  769000    258.68498    10106.741     2924.207    34.127439   0.01742526 -0.00073355532 0.0090597704 
  770000    253.25496    10395.743     2924.207     34.46622 -0.000883727 -0.020166236 -0.0034123526 
  771000    242.57781    11055.595     2924.207    32.957476 -0.0039720622  0.048182451 -0.0035838983 
  772000      240.966    6939.5223     2924.207    30.674435 -0.020871285  0.038895168  0.016724535 
  773000    263.88017    12926.433     2924.207    29.517224  0.022746364  0.019229829  0.042136611 
  774000    270.46807    8060.9356     2924.207    29.403568  0.032859328 -0.011107738  0.018364913 
  775000    271.82784    2345.1009     2924.207    28.988351 -0.0092785994 -0.0089005855  0.044849748 
  776000    248.97841    14455.371     2924.207    26.213001  0.016631125 -0.018689111 -0.0090595013 
  777000    250.76161    6115.7522     2924.207    24.510179  0.023652295 -0.046461855  0.013366239 
  778000    252.92398    9446.6544     2924.207    25.895302 0.0042834098 -0.025362356 -0.025723822 
  779000    237.91098    11845.483     2924.207    27.644842 -0.024516436 -0.011766831 -0.020707185 
  780000    241.41543     7553.833     2924.207     29.79353  0.046436316  0.013348282  0.018953602 
  781000    249.24524    20880.156     2924.207    30.611119 -0.036938619  0.014233444 -0.0020056546 
  782000    248.45779    1771.7941     2924.207    31.784655 -0.002375285  -0.02999475 -0.0090360847 
  783000    247.13951    16470.234     2924.207    31.012825 -0.044999718 -0.025908927 0.00046996629 
  784000    258.86303    12361.523     2924.207      28.2905 -0.0076374474 -0.038993132  -0.03185904 
  785000    251.43594    10093.266     2924.207    24.846289 0.0028692892 -0.0059213699 -0.013983507 
  786000    246.97225    7155.5248     2924.207    24.611588  0.018351682   -0.0224692  0.020704074 
  787000    254.60106    13597.279     2924.207    26.171309 -0.0048629893  -0.01502113 -0.00020142563 
  788000    258.89915    11092.835     2924.207    27.593756 -0.012996115 -0.010352885   0.05036237 
  789000    264.92396    7001.8845     2924.207    27.183475 0.0076583798 -0.0059578357 -0.021168504 
  790000    267.18294    7352.0564     2924.207    27.576795  -0.02022809  0.014164288 0.0079496983 
  791000    271.93104    8785.1839     2924.207    28.142545  0.013063508 0.0055571898  0.046995852 
  792000    262.69184    13842.396     2924.207    28.895478  0.031662878 -0.0036114805 0.0052483681 
  793000    279.46891     7959.856     2924.207    28.479461  0.017173247 -0.0055087639 -0.0062080264 
  794000     250.9295    8206.8423     2924.207    29.397271  -0.01939793 0.0032637727 0.0032779037 
  795000     252.8026    13539.592     2924.207    29.473091  0.029498284  0.020915945 -0.025090343 
  796000    234.91889    11241.532     2924.207    29.490463 -0.026396379 -0.0085691186  0.019314591 
  797000    246.87583    5749.9798     2924.207    30.025176 -0.037421632   0.01136038  0.026877186 
  798000    253.25227    13084.066     2924.207    29.903588 -0.00052014432  0.021240578  0.011829962 
  799000    274.09015    11640.257     2924.207    28.482991  0.014488016  -0.02297982 -0.016100861 
  800000    243.81823    4245.4962     2924.207    27.929257  0.022908733  -0.01152367 -0.0018590335 
  801000    263.51949    16252.466     2924.207     28.28594 -0.022989899  0.021567429  0.029759096 
  802000     258.0343    3102.1117     2924.207    27.400788 -0.022108175 -0.020377979   0.01678134 
  803000    257.76785    16789.008     2924.207    25.825738 -0.028846564  0.033695175 -0.00061035176 
  804000    268.30195    7288.1759     2924.207    25.041586  0.049159381 -0.021443135   0.01318543 
  805000    238.62939     3576.706     2924.207    25.855285 -0.0085211954  0.010619472 -0.0095095334 
  806000    241.60945    10788.273     2924.207    25.461996 -0.028705256  0.018855819 0.0023053852 
  807000    231.00842     9172.473     2924.207    22.857693 -0.042103723 -0.0081171311 -0.069536239 
  808000    226.93236    8547.8799     2924.207    22.419187 0.0084461729  0.024875074 -0.014061968 
  809000    250.51444    9567.0246     2924.207    23.629344 -0.014548546 -0.0055098736 -0.027144978 
  810000    271.11956    8296.0544     2924.207     23.43645 -0.038286991 -0.018956168  0.011488674 
  811000    239.91157    12929.998     2924.207    22.958349 -0.018600199 -0.014215823  0.024389008 
  812000    257.11794    3633.4753     2924.207    25.278993 -0.006555478 -0.0011405014 0.0014103004 
  813000      243.445    15143.575     2924.207    26.152609  0.012616644 -0.020145672 0.00037300945 
  814000    254.62885    10310.571     2924.207    24.883349 -0.015393245 -0.042519452 -0.016666355 
  815000    239.16693    5579.7319     2924.207    26.600182 -0.0030908867 0.0075032837 -0.023815909 
  816000    239.67798    10121.168     2924.207    27.990278 -0.017345072 -0.0020246488 0.0052683222 
  817000    271.74176    16354.612     2924.207    27.629512 0.0018013067   0.01740705 -0.0047373881 
  818000    258.39378    6798.7564     2924.207     28.91834 0.0076600026 -0.041878077  0.013352223 
  819000    251.14712    4489.9801     2924.207    29.869861 -0.035045746 -0.019360686  0.025612413 
  820000    257.47536    11385.194     2924.207    30.173955 -0.048466625 -0.023361386 -0.045703942 
  821000    261.01837    10495.725     2924.207    28.674308 -0.0095224139 -0.0031713505 -0.033875141 
  822000    241.85075    7298.6287     2924.207    28.260251    0.0120393  0.015385611 -0.00090802112 
  823000    265.37519    10365.819     2924.207    26.928335 -0.019769566 -0.027373842 -0.016424625 
  824000    263.13069    7846.7296     2924.207    26.747727 0.0038880516  0.030264176  0.013049597 
  825000    266.61343    11924.003     2924.207    25.232426  -0.01299275 -0.015489592 -0.027731138 
  826000    247.63139    6692.5973     2924.207    25.078585 -0.016762412 -0.051274959 0.0010402182 
  827000    247.88819    14922.251     2924.207    25.951363 -0.0020138731 0.0042252766  -0.01214579 
  828000     273.1661    6781.5917     2924.207    29.592629 -0.034715863 -0.0015941662 -0.012387163 
  829000    242.74825     10313.86     2924.207    32.895913 -0.014677342  0.041327691 -0.0012464489 
  830000    258.65821    7950.0692     2924.207    33.515319 0.0078744828  0.035344945  0.010135584 
  831000    263.44221    6966.1153     2924.207    33.308278 -0.031197291 -0.0033326392 0.0050590937 
  832000    235.57914    16074.074     2924.207    34.217229 0.0025649737  0.019180468 -0.037737269 
  833000    253.72163    5412.9096     2924.207    32.802875 -0.018510046  0.021770578 0.0048544847 
  834000     247.5809    7912.8332     2924.207    29.363241   0.03868545 -0.018824796 0.0030880351 
  835000    257.41506    15077.858     2924.207     27.48528 -0.0014222959 -0.027755532 -0.036045048 
  836000    254.94724    4706.4748     2924.207    27.574489 0.0065698399  0.025377712 0.0084178092 
  837000    257.85395    10309.712     2924.207    28.389789 0.0068506628 -0.013475733 -0.020995195 
  838000    270.94284    14039.652     2924.207    26.795508  0.046904538  0.017635638  0.023086354 
  839000    272.02241    6010.4127     2924.207    26.311678 -0.010492844  -0.02204577  -0.02345705 
  840000    260.85405    7499.9895     2924.207    25.785491 -0.016107101  0.038370186 -0.010133797 
  841000    251.43346    13607.221     2924.207    24.902142 -0.037805605 -0.0032774304 -0.0051414488 
  842000    241.00301    1440.9563     2924.207    24.475205 0.0069778382  -0.02928312  0.016844633 
  843000    265.86878    10056.967     2924.207    23.815416 -0.0055500152  0.013440474 0.0019841014 
  844000      262.852    13473.529     2924.207     22.80186 0.0075598396 -0.029298666  0.029318575 
  845000    262.39058    10777.873     2924.207    21.574725 -0.039792854  0.025667217 0.0030244409 
  846000    260.90366     10157.29     2924.207    22.250269 0.0036169384 -0.013545118 -0.010388724 
  847000    266.21768    5359.2876     2924.207    22.515619 -0.019845005 -0.0085756919 -0.010183277 
  848000    284.85616    10470.051     2924.207    21.452499  0.023493794 -0.010943813 -0.012137482 
  849000    260.60941    9943.1325     2924.207    20.057562 -0.0068481628 -0.019585783 -0.030111547 
  850000    263.05869    2610.7588     2924.207    19.404812 -0.016042116  0.022982134 -0.014004222 
  851000    262.99073    15209.088     2924.207    19.690332 -0.028524644 -0.018277367  0.012944754 
  852000    243.95703    10014.381     2924.207    19.954574 -0.036447703 -0.0054401646  0.015940352 
  853000    256.78905    10166.412     2924.207    19.564838 -0.029018912 -0.011206856 -0.050892033 
  854000    249.32548    9441.3327     2924.207    18.531557 -0.027401295 -0.023585002 0.0092793102 
  855000    272.93467    6987.8882     2924.207    20.731718 -0.012940429 0.0026194926  0.029078449 
  856000    256.13608    6687.0816     2924.207    23.830081 -0.0054811542  0.015411243 -0.028711308 
  857000    278.36709    12976.973     2924.207    26.788827 -0.018314121 -0.015453568 -0.012632283 
  858000    255.09044    3093.0801     2924.207    29.263547  0.027170463 -0.0096250004 -0.015183823 
  859000    262.97379    8109.2012     2924.207    29.823916  0.043972644 -0.0046668318  0.015824773 
  860000    251.37337    11505.116     2924.207    31.015329 0.0013856518  -0.02056542 -0.023140138 
  861000    247.46627    15655.415     2924.207    31.807201 -0.0021068829 -0.024933144  0.020994195 
  862000    256.91102    3636.8157     2924.207    31.372028  0.010153695 -0.0033885088 -0.029218647 
  863000    240.58362    9427.6725     2924.207    31.026209 0.0072003942 -0.024099565  -0.03447263 
  864000    239.57308    9137.2952     2924.207     29.80706  0.014968197 -0.0062761773 -0.022783813 
  865000     237.7417    7733.1577     2924.207    26.045361  -0.01477668  0.034744335 -0.024286068 
  866000    264.92247     11950.49     2924.207    27.238616 -0.022271704  0.015251478 -0.013048549 
  867000     265.1254     4634.973     2924.207    30.496075 0.0080874731  0.044835831 0.0065293187 
  868000    239.03958    5140.7504     2924.207    32.565909   0.00263601 0.0086204162 0.0060370817 
  869000    241.26799     10021.31     2924.207    33.694979 -0.0089753463 -0.017742115  0.014852556 
  870000    253.24227     11530.91     2924.207    32.430701 -0.014116076 -0.016316995  0.026205167 
  871000    250.50245    7769.4871     2924.207    29.653402 -0.0051261792 -0.0056760656 -0.015730033 
  872000    250.45831    12113.469     2924.207    27.707098 -0.014089581 0.0041627948   0.02541644 
  873000    250.44838    5210.4001     2924.207    26.494125  0.023444205 -0.0022199559 0.0045389046 
  874000    254.58458     14857.74     2924.207    27.152092  0.040020857 0.0062809257 -0.025255753 
  875000    261.09662    11611.604     2924.207    28.091752  -0.01714777   0.03220247 -0.022104982 
  876000    249.94358    8105.9363     2924.207    27.390457  0.023584249 0.0053644523 -0.0072484636 
  877000    244.49528    6917.7905     2924.207    28.081195 -0.022445513  -0.04256135 -0.012247074 
  878000    238.47602    6551.3433     2924.207    29.674544 0.0046319687 -0.0095848174  0.015818122 
  879000    242.90456    12583.233     2924.207    29.748551   0.01333535 -0.014149415 -0.0088415843 
  880000    263.35389    6942.1441     2924.207     28.33521 -0.028840507 0.0053663321 -0.015057074 
  881000    226.99335    12101.844     2924.207    28.009009 0.0063860816 -0.0093739904  0.034014419 
  882000    259.13885    14078.188     2924.207    28.962829 -0.041647921 -0.013214336 -0.014708679 
  883000    270.73034    8821.4177     2924.207    30.841653  0.026002852 0.0055629366 -0.018929034 
  884000    245.06884    8310.5348     2924.207    31.338648  0.014684462  0.026282446 0.0032444995 
  885000    253.67625    16108.301     2924.207    29.282941 0.0075084891 -0.017453533  -0.03485578 
  886000    241.53245    9622.7176     2924.207    27.126089  0.031827465  0.018158295  0.026675976 
  887000    244.84078    8002.7144     2924.207    26.569697   0.01635927 -0.018437263 -0.019561169 
  888000    251.63911     8619.641     2924.207    26.189738  0.040825514  0.031159465 0.0013627973 
  889000    244.79966    15657.517     2924.207    25.158763 -0.013805839  0.043980439 0.0083207677 
  890000     242.8346   -705.42161     2924.207    27.246168  -0.03424736  0.013293087 -0.034585845 
  891000    248.76034    13678.988     2924.207    28.405061  0.011235324  0.012925278 -0.034252097 
  892000    249.53702    7022.1315     2924.207    29.245242 -0.0070592549  0.004287543 -0.046432777 
  893000    270.45387    10292.523     2924.207    27.327976  0.023007972 0.0064249927 -0.041686232 
  894000    251.65437    8639.5618     2924.207    25.180917 -0.012616067 -0.0050150935 -0.019698355 
  895000    244.96412    14317.553     2924.207     24.88841 -0.030691516 -0.0068165912 -0.0078166896 
  896000    239.58032    4503.3607     2924.207    23.990448 -0.024729362 -0.025683889 -0.00051468669 
  897000    258.93994    13380.233     2924.207     25.21576 -0.0061955547 -0.0050244816 -0.012489664 
  898000    251.80624    10799.807     2924.207    25.537869   0.01267953 -0.018193364   0.01570907 
  899000    262.68723    8614.3335     2924.207    27.541043 -0.0032546952  0.042500685 -0.042277124 
  900000     257.7688     7680.333     2924.207    28.483767 -0.017353298 0.0034848635 -0.0081670569 
  901000     259.6427     9539.059     2924.207    27.269379  0.027586154 -0.020723726  0.029806834 
  902000    256.24696    6683.6013     2924.207    26.317867 -0.0024783842 0.0022877928  0.028993266 
  903000    249.29456    10923.427     2924.207    27.114964  0.046438621 -0.0062836388 -0.0032758452 
  904000     262.8739    8793.4002     2924.207    27.680708 -0.0086280458 -0.022202845 0.0090957316 
  905000    253.22467    7565.5342     2924.207    28.320046 -0.0084980977 -0.0048272397 0.00087919182 
  906000    262.31855    13360.584     2924.207    28.688906  0.021644773 -0.015463208  -0.02497084 
  907000    242.79293    13816.276     2924.207           29  0.012840319 0.0038190397 0.00022106894 
  908000    259.50904    7343.6981     2924.207    27.595577 -0.0064315207  0.018572198 -0.0083061446 
  909000    254.98419    11292.201     2924.207    26.235666 -0.020211158 0.0095373066 -0.022288869 
  910000     278.3487    8421.6472     2924.207    24.627386 7.0702329e-05  0.038318644 -0.029502625 
  911000    252.75864    7138.3991     2924.207    23.887522  0.034373743 0.0034477354 -0.020696658 
  912000    271.49604    10514.101     2924.207    24.978125 0.00012419107  -0.03103924 -0.0047333316 
  913000    254.14882    5697.5602     2924.207    25.131769 -0.010195104 0.0075952687  0.021693949 
  914000    245.72196    8923.9507     2924.207     24.73067 -0.002729751 -0.020222823 -0.048486127 
  915000    257.86126     15209.48     2924.207    25.106015  -0.04979555 -0.023857555 -0.0018028737 
  916000    253.82755    4571.1248     2924.207    24.214804  0.012159826 -0.013643067  0.063267452 
  917000    268.00316    4700.3964     2924.207    24.195546 0.0096376407 -0.022405662  0.021193456 
  918000    277.45138    8542.8607     2924.207    26.098425 -0.014395614  -0.02577972 0.0011767226 
  919000    252.30713    12097.634     2924.207    27.230313 0.0046663411 -0.0097223343 0.0059043521 
  920000    247.70788    3755.4423     2924.207    28.527723 0.00019214456 -0.011887754 0.0095611028 
  921000    257.71083    8540.2775     2924.207    30.081286 0.0021591443 -0.0040064233 -0.017622767 
  922000    238.11982    15155.532     2924.207    30.845681 -0.0017392041  -0.01338649  0.022588423 
  923000    265.26963    3513.5257     2924.207    29.358291 -0.019379251 -0.0077520698 -0.012075869 
  924000    264.46397    2710.8016     2924.207     28.87241 -0.00053519822  -0.01636239  0.022636462 
  925000    264.79731    15900.301     2924.207    30.396111  0.011050906  0.038662097 0.0057035312 
  926000    257.44402    504.52147     2924.207    32.092151  0.016348589 -0.030608928 -0.012061367 
  927000    244.87907     5548.716     2924.207    34.172322  0.024344004 0.0070886939 -0.0090400021 
  928000    241.83198    18325.496     2924.207    35.482756  0.041188862  0.013686799 -0.015589389 
  929000    254.37171    6213.7632     2924.207    35.332011 2.9248985e-05 -0.012773849 0.0095276344 
  930000    269.15711    5763.8056     2924.207    34.913876 -0.039719928  0.002694274  0.026446232 
  931000    272.07958    15139.651     2924.207    33.635445  0.017135229 -0.040621542 -0.012543349 
  932000     252.5415    4310.4759     2924.207    30.118841 -0.015280662   0.01033957 -0.013494173 
  933000    255.68216    10960.732     2924.207    26.742545 -0.013622665  0.026018734 -0.0067578043 
  934000    260.65409    9168.2805     2924.207    25.654219 -0.0073657433 -0.014421686 0.0085250194 
  935000    272.19528    2260.2445     2924.207    27.384887  0.028660006 -0.009529588 -0.020667899 
  936000    269.21457    8761.8676     2924.207    30.948553   0.01526365 -0.0080255069 0.00029063975 
  937000    263.57245    14807.318     2924.207    33.784967 0.0045507064 0.0052853082  0.014853913 
  938000    259.46983    5619.9955     2924.207    33.358262 -0.0082372934 -0.030824551 0.0028127809 
  939000    247.72142    6272.0476     2924.207    31.561885  0.010514766 -0.011567186  0.013609476 
  940000    246.58356    6794.1917     2924.207    29.032874 -0.0095091608  0.026404416  0.030702202 
  941000    253.96116    203.08654     2924.207    27.752462  0.040776252  0.018502847 -0.010237712 
  942000    257.79691    16920.582     2924.207     27.86036  0.021236774 -0.014834052 -0.004930348 
  943000     243.8416    8739.2304     2924.207    28.806456  -0.05445304  0.020051275 -0.052043139 
  944000    263.96464    12280.923     2924.207      29.0215 -0.00061567203  0.025625856 -0.032557033 
  945000    246.78448    6401.5154     2924.207    30.331153 -0.012817994 -0.013845244 0.0020520709 
  946000    258.73996    1353.9919     2924.207    31.377555 -0.021202215  0.011747886 -0.0048526439 
  947000    273.75929    9096.5483     2924.207    30.839671 -0.037392292  0.000722353  0.051127273 
  948000    265.73111    7313.6473     2924.207    28.027157  0.027338915 0.0021596876 0.0089188883 
  949000    231.92297    12306.886     2924.207    25.952227   0.00338966  -0.00587362 -0.017788545 
  950000    261.16505    6308.8307     2924.207    25.386857 -0.0034644189 0.0072913553  0.014228234 
  951000    256.39329    6743.5455     2924.207    25.033228 -0.0056862916 -0.0015134103  0.005135929 
  952000    265.51623    6214.4737     2924.207    27.607985 -0.020592046  0.011862317  0.024170089 
  953000    236.97224    8629.7197     2924.207    31.522623 -0.018599908 -0.038039567  0.020070083 
  954000    269.88637    11012.929     2924.207    33.732269 -0.021299966  0.012812334 -0.0055509605 
  955000    254.13694    8719.8831     2924.207    34.823865 0.00090034889 -0.013088959 0.0092533995 
  956000    254.21753    6916.2478     2924.207    34.270302 0.0023712479 -0.024183358 0.0051222281 
  957000    256.21081    9988.7853     2924.207     32.56365 -0.016459798 -0.0013064185 -0.0052496578 
  958000    268.43096    9309.0248     2924.207    31.064743 -0.020941835 -0.0072480234 -0.006501561 
  959000    260.43896    -334.1595     2924.207    30.480314 -0.010256112 -0.0037807381  0.013935712 
  960000    270.43399    7784.3314     2924.207    30.770923 0.0048287395 0.00029601581 -0.0025217229 
  961000    245.93863     10737.06     2924.207    31.830433  0.017438222  0.020308744 -0.015066625 
  962000     274.8773    7719.9491     2924.207    29.242378 -0.0036511083 -0.0023725011 -0.0029113505 
  963000    265.58397    12390.359     2924.207    22.404471 -0.0002206721 0.0067295092  0.010601423 
  964000    248.43168    1384.6827     2924.207     16.03229  0.025085558 -0.029396167  0.026061109 
  965000    254.04294    15778.012     2924.207    15.203696 0.0079838467  -0.02822886 -0.026288454 
  966000    266.95071    9283.8491     2924.207     19.96285 -0.0009127246  0.010306443  0.031918132 
  967000    275.60692     10152.17     2924.207    26.464903 -0.023065699 -0.0070722002  0.022660652 
  968000    261.88358    10838.918     2924.207    30.799566 -0.0044439507 -0.025470933 -0.016365721 
  969000    246.97858    8197.6591     2924.207    33.621975 0.0087483777 -0.0077025579  0.023613365 
  970000    270.66726    7488.4392     2924.207    32.977883  0.010261244 -0.038892767 -0.0025600382 
  971000    262.96827    4452.4745     2924.207    31.986227 -0.046624503 -0.013735788 0.0027869551 
  972000    253.14491    9202.7202     2924.207    31.227556 -0.019429676 -0.042236493  0.010447137 
  973000    262.20189    10815.377     2924.207    30.923441 -0.017598413 -0.024035986  0.035719124 
  974000    259.87353    3056.7801     2924.207    32.295558  0.018712886  0.025513575  0.023675632 
  975000     259.2831    14395.074     2924.207    34.338991 -0.0016526781  0.024581208  0.025709645 
  976000    273.62478    5795.9984     2924.207    36.141926 -0.017883843  0.014039014 0.0055631784 
  977000    255.51768    10349.937     2924.207    34.284211 -0.057147415 -0.00044804103  0.028342927 
  978000    249.30331    9029.8845     2924.207    31.313925 -0.0022614421 -0.0019614407  0.021158666 
  979000    259.10976    4705.6037     2924.207    29.792619 -0.015900679 -0.0028567287 0.0042108351 
  980000    251.45848    2778.4891     2924.207    27.982973 -0.049651001  0.028553203  0.010966584 
  981000    256.45725     16466.97     2924.207    27.100196  0.023935659 -0.005951686  0.018593568 
  982000     262.5172   -390.35854     2924.207    28.979891 -0.0075251876  0.027110907 -0.029265462 
  983000    267.39665    4522.5173     2924.207    31.627658 -0.025992616  0.018298298   -0.0596638 
  984000    259.49255    11218.669     2924.207    32.305796 -0.024847482  -0.01843455  0.014209062 
  985000    248.24853    4156.4101     2924.207     31.42005 -0.0072091852  0.044956463 -0.022630702 
  986000    240.95947    14918.258     2924.207    31.884527   0.01620126  0.022666718 -0.0033883649 
  987000    248.71156    9187.9396     2924.207    31.751613 -0.020917185   0.03215171  0.021739286 
  988000    259.61896   -2870.5109     2924.207    29.266703  -0.02113273 -0.010636177 -0.019282371 
  989000    261.83977    14173.845     2924.207    24.605735 -0.010722506 -0.024863191 -0.016429221 
  990000    266.23868    569.32503     2924.207    20.194787  0.036585497 -0.047011881 -0.020852221 
  991000     254.3326    7692.9065     2924.207    19.401765 0.0099164305 0.00065224549 -0.023824603 
  992000      278.743    14915.694     2924.207    20.649265 0.0035706235 -0.022805467  0.006766087 
  993000    258.89702    2552.2942     2924.207    22.154165 0.0090574356  -0.05656446 -0.015131017 
  994000    265.03751    8355.3034     2924.207    23.000922 -0.022422383 -0.0094213977  0.019871517 
  995000    249.81189    14132.084     2924.207    21.529336 -0.0027427928  0.032093168 -0.0028515993 
  996000    272.29813    912.26616     2924.207    22.171334 -0.040424265    -0.015924  0.005624727 
  997000    254.31607    3328.5885     2924.207    23.538509 -0.034395863 0.0012522917 0.00094069174 
  998000    261.73616    22139.249     2924.207    23.215329  0.016464707 0.0034700028  -0.01340301 
  999000    269.75825   -31.257698     2924.207    22.455237  0.033225088  0.029640192  0.027345073 
 1000000    268.01067    2423.6539     2924.207    22.753587  0.017841532 0.0041358097  0.027795324 
Loop time of 6828.56 on 2 procs for 1000000 steps with 240 atoms

Pair  time (%) = 6454.3 (94.5192)
Bond  time (%) = 0.279834 (0.00409799)
Neigh time (%) = 25.4102 (0.372116)
Comm  time (%) = 249.894 (3.65955)
Outpt time (%) = 0.440348 (0.00644862)
Other time (%) = 98.2365 (1.43861)

Nlocal:    120 ave 121 max 119 min
Histogram: 1 0 0 0 0 0 0 0 0 1
Nghost:    5051.5 ave 5059 max 5044 min
Histogram: 1 0 0 0 0 0 0 0 0 1
Neighs:    45557 ave 46040 max 45074 min
Histogram: 1 0 0 0 0 0 0 0 0 1
FullNghs:  91114 ave 91970 max 90258 min
Histogram: 1 0 0 0 0 0 0 0 0 1

Total # of neighbors = 182228
Ave neighs/atom = 759.283
Ave special neighs/atom = 0
Neighbor list builds = 5838
Dangerous builds = 0
#	run			10000
	unfix			1
	uncompute		myKE
	uncompute		myPE
	uncompute		myStress
	uncompute		flux
	uncompute		myDis
	unfix			JJ

	next seed
	next iseed
jump lmp.in.gk loop_seed
variable iseed loop 10
variable seed index 11111 22222 33333 44444 55555 66666 77777 88888 99999 11110
clear
###########################################################################
#x0
###########################################################################
units 			metal
atom_style		full
read_data		fort.26.nonbonded
  0 = max bonds/atom
  0 = max angles/atom
  0 = max dihedrals/atom
  triclinic box = (0 0 0) to (14.3 14.3 14.3) with tilt (0 0 0)
  1 by 1 by 2 MPI processor grid
  240 atoms
  0 bonds
  0 angles
  0 dihedrals
  0 = max # of 1-2 neighbors
  0 = max # of 1-3 neighbors
  0 = max # of 1-4 neighbors
  1 = max # of special neighbors
group         		C type = 1
60 atoms in group C
###########################################################################
#OLPS
###########################################################################

################################################################################
#### Pair potentials
################################################################################
pair_style hybrid/overlay tersoff lj/cut 12.0
pair_coeff * * tersoff C.4.tersoff 1 2 3 4
pair_coeff 1 2 lj/cut 0.0007000000 3.5500000000
pair_coeff 1 3 lj/cut 0.0007000000 3.5500000000
pair_coeff 1 4 lj/cut 0.0007000000 3.5500000000
pair_coeff 2 3 lj/cut 0.0007000000 3.5500000000
pair_coeff 2 4 lj/cut 0.0007000000 3.5500000000
pair_coeff 3 4 lj/cut 0.0007000000 3.5500000000
special_bonds lj 0.0 0.0 0.0 coul 0.0 0.0 0.0

#pair_style tersoff
#pair_coeff * * C.4.tersoff 1 2 3 4

#pair_style lj/cut 12.0
#pair_coeff 1 1 0.0700000000 3.5500000000
#special_bonds lj 0.0 0.0 0.0 coul 0.0 0.0 0.0
###########################################################################

#--------------------------------------------------------------------------
#variables
#--------------------------------------------------------------------------
variable   	dt 		equal 0.001
#--------------------------------------------------------------------------
#kappa parameters
#--------------------------------------------------------------------------
variable    	p 		equal 100000 	# correlation length
variable    	s 		equal 10  	# sample interval
variable    	d 		equal $p*$s 	# dump interval
variable    	d 		equal 100000*$s 	
variable    	d 		equal 100000*10 	

#--------------------------------------------------------------------------
variable 	T_run 		equal 300
#--------------------------------------------------------------------------

log 	log_heat_${iseed}.lammps
log 	log_heat_7.lammps
