	reset_timestep  	0
	fix 			1 all nve
	compute   		myKE all ke/atom
	compute   		myPE all pe/atom
	compute   		myStress all stress/atom virial
	compute   		flux all heat/flux myKE myPE myStress
	variable  		Jx equal c_flux[1]/vol
	variable  		Jy equal c_flux[2]/vol
	variable  		Jz equal c_flux[3]/vol
	fix       		JJ all ave/correlate $s $p $d c_flux[1] c_flux[2] c_flux[3] type auto file J0Jt_${iseed}.dat ave running
	fix       		JJ all ave/correlate 10 $p $d c_flux[1] c_flux[2] c_flux[3] type auto file J0Jt_${iseed}.dat ave running
	fix       		JJ all ave/correlate 10 100000 $d c_flux[1] c_flux[2] c_flux[3] type auto file J0Jt_${iseed}.dat ave running
	fix       		JJ all ave/correlate 10 100000 1000000 c_flux[1] c_flux[2] c_flux[3] type auto file J0Jt_${iseed}.dat ave running
	fix       		JJ all ave/correlate 10 100000 1000000 c_flux[1] c_flux[2] c_flux[3] type auto file J0Jt_5.dat ave running
	compute 		myDis all msd 
	thermo_style 		custom step temp press vol c_myDis[4] v_Jx v_Jy v_Jz 
	thermo			1000
	timestep		${dt}
	timestep		0.001
	run			1000000
Memory usage per processor = 6.2488 Mbytes
Step Temp Press Volume myDis[4] Jx Jy Jz 
       0    291.67345    4399.3151        24389 1.0544952e-30 -0.00038221982 0.0058251914 -0.002991032 
    1000    293.91931    6596.0323        24389    3.3670346 -0.0039590844  0.015231932 0.0033180761 
    2000    284.15888    2746.4166        24389     10.51405 -0.0015498888 -0.0037610049 0.0017825575 
    3000    301.93231    5230.9751        24389    18.032915 0.0043265138 0.0074099516 0.0092264816 
    4000    298.97768    5718.3058        24389    23.589587 -0.0021953074 -0.0080229221 -0.0032190862 
    5000    296.31837    6511.0786        24389    25.070539 0.0046860656 -0.00044396563 -0.0019388433 
    6000    290.34562     3644.308        24389    24.551946 -0.0015096013 -0.0051849156 -0.0012289224 
    7000    300.40175    2237.8125        24389    22.836157 0.0052414901 -0.00052179352 -0.010295405 
    8000    299.11461    6831.4617        24389     22.17366 0.0047566993 0.0088017973 -0.014472665 
    9000    300.97201     6131.177        24389     22.88208  0.010375652 0.0028665536 -0.0074378214 
   10000    297.14835    3388.4936        24389    23.775935 0.00015468617 0.0048615262 -0.00028365147 
   11000    294.72816    4550.6621        24389    23.783921 0.0038599349 -0.016321359  0.008930926 
   12000    295.53126    6983.6419        24389    23.141802 6.0402497e-05 -0.0083072661 -0.010142665 
   13000    296.07941    5488.6892        24389    22.743104 0.0048684175  0.002524491 -0.0076093759 
   14000    291.67253    3226.3133        24389    24.650832 0.0088010836 -0.009635562 -0.011006974 
   15000    304.45099    4612.4079        24389    27.133549 -0.006795101 0.0013194633 -0.0035539474 
   16000    292.02199    8188.4036        24389    28.313731  0.005838889   0.01455229 0.0017569721 
   17000    299.70331    2233.1212        24389    27.707652 0.0095243401 -0.0084512053 -0.0049817399 
   18000    292.39177     2224.945        24389    26.418453 0.0040952247 -0.0032314042  0.011352109 
   19000    291.91364    8155.4434        24389    25.178679 -0.013039922 -0.017570275 -0.001911005 
   20000    291.59693    3834.6758        24389    25.248087 -0.017672096 0.0056477537 -0.001384088 
   21000     294.5465    5302.7762        24389    26.662729 0.0033583143   -0.0114706 0.0010966966 
   22000    298.59561     4981.857        24389    28.054809 0.0025583795 0.0030269634  0.014907354 
   23000    301.34246    3835.1224        24389     28.69115  0.020672635 -0.0051081793 0.0079105002 
   24000    291.18507    5940.3058        24389    28.347388 0.0052669741 -0.016698928 0.0079793696 
   25000    296.67703    4674.9288        24389    27.373642 -0.003215777 -0.0058272835  0.007538947 
   26000     295.9219    5707.8214        24389    26.633723 0.0069302792 0.0014806678 -0.011208762 
   27000    295.49975    5643.4228        24389    26.670654 -0.0052923891 -0.012152074 -0.0067061958 
   28000    299.30983    4678.8932        24389    26.960049 -0.017005874 -0.0011956568 0.0020733001 
   29000    293.35764    4759.6139        24389    27.035026 0.0023408263 -0.003924893  0.011059639 
   30000    292.39915    7054.6767        24389    27.011423 -0.00063209576  0.014452649 0.0066169159 
   31000    307.06399    7592.4075        24389    26.433254  0.011673693 -0.0012374048 0.0016054219 
   32000    288.92785     2810.611        24389    25.698437 -0.014569344  0.011957995 0.0073615591 
   33000    300.09286         5667        24389     24.88761 0.0047100219 -0.0034139004 0.0078249804 
   34000    292.43505    6281.9588        24389    24.653313  0.003634144 -0.003537612 0.0044026272 
   35000    287.60571    5227.2605        24389    24.631362 0.0086996582 -0.012636165 -0.004971126 
   36000    296.46973    5298.8405        24389    23.787503 -0.012842437 -0.0092964448 -0.0044345203 
   37000      296.833    4137.2922        24389    23.370425 -0.0055834128 -0.0007797288 -0.0013692727 
   38000    290.61056    4754.7378        24389    24.036873 -0.0014283499 0.0030062642 0.0071059086 
   39000    291.54568    5862.5742        24389    25.424452 0.0037990513 0.0026768522 -0.0086395965 
   40000    293.29024    4185.5656        24389    26.885409 0.0076038949 0.0028390598 -0.0092235684 
   41000      292.371    5858.9331        24389    27.495425 0.0091763541 0.00036885783  0.005399543 
   42000    297.77785    5151.4973        24389    26.984503    0.0019115 0.0082642221 0.0083244837 
   43000    295.41421    3775.0263        24389    25.892085 0.0043631296 -0.0011226453 -0.0012115489 
   44000    293.51274    2961.5959        24389    25.717312  0.011636375 0.0046499912 -0.019644521 
   45000    293.48019    6380.3231        24389    26.125479 -0.00069721171  0.001495134 -0.0038137398 
   46000    294.38674    7350.1187        24389    26.185968 -0.016852499 0.0093866781 0.0006019396 
   47000    294.26507      1280.72        24389    26.237331 0.0069561945 0.0033590962 0.0079457532 
   48000    288.10805    4061.0525        24389    25.752365 0.0063413468 -0.012057707 -0.0080923571 
   49000    300.99329     7252.124        24389    25.769255 0.0027931789 -0.00097745008 -0.016336024 
   50000    290.61175    5098.4357        24389    26.282828 0.0052294067 -0.011288869 -0.0091241126 
   51000    287.42709    2488.0791        24389    26.636274   0.02025969 -0.0021116882 -0.0018618958 
   52000    297.73541    5351.3417        24389     26.60047 -0.0020002344 0.0061104898 -0.0095557498 
   53000    303.56614    6130.3241        24389    27.091119  0.010790498 -0.0062929896 0.0047384785 
   54000    292.10777    5221.8125        24389    27.980903 -0.0044802621 0.0013319253 -0.0057103785 
   55000    288.13322    2629.9876        24389    28.432086 0.0065412956 0.0015999965 0.0039179354 
   56000    294.29857    5582.2114        24389    28.624386 0.0075831702 0.0047228113  0.010575561 
   57000    288.18019    4770.8403        24389    28.063603  0.016129658  0.012098098  0.010349859 
   58000    296.75945    3634.4831        24389    27.627984  0.014058296 -0.012204751  0.010188085 
   59000    299.56454    3233.3236        24389    26.834995 -0.010954181 -0.0045618962   -0.0104088 
   60000    297.68525    5316.1179        24389    26.249027 -0.0037120468 0.0013440028 0.0035034923 
   61000    291.29258    5788.4852        24389    26.402897 0.0048953076 -0.0048752022 0.0061462124 
   62000    293.80091    3470.2587        24389    27.311496 0.0063885692 -0.017025936 0.00090241418 
   63000    294.27664     5018.136        24389     27.86841 0.0070683552  0.010002913 0.00045837782 
   64000    298.29148     5731.559        24389    27.962083 0.0064297373 -0.0082464047 0.0068077409 
   65000    300.47097    6675.6509        24389    27.888087 0.00064689355 0.0070678176 0.0004496456 
   66000    294.78424    3807.7656        24389    27.366078 0.00070087013 -0.012239055 0.0054896765 
   67000    288.84562    4348.8834        24389    26.830592 -0.0081343512 -0.0077940885 -0.018934082 
   68000    293.03459    6433.7013        24389    27.027386 0.0010200074 -0.009610763 0.0049074727 
   69000    298.92965    3340.6086        24389    26.941208  0.002276999 -0.0055203288 -0.016198246 
   70000    300.84846    4903.3882        24389    26.617068 -0.00072081671 -0.011589751 0.0074342275 
   71000     291.2302     7213.831        24389    26.373203 -0.0042517164 0.0014479467 -0.004186661 
   72000    292.13152    2366.3396        24389    27.081459 -0.0030323026 -0.0026670485 0.00019445767 
   73000    295.19497    5160.9822        24389    27.900446 -0.00094550699 -0.0081957741 -0.0098223967 
   74000    279.92894    7076.6586        24389    28.547637 0.0082023337 0.0010352905 -0.0024849403 
   75000    293.82275    4471.7617        24389    28.812821 -0.0070160472 -0.012158667  0.011336865 
   76000    294.45018    5364.8652        24389    28.555766 -0.0094740146 -0.0097344251  0.003260935 
   77000    284.85417    5627.9573        24389    28.390543 0.0059013853 -0.0069147974 0.0011441248 
   78000    295.93907    4156.0311        24389    28.571799 0.0032447761 -0.0016423419 0.0028619232 
   79000    295.51574    3033.4863        24389    28.608322 -0.001382057 -0.019644936 -0.006492759 
   80000    293.26888    6259.5872        24389    28.717693 -0.0024377662  0.013372047 0.0014526476 
   81000    298.30396    9316.5829        24389    27.550151   0.01333061 -0.0057805934 -0.013940475 
   82000    287.35829    2713.1851        24389    26.778245  0.009588998 -0.0052234694  0.013542099 
   83000    295.90366    2157.9522        24389    25.851262 -0.012432188 -0.0050469759 -0.0028889813 
   84000    296.87284    5092.7667        24389    25.475728 0.0074193078  0.001815741 0.0044652335 
   85000    294.90441    4326.9101        24389    25.607836 -0.0043600182  0.018592057 0.0029186615 
   86000    296.93448    4987.3041        24389     25.39756 0.0092069935 -0.00046572184  0.012011805 
   87000    289.66626    6437.2992        24389    25.530041 0.0012091778 -0.010465684 0.0078727972 
   88000    291.52985     3796.104        24389    25.742469 -0.0041602197 -0.0034381697  0.016364565 
   89000    292.25516    4036.7389        24389    26.514014 0.0029652662 -0.0068889065 0.0013308502 
   90000    291.88269    4490.2855        24389    27.942408 -0.0014891464 -0.004150535 -0.0045355178 
   91000    295.64285    6334.3313        24389    28.985815 -0.0016861151 0.0038468561 7.9698198e-05 
   92000    295.72114    4677.1954        24389    28.974768 -0.002861227 -0.00069002698 -0.0014738159 
   93000    288.87757      3883.61        24389    28.347648 -0.0042231696 0.0042897063 -0.011212429 
   94000    293.56568    6034.8438        24389    27.585884 0.0062310009 0.0039366321 0.0035939263 
   95000    300.09341    5973.0759        24389    26.998897 0.0058864714 0.00048137503 0.0054126778 
   96000    297.74358    3688.1062        24389    26.822524   0.01731493 0.0027914188 -0.015463927 
   97000    300.16829    1780.2334        24389    27.587307 -0.0023973451 -0.00073688617 0.0074968197 
   98000    296.43149    4806.2459        24389    28.385065 0.0074101409 0.0078999728 -0.016637956 
   99000    289.67315    6534.0099        24389      28.4124 -0.0026847769 -0.0082543699 0.0040929367 
  100000    293.98529     3301.384        24389    27.827986 -0.013985783 -0.011644083 0.0048228809 
  101000    290.53871    4627.3241        24389    27.055052 0.0048466897  0.008646691 -0.0010279689 
  102000    296.94313    7678.3559        24389    26.648247 -0.0045237524 -0.0043903554   0.01399763 
  103000      291.268    3797.6444        24389     26.59435 0.0060219584 0.0086625435  0.009798791 
  104000    296.49367    4184.3023        24389    26.551216 -0.0024860711 -0.0055086981 0.0050542216 
  105000    295.04956    3540.5974        24389     26.60937 -0.0044016478 0.0010836739 0.0067624795 
  106000    294.85865    2872.2099        24389    26.372375  0.012881968 0.0082681507  -0.01055027 
  107000    294.72192    4513.8314        24389    25.669924  0.005015994 -0.0018401691 0.0016303159 
  108000    295.80297    3370.9746        24389    25.284051 0.0013192606 0.0035772938 0.0061822719 
  109000    294.61466    6273.5658        24389    24.995163 -0.0014884056 -0.013637467 0.0047243651 
  110000    293.74084     6080.673        24389    25.115312 0.0019984455 -0.019132701 -0.0044776085 
  111000    288.45268    2543.0635        24389    25.273653 0.0053373189 0.0022640286 0.0011035279 
  112000    296.71595    3421.1343        24389    26.016335 -0.020005282 0.0016296539 0.0048155738 
  113000    289.56883    9468.1873        24389    26.979261  0.014424476 -0.0084488161 0.0071899466 
  114000    287.39039    7219.4137        24389    27.557938 -0.007853154 -0.0098833633 0.0049603044 
  115000    288.48175    1010.1314        24389    27.925821 0.0024379388  -0.01606412 -0.0016945507 
  116000    295.84312    5945.9247        24389    27.767302 0.0018463568 0.0052389682 -0.00082514025 
  117000    293.25036    9684.0377        24389    27.318497 0.0019396027 0.00062987372  -0.01762467 
  118000    294.45138    3789.0519        24389    25.898772 -0.016638922 -0.014744626 0.0094110975 
  119000    295.77948    1534.0687        24389    24.633394 -0.0072022348 0.0015711874  0.012930451 
  120000     284.7638    6339.3367        24389     24.89548 -0.011459757  0.003426935  0.014719132 
  121000    296.55057    4487.1535        24389    25.678367 -0.010381747 -0.0044879356 0.0058072388 
  122000    296.12451    2988.0893        24389    27.174223 0.0033775736 -0.016386843 -0.0043266817 
  123000    291.06163    3862.9644        24389    27.837666 -0.015301588 0.0043763017 0.0076365032 
  124000     300.5228    5836.1549        24389    27.727864 -0.0085124397 -0.0023559401 -0.0010866522 
  125000    293.93978    6966.7167        24389    27.259335 -0.011808086 -0.0013247274 0.0085135812 
  126000     293.6969    4314.9689        24389    26.241255 0.0026135402 0.0011830014 -0.0024248409 
  127000    294.52699     2751.906        24389    25.905395 0.0068741503 -0.0027545378 -0.00092996232 
  128000    287.99031    6737.6869        24389    25.980724 0.0033674557  0.005747497 0.0077921401 
  129000    284.13263    5561.1667        24389    26.871109 -0.0052008644 -0.0025392169 -0.001402162 
  130000    288.44384    2644.5124        24389    28.083457 -0.017800506  0.014062688 -0.00064048989 
  131000    298.07319    2330.4704        24389    28.458458 -0.0042929376 -0.0039398982 -0.010492129 
  132000    294.07074    5596.4586        24389    28.140304 -0.005930191 0.0078279168 0.0070797949 
  133000    293.42701    3664.7001        24389    27.940627 0.0040775439 -0.0037592774 0.0010444681 
  134000    293.46099    4049.8943        24389    27.509225 -0.0048330369 0.0031929746 -0.0092470852 
  135000    293.66548    2439.4649        24389    27.304029  0.012001364  0.013734471 -0.0068340951 
  136000    298.52867    3561.3109        24389    26.696266  0.022610066 0.0040269905 -0.014623935 
  137000     294.8618    5712.0488        24389    26.400038 -0.0031334335 0.00047532396 -0.0063770556 
  138000    294.49074    3000.1383        24389    26.326472 -0.0080637122 0.00067290414  0.017401027 
  139000    295.47913    4411.4719        24389    25.798636 0.0025466619 -0.0011073078  0.017564439 
  140000    293.61895    4822.4881        24389    25.295046 0.0097450717 0.0018490525 0.00045949437 
  141000     292.5693    3639.7887        24389    25.784702 -0.0078947168 0.0050309198 -0.0060450055 
  142000    299.89305    6297.4154        24389    26.522485 0.0048553698 -0.017080502 -0.0049535107 
  143000    301.76827    4430.8441        24389    27.096806 -0.0092577085 -3.9055153e-05 -0.0032384109 
  144000    291.36837    3871.1158        24389    27.555803 0.0034225171 -0.0079066978 0.00077800116 
  145000    296.47641     6539.241        24389     27.99618 -0.0014665708 0.0077502948 -0.0012288902 
  146000    292.38925    4124.2666        24389    27.859277 -0.001982972 -0.0053618132 -0.0085481018 
  147000    293.33188    3647.6371        24389    27.607091 -0.0045131107 -0.0042459004    0.0161116 
  148000    290.07371    3568.6718        24389    27.760153 -0.00032220704 -0.0019205113 -0.0053565503 
  149000    299.09639    3949.0477        24389    27.758388 0.0029226088 -0.0056702918 0.0013045453 
  150000    296.38148    6723.8225        24389    26.773103 0.0053760551 -0.015761087 -0.010060354 
  151000    292.74712    3992.7267        24389    25.385359 -0.0075590595 -0.0036642353  0.017031097 
  152000    290.22131    3406.0419        24389    24.202841 0.0027031791 0.0076044311  0.004839835 
  153000    302.32485    3208.8797        24389    23.907014 0.0071475079  0.003801323 -0.0043102484 
  154000    292.56419    6075.2032        24389    24.541603 -0.0010179343  0.020248203 -0.0034397841 
  155000    298.10288    4990.1042        24389    25.660257 0.0009937573 0.0019702121 -0.028625591 
  156000     293.6029    4806.2244        24389    26.839359 -0.0049305535 0.0064849661 -0.0061271591 
  157000     295.8605    6885.2374        24389    28.095788    0.0198251 0.0042403165  0.013232077 
  158000    296.34403    4372.2667        24389    29.189167 -0.0035472579 -0.0029319758 -0.0035209435 
  159000    292.01533     3509.904        24389    29.093812 -0.0024491987 -0.00091866049 0.0066742528 
  160000     293.3836    4260.5084        24389    27.886535 0.0072478586 -0.0022421029 -0.013409293 
  161000     290.9694    6851.4688        24389    27.271558 -0.0026062029 0.0075025377 -0.009402121 
  162000    292.62088    3015.9988        24389    27.012882 -0.0029374506 0.0062315386 -0.0094167252 
  163000    298.80873     3841.455        24389    26.770787 -0.00016000478 0.0011812085 0.0047569107 
  164000    294.90532    4044.1901        24389    26.429374 -0.0034405839 -0.006691596  0.015595523 
  165000    293.73899    6671.3544        24389     25.93011 0.0027318952 -0.0052470167 0.0052495402 
  166000    292.10193    7298.7566        24389    25.720571 -0.0056263118  0.020184438 -0.00028728926 
  167000    291.76725    3425.0574        24389    25.827786 -0.003720685 0.0053370637 0.0079881169 
  168000    290.20463    4890.3129        24389    26.221698 0.00029476273 0.0011243961 -0.0079896101 
  169000    291.71734    2413.5601        24389    27.171609 -0.0073722407 -0.0054495522 -0.0061565723 
  170000    291.68534    3081.7952        24389    27.885733 -0.013031579 -0.0062227774 0.0064487867 
  171000    298.71898    6702.1321        24389    28.845688 -0.0045086308 -0.0017583692 -4.8983483e-05 
  172000    293.51331     7386.956        24389    29.494769 0.0049358604 0.0076008374 -0.0054192004 
  173000    290.73217    2451.3009        24389    29.595855 -0.0091068022 -0.00055240421 -0.0033799375 
  174000    292.35273    2941.1333        24389      29.2849 0.0047119352 -0.0020962196 0.0019120315 
  175000    297.26023    7663.0954        24389    28.737148 -0.0090711916 -0.010552323  0.010410862 
  176000    295.64509    5553.3163        24389    28.727164 -0.0097970311 0.0057975442 -0.0076645212 
  177000    295.25232    2497.5854        24389    28.450185 0.0012167408 -0.0098164499  0.013488465 
  178000    289.53573    5467.1607        24389    28.535926 -0.0085816903 -0.0065707008  0.007323324 
  179000    294.03092    6279.1733        24389    28.588748 -0.0039809665 -0.0071639628 0.0083837266 
  180000    295.16585    2226.5151        24389    27.779504 0.0017419911 0.0028612119 -0.0058728078 
  181000    297.26498    1524.1488        24389    26.713675 -0.0042201129 -0.019315252  0.009465893 
  182000    288.90248    5150.5365        24389    26.421542 -0.0074584318 0.0039618823 0.0090424049 
  183000    301.53592    8265.0749        24389    26.762772 0.0094060835 0.0058625694 0.0014020349 
  184000    291.01535    4412.3245        24389    27.087884 -0.0078768943 0.0015459522 -0.0024968382 
  185000    294.60646    2458.0548        24389    27.629922 0.0029250424 0.0070339183 0.0047491694 
  186000    291.77127    4700.3386        24389    28.651407 -0.0024128323 0.0046201698 0.00012720885 
  187000    285.41055    5477.1033        24389    29.475934 -0.010463543 -0.0027732227 -0.0099593797 
  188000    288.71097    6242.0385        24389    29.280498 -0.0018286525 -0.00055699786 -0.0053104293 
  189000    288.88462     6805.736        24389    28.232494 0.0028702867  0.009996469 -0.0010516069 
  190000    289.25975    1290.5614        24389    26.759268 0.0095548095    0.0169544 -0.0030120033 
  191000    288.41612    4775.7746        24389    25.793626 -0.0050631522 0.0053442587 0.0080168684 
  192000    292.19786    8952.1668        24389    25.273423  0.018541696 0.0021619941 -0.010787459 
  193000    290.75367    6295.3538        24389    25.477041 -0.0046200931 0.0061739864  -0.01156739 
  194000    290.34149     4812.444        24389    26.376978  0.012130826 -0.0041667331 0.0030575937 
  195000    290.85236    2621.7994        24389    27.611113 -0.0087350564 -0.0048744482 0.0096087732 
  196000     294.5458    2797.0637        24389    28.610674  0.013847999  0.011895515 0.0056877097 
  197000    293.23459    6840.7071        24389    28.990633 -0.0010377082  0.013218006 -0.0032946069 
  198000    297.32279    5832.1236        24389     28.21883 0.0034578938 -0.0079174286 -0.011625592 
  199000    294.52729    1559.9032        24389    27.522282 0.0031917904 -0.0039508778 -0.0021806651 
  200000    298.68735    3582.5964        24389    26.718304 0.0086763052 0.00097296047 -0.0011691685 
  201000    295.18123    4862.2426        24389    26.816529 0.0021461029 0.0094278358  0.014167356 
  202000    296.91328    4921.4384        24389    27.247412 -0.0036705254 -0.010427637  -0.00487337 
  203000    294.36612    4257.8209        24389    27.782669 -0.0035044367 -0.0032294408 -0.00020524515 
  204000    291.22714     4214.728        24389    28.744485 0.0012849561 -0.0022283098 -0.00036734892 
  205000     291.2364    6161.1674        24389    29.044074 0.0071146494 0.0025625645 -0.010905987 
  206000    295.10997    4163.4886        24389    28.272263 0.0042997284 0.0050513183 -0.013447018 
  207000    294.89054    1656.0656        24389    27.323084 0.00097099808  0.015710312  0.010943628 
  208000    297.37912     5653.067        24389    26.648594 0.0038098222 -0.010656006 -0.0073845013 
  209000    296.91169    6431.0615        24389    25.883162 -0.0018777617 -0.0045495711 0.0065774874 
  210000    294.70441     2905.228        24389    25.413199 -0.0031744483 0.0018509392 -0.0021015147 
  211000     288.8298     2729.956        24389    25.383043 0.0018734665 0.0018776173 0.0062613894 
  212000    287.87452    4608.3697        24389     25.94436 0.0012346233 -0.011236788 0.00078699144 
  213000    296.65963    7047.4102        24389     26.48538 0.0030424393 -0.0091929347 -0.0013150383 
  214000    295.82894    3845.0768        24389    27.445646 -0.0034399751 0.0034785536  0.001445136 
  215000    294.28737    3143.2575        24389    27.968569 0.0033518154 0.00096728365 0.0068009939 
  216000    298.39899    6631.3809        24389    27.974768  0.012997314 0.0017746166 -0.001012519 
  217000    289.55392    4279.3399        24389     28.03753  0.014207682  0.010116966 0.0077925843 
  218000    290.88011    881.02602        24389    28.446059 0.0027234501 0.0025823708 -0.0025570231 
  219000    294.22943    6675.0921        24389    29.550187  0.024078141  -0.01793602 0.0022446966 
  220000    291.99651    7947.7108        24389    30.429071 -0.0031583524  0.006392898 -0.006088128 
  221000    297.03372    4927.2777        24389    31.014123 -0.015061183 -0.012151669 -0.011597891 
  222000    285.93916    2429.8658        24389     30.83167 0.0028137266 0.0019608481 0.0058912273 
  223000    288.46142    6428.5822        24389    29.569442 -0.005271407 0.0044438228 -0.007066334 
  224000    287.99642    5172.3358        24389    28.487516 0.0088425781 0.0076554403 0.0087728242 
  225000    293.57641    2272.7667        24389      28.0201 0.0071449052 0.0026192923 0.0027320963 
  226000    294.34062     3834.076        24389    28.164202 0.0032358839 -0.0031513386 -0.0053110643 
  227000    294.72295    4894.8693        24389    28.775867 -0.0085889852  0.005958191 0.0058406079 
  228000    292.93204     5010.721        24389    29.217878 -0.012742101 0.0053111333 0.0042478526 
  229000    290.96215    2230.6532        24389    29.038836 -0.0064644273 -0.0036752939 0.0078339071 
  230000    293.28921    4664.6155        24389    28.770241 -0.0042807733 0.0082045717 0.0017870756 
  231000    295.80939    6978.3533        24389    27.984224 -0.0012679605 -0.011788159 -0.00085597141 
  232000    297.46772    4360.8427        24389    27.714069 -0.0048004394  0.007548003  0.020820147 
  233000    296.65162     1292.126        24389    27.935976 0.0068688416 -0.0089772275 0.0022832964 
  234000    294.18719    2232.4848        24389    27.655562 -5.6840658e-05 -0.0025741677 -0.005328665 
  235000    295.27153     9560.311        24389    27.178862 -0.0038429169  0.010073051 -0.00071165523 
  236000    297.23029    8109.5703        24389    26.502553 0.00089115823 -0.0093700913 0.0057153387 
  237000     288.4774    1802.7943        24389    25.932984 0.00035026355   0.01498405 0.0041605519 
  238000    287.11958    2693.2288        24389    25.494077 -0.0056134267 0.0041682162 -0.0036420391 
  239000    294.55623    7138.1059        24389    25.434468 -0.0074563302 -0.0056489015 -0.010648613 
  240000    293.66506    6694.8745        24389    26.336438 -0.0033799724   0.01169293  -0.01208248 
  241000    295.82236    3023.6777        24389    27.428269 0.0028611039 -0.0046547885 0.00058463457 
  242000    292.05267    3690.3027        24389    28.786958 0.0061155719  0.009938562 -0.0085296612 
  243000    295.76478    1988.9857        24389    29.689262 0.0077285969 0.0027554665  0.006837406 
  244000    288.93905    2881.5856        24389    29.256246  0.011378378 -7.9544608e-05 0.0074892059 
  245000     294.3037     4319.915        24389    28.486747  0.010421945 0.00024241241  0.017178385 
  246000    294.22484    5207.9754        24389    27.783673 0.0047972379 -0.0041223303 -0.0043868499 
  247000    287.94744     5404.604        24389    27.509156 0.0017862797 0.0035398392 -0.013231152 
  248000    292.47861    4885.0831        24389     27.25473  0.010562638   0.01159021 0.0030382575 
  249000    292.71663    4738.8015        24389    27.091379 0.00041634426 0.0086586888 -0.0035521552 
  250000    289.87197    3403.4431        24389    27.525528 -0.012280421 -0.014392863 -0.0092765213 
  251000    291.64325    7094.9763        24389    27.894441 -0.0056424042 -0.0040391059  0.018313395 
  252000    289.43742    6072.9384        24389    28.545771 0.0076759692 0.0054023391  0.009611282 
  253000    293.86592     837.2248        24389     29.14575 0.0081111525 -0.013099165  -0.01443593 
  254000     291.5789    3853.5247        24389    30.029422 0.0034642981 0.00027727607 0.0044933125 
  255000    292.94266    4578.8589        24389    30.466434 -0.0071270367 0.0020212253 0.0081215246 
  256000    291.99578    5982.2148        24389    30.400658 -0.00056461458 -0.001346573 0.0076819264 
  257000    295.71842    3583.0464        24389    30.131737 -0.0074371518 -0.0079637973 -0.0015566263 
  258000    292.65832    3208.1217        24389    29.222307 0.00081965516 0.0040090019 0.0022104789 
  259000     295.5403    5310.6258        24389    28.230567 -0.00068710401 -0.0029176962 -0.00076026432 
  260000    293.78329    6264.1211        24389    27.264117 0.0030227334 0.0061318301 0.0031403735 
  261000    295.52704    4269.3725        24389    26.414759 -0.0040462362 0.0012436526  0.011542575 
  262000    284.07993    4007.5433        24389    25.792877 0.0029021316   0.00666067  -0.01096436 
  263000    289.38696    6727.1537        24389    26.064624 0.0097513255 -0.0019179326 -0.0046359321 
  264000    293.01468    4380.8337        24389    26.611302 0.0038446209 0.0030926086 -0.0035785047 
  265000    288.43362    6173.2631        24389    27.205601 -0.00011446456 0.0045676895 -0.0035859481 
  266000    290.31641    4887.4609        24389    28.001467 0.0033053178 -0.0034948687 -0.0084503528 
  267000    296.33065    4482.2208        24389    27.830732 -0.014211784 0.0056362925 0.0084880815 
  268000    293.01843    3536.9302        24389     27.36185 0.0098857496  0.002619974 -0.0072461537 
  269000    294.12746    4099.6822        24389    26.602642 0.0079153342 -0.0094206578 -0.00085190055 
  270000    303.84596    4000.6173        24389    25.323719 0.0099310236  0.011217285 -0.0040425279 
  271000    291.98136    6446.9016        24389    24.056853 -0.017114743 -0.0014540316 0.0081388688 
  272000     299.3683    5699.5209        24389    23.651277 -0.0078254372 0.00030641743 -0.0015318149 
  273000    291.04759    1757.1547        24389     24.11234 0.0034886141 -0.0022547542  0.001673087 
  274000    287.48636    3077.2252        24389    25.572321 0.0048996714  0.013062718 0.00081082117 
  275000    297.94455    5093.7929        24389    27.304824 0.0026018745 -0.0057493166 -0.0034994855 
  276000    292.04109    5434.9452        24389    28.236825 0.0076040634 0.0044226548 -0.004406695 
  277000    296.14566    4086.0347        24389     28.27632 -0.0066951951 -0.013073863 0.0078576329 
  278000    298.84644    3541.7276        24389    27.663576 -0.001409907 -0.0041913015 -0.0054280113 
  279000    286.41802     4586.992        24389    27.605025 -0.0077362044 -0.0071485844 -0.0020628989 
  280000    289.16084    5642.9258        24389    27.594453  0.004028896   0.01184294 -0.0079673872 
  281000    294.92516    4579.3489        24389     27.71683 0.0055024814 -0.010594528 0.0051741732 
  282000    299.63689    3519.1479        24389     28.31767 -0.010534082 -0.001936027  0.007750902 
  283000    302.54906    4049.1711        24389    28.286474 -0.0051335962 -0.013652901 -0.011221974 
  284000    294.91977    4718.0419        24389    27.998313  0.012435758 -0.019215036 -0.0030856262 
  285000    292.81798    5395.9187        24389    28.088197 -0.0012719798 -0.010954738 -0.0060239042 
  286000     294.6889     3674.863        24389    28.466431 0.0084684404 -0.010129927 0.0060406259 
  287000    293.56204    3864.1303        24389    28.612907 -0.0078966772 -0.0059940653 -0.00026620431 
  288000    295.23774    5215.6212        24389    28.594725 -0.0059800819 -0.0030002708 0.0064625103 
  289000    296.10484    5648.6306        24389    28.673563 -0.0013941209 -0.0033963065 0.00050215935 
  290000    292.29112    4931.6185        24389    28.839321 0.0036254463 0.0088203204 0.0065629701 
  291000    292.58709    3036.3203        24389    28.738231 -0.00094051596 0.00028412997  0.023662473 
  292000    295.48539    2527.9291        24389    27.981339 0.0019252662 -0.0033732565  0.018284927 
  293000    294.86673    5262.3511        24389    27.424304 0.0017921275  -0.01660488 0.0013565934 
  294000    294.79448    5263.6119        24389    27.136892  0.017887483 -0.0088970649 0.0038639111 
  295000    295.27295    4542.6732        24389    27.065608 0.0086295262 -0.017064528 -0.0010873791 
  296000    299.48594    5341.7288        24389    27.532393  -0.00203609 0.00067445245 0.0076675722 
  297000    298.64392    2296.2113        24389    28.194217 0.0046056114 -0.0065743024 -0.0090613529 
  298000    291.98638     2648.566        24389    28.452326 0.0053233873 0.0037494397 -0.0040825221 
  299000    293.17135    4365.5025        24389    28.395974 0.0029705016 0.0011555413 -0.0039700444 
  300000    287.17659    4355.6924        24389    28.267736 -0.0095516793 0.0087457677 0.00070232343 
  301000    302.12326    6191.1493        24389    28.260307 -0.010164404 0.0023943141 0.0035581823 
  302000    294.58046    5568.3329        24389    28.424756   0.01108154 -0.0098120567 0.0026277724 
  303000    288.21016    4847.8593        24389     29.26065 -0.0070867193 -0.0062839661 -0.0034734597 
  304000    288.01507    2289.5138        24389     30.54361 0.0068344666  0.003228972 -0.0029721822 
  305000     291.5684    5429.8355        24389    31.190092 -0.0009122309 0.0089961541 0.0020822492 
  306000    298.56577    6951.8005        24389    31.464373 0.0079035166 0.0043069778 -0.0086425957 
  307000    292.81141    4185.9777        24389    31.877011  0.002022227  0.015754741 -0.016489892 
  308000    292.96898    2813.3401        24389    32.263598 -0.0065120323 -0.00078611077 0.0060286437 
  309000    292.93267    3209.9101        24389    32.393026 0.0013154672 -0.010895405 -0.0086701024 
  310000    294.98083    5003.4883        24389    32.542694  0.010838884 -0.0051728624  0.012162744 
  311000    293.95933    5150.4098        24389    31.921533  -0.01001601 0.0041655957 -0.014272996 
  312000    290.31646    4777.7353        24389    31.085744 -0.0016693335  0.008939835 -0.0048792506 
  313000    291.98884    4035.8766        24389    30.999287 0.0016820404 -0.0021617277  0.011230903 
  314000    297.02129    4234.0499        24389    30.841325 -0.007330533 0.0053453138 -0.0087250454 
  315000    290.56801    5592.4912        24389    30.527293 -0.0054098478 -0.00090429591 -0.0024383019 
  316000    292.74083    5750.4887        24389     30.14316  0.010049294 -0.0098317468 -0.0034160119 
  317000    297.09948    4659.1194        24389    29.677114 -0.003399187 0.0014950136 0.00041652517 
  318000    298.96812    3309.1457        24389    29.023327  0.010956958 -0.0049813467 -0.0050531813 
  319000    291.61743    3830.2574        24389    28.554011 -0.0068773554 -0.014827086 -0.0086530976 
  320000    291.52547    6208.5338        24389    28.907268 0.0059765157 -0.0098614846 0.0021702683 
  321000    294.37258    4659.3332        24389    28.759775 0.0075069174 0.0033442573 0.0090442849 
  322000     296.9592    4320.9502        24389    28.473797 0.0030744415  0.012444048 0.0011607235 
  323000     292.2135    3339.2261        24389    28.179108 -0.0015083776 -0.005769005 -0.0011908334 
  324000    288.54779    3793.1955        24389    27.089275 -0.0013154136  -0.02129783 0.0065579476 
  325000      295.759    5924.6472        24389    26.028881 -0.014047363 -0.0089098133 -0.002090695 
  326000    293.63725    4151.2554        24389    25.594712  0.004955463 -0.011561256 0.0011647951 
  327000    293.66921    3345.1914        24389    26.483809 -0.0055668522 -0.010508992 0.0091940921 
  328000    291.55515    4296.7081        24389    27.897255  0.011592319 0.0025568234  0.003624507 
  329000    291.14476    7297.7462        24389    28.293162  0.011373836 0.0087191627 0.0072788046 
  330000    291.71343    6499.9267        24389    27.799142 -0.0029466475 0.0083087412 -0.0039474847 
  331000     291.1593    2415.1219        24389     26.96219 0.0018819251  0.010412764 -0.015778359 
  332000    296.90559    3424.4078        24389    26.606185 0.0080465958   0.00819409 -0.0061546378 
  333000    293.03541    6500.6666        24389    27.338724 -0.0023911059 0.0014489022 0.0028484692 
  334000    294.43506    3813.2358        24389    27.955531 -0.0046592756 -0.0048639018 0.0020507324 
  335000    294.00009     2855.151        24389    27.517797 0.0033053143 -0.010488798  0.000577439 
  336000    287.11575    5081.9091        24389    26.972998 0.0031426021 0.0021182706 0.00080597277 
  337000     296.7953    4647.6671        24389    26.897611 -4.8380436e-05 -0.021211643 -0.0061440841 
  338000    288.75335    1731.5541        24389    27.429249  0.010925556 -0.0078204059 0.0057509688 
  339000    292.77646     4666.954        24389    28.446679 0.0014913958  -0.00742667 -0.0042468595 
  340000    298.34803    8979.1899        24389    29.123835 -0.002920993  0.001125345 -0.0021828507 
  341000    293.44667    2258.9183        24389    28.564959  0.018575334 0.0011308949 0.0034291247 
  342000     288.3041    2766.0308        24389    27.790419 0.0028639892 0.0007626302 0.0034648094 
  343000    298.33218     3951.529        24389    27.082729 0.0048075408 -0.0075016407 -0.0037113306 
  344000    289.61296    5386.3083        24389    26.528747 -0.0094256535   0.01209584 0.0039348074 
  345000    292.55198    5442.9177        24389    26.220383 -0.00093237064  -0.00434546 0.00064335309 
  346000     287.8764    5801.7149        24389    25.396269 0.0010475836 -0.0074466037  0.014568847 
  347000    292.73105    1573.3271        24389    24.535362  0.002730025 -0.0062191798 -0.0014476914 
  348000    290.47172    3358.4785        24389     24.37596  0.017186503 0.00052810976 0.0060035823 
  349000    293.24745    6923.5133        24389    24.734705 0.0066881908 -0.0059564235 -0.011691807 
  350000    290.06019     5097.954        24389    25.756491 0.0050384425 -0.017979633 -0.0096513084 
  351000    288.60159    2691.5172        24389    26.240369 0.0061514016 -0.0068119972 0.0014910643 
  352000     292.3204    4087.1582        24389    25.871567 -0.0033118223 -0.0018197265 -0.00068433236 
  353000    289.63486    4080.8092        24389    25.069883  0.004519525 -4.7070169e-05 -0.0014718335 
  354000    294.79286    6060.8508        24389    24.636078 -0.0066652745 0.0061354165 -0.0042308336 
  355000    292.42796    4366.0064        24389    24.758586 0.0046064581  0.002458423 0.0043941767 
  356000    292.31344    3282.1395        24389    24.667656 0.0057729333 -0.0050810015 -0.014652671 
  357000    293.61396    3344.4832        24389    24.211444 0.0009767962 0.0047499419 0.0024508808 
  358000     296.2562    4762.0409        24389     24.73673 -0.0026734397 -0.0068649229 -0.00043389514 
  359000     290.9134    5569.3551        24389    25.810495 0.0063057446 -0.0014539154 0.0031130064 
  360000    295.97489    4106.4975        24389    26.766718 0.0058619906  0.006375939 0.0059717457 
  361000    298.98007    2884.9246        24389    27.522884 0.0074613779 0.0057716393 -0.0004898383 
  362000    291.01959    2513.2522        24389    27.751756 -0.0076185497 0.0055132087 0.0015241189 
  363000    303.51907    5767.1152        24389    28.243432 0.0028083321 -0.0090525794 0.0035317361 
  364000    293.79783    5428.7713        24389    29.039153 -0.0067625244 -0.0097069801 -0.0047843228 
  365000    290.46602    3317.3552        24389    29.049878 -0.0011576351 -0.010807454 -0.011726488 
  366000    292.65576    2755.0932        24389    28.423438 -0.0026707524 0.00044760079 0.0068127801 
  367000    292.88381    4647.3765        24389    28.038651 -0.0017543865 -0.0092667121 -0.013451857 
  368000     293.8831    6444.6387        24389    28.496309 -0.0039271371 0.0045035268 0.0016419094 
  369000    297.74368    4291.1369        24389    29.083049 -0.0039943607 -5.1892587e-05 -0.00064678753 
  370000    291.59822    2872.0245        24389    29.686697 -0.0013297846 -0.000689757 0.0033606301 
  371000    289.92666     4514.293        24389    30.405665 0.0030514455 0.0023278199 -0.0040607627 
  372000    294.20371     4245.407        24389    30.654225 0.0076402327 -0.006953336 -0.00061927944 
  373000    283.49813      3671.85        24389    30.391465 0.0021903378 0.0096999857 -0.0070439911 
  374000    286.46043    4896.6405        24389    28.861082  -0.01209394 0.0057519193 -0.012176336 
  375000    294.77847    2637.8128        24389    26.948989 -0.00094168787  0.006242721 -0.00027366349 
  376000    292.92906    3482.1806        24389    25.522991 0.0014900445 -0.0083279228  0.015401325 
  377000    287.23164      5207.61        24389    25.037351 0.0037906409 -0.016507806  0.007047266 
  378000    292.75069    3884.3071        24389    24.929421 -0.0050204334 0.0028272419 -0.0038458714 
  379000    293.30147    3171.3947        24389     25.47024 -0.0068184067 -0.0037038492 -0.010440532 
  380000    294.82294    6984.6668        24389    26.191786 -0.004025987  0.006540938   0.00301557 
  381000    296.17993    7082.1429        24389    26.263172 -0.0023957432 -0.0050679086 0.0095072857 
  382000    303.67014    3186.8243        24389    26.163834 -0.010246155 -0.0029781573 0.0065517427 
  383000    293.98023    2541.8204        24389    26.088266 0.0079980324 0.00059635538 0.0013653012 
  384000    293.24458    3545.8838        24389     26.32288 -0.0018432873 -0.011378701 -0.003905546 
  385000    293.22406    5782.4602        24389    26.666147 -0.0044280549 0.0018090278 -0.019897429 
  386000    288.98864    4833.1971        24389     27.04419 0.0049505769 -0.0028222119 0.0018141499 
  387000    285.14139    2043.1986        24389    27.179262 -0.00070819991  0.011576819 -0.0080767893 
  388000    290.50114    4877.5954        24389    26.927629 0.0052400779 0.0040341705 0.0056831641 
  389000    289.97014    5381.7873        24389    26.633265 -0.0034550596 0.0095756077 0.0078948057 
  390000    287.51073    3782.5698        24389    26.850655 0.0061058862 -0.003437263 -0.0026481753 
  391000    290.43342    2657.5323        24389    27.046933 -0.0077955411 -0.0015230351 -0.0074782007 
  392000    295.31915    4385.2026        24389    27.407671 -0.0028513103 0.0034318556 0.0025301071 
  393000    292.47058    7155.4872        24389     26.68598 -0.0058402419  0.009352053 -0.010735277 
  394000    287.46085    2615.6648        24389    25.593765 0.00043363989 -0.00037375011 0.0049848936 
  395000    295.15269    1796.1316        24389    25.020004 0.0010753679 -0.012264795  0.001948396 
  396000    293.63435    4013.5392        24389    25.530102  0.016714582 -0.0054222834 -0.00057429833 
  397000    286.42133    6304.1501        24389    26.668681 -0.014290664 0.00089656308 -0.0015240894 
  398000    290.03849    5165.9695        24389    27.700994 0.0018734817 -0.012179768 0.0058193401 
  399000    287.04282    2582.3725        24389    28.340021  0.012660365 -0.0038554584 -0.0049782422 
  400000    290.87418    3430.8993        24389    28.233466  0.010384591 -0.0024444864  0.016564378 
  401000    290.95473    4114.0777        24389    27.403523  0.012836933 -0.0021851741 0.0092052603 
  402000    285.40577    5571.3391        24389    26.916248 -3.5803828e-05 -0.018897495 0.00045604598 
  403000    288.15427    4297.1751        24389    26.779456 -0.010537988 -0.0018912936 -0.0032911442 
  404000    290.76413    5266.4677        24389    26.514467 -0.011829521 -0.0079415475 0.00058445355 
  405000    295.69037    3737.5264        24389    26.514456 -0.001133439 -0.0039559656 0.0012626108 
  406000    290.71951    3181.4248        24389    27.274921 0.0053037858 -0.0016619535  0.004283956 
  407000    297.49633    2240.4194        24389    27.575694 -0.0019595128 -0.00085752118 -0.0064178236 
  408000    292.95956    4141.6087        24389    27.300794  0.011187324 0.0038864565 -0.0059056912 
  409000    294.58312    7663.1653        24389    26.586334  0.015063708 -0.0065652534 0.0024722183 
  410000    293.27964     4119.973        24389    26.222803 0.0080306583 0.00022328281 -0.0057381287 
  411000    295.64943   -253.58839        24389    25.448749  0.001724727 0.0080625363 -0.0012566297 
  412000     289.6251    3362.5468        24389    24.922741 -0.010865015 -0.0052120792 0.0038113217 
  413000    292.30982    7622.4165        24389    24.675564 -0.00091096876 -0.00077381361 -0.00057205321 
  414000     288.0542    4908.3345        24389    24.630798 0.0095607578 0.0013440263 -0.010127856 
  415000    290.67805    2563.3845        24389     24.90338  0.010212539 -0.0067136008  0.012678573 
  416000     287.2762    4081.1134        24389    25.149001 -0.0048854552 -0.0091203839 0.0021842394 
  417000    285.08828    8292.6191        24389    25.124067 -0.0066280372 -0.0029263229 0.0064634715 
  418000    288.52994     5234.124        24389    25.680129 -0.00094093594 -0.0040059466 9.8696228e-05 
  419000    294.18724    1607.7675        24389    26.703295 -0.012656342 0.0020265724 0.0082620082 
  420000    287.80037    3430.7889        24389    27.924768 0.0087180929 0.00052289099 -0.00094706975 
  421000    293.17021     6978.352        24389    28.691952 -0.0055623753  0.011416464 -0.0018605588 
  422000    289.61478    4892.8587        24389    29.040943 -0.011000627    0.0100623 -0.0060619445 
  423000    288.39581    2087.0421        24389    28.847991 -0.0085763157 -0.0034751698 0.00076379172 
  424000    291.23409    4580.5086        24389    28.497762 -0.0090804712 -0.0036867181 0.00075186687 
  425000    293.87096    5726.8891        24389    28.463091 -0.0061941662 0.0026092738 0.0032137208 
  426000    300.35514    5878.1799        24389     28.45126 -0.0033990466 -0.0020633509 0.0055482408 
  427000    293.45379    3548.1858        24389     28.23787 0.0040445635 -0.00055960309 0.0069207932 
  428000     297.2964     1754.885        24389    28.056746 -0.0071599769 0.0090854116 0.0042492242 
  429000    296.42454    6937.6175        24389    27.548327 -0.0026297838 0.0048193171  0.010697229 
  430000    292.39168     5590.913        24389    27.065047  0.012014277 0.0087512312  0.011841475 
  431000    286.78676    1273.7887        24389    26.343981 0.00071788829 -0.0071943865 -0.0014745514 
  432000    302.18011    3316.8132        24389    26.029089 -0.0032958709 0.00072608606 -0.0046622245 
  433000    296.31272    7579.0124        24389    26.093036 -0.0086756524 0.0067606286 -0.015148473 
  434000    288.35863     4049.057        24389    26.421782 -0.00067022738 0.0024325236 -0.010931829 
  435000    297.16803    3448.4644        24389    26.302166 0.0043734804 -0.00024359162  0.012249652 
  436000     288.7932     3371.704        24389    26.206794 0.00045688422 -0.00024651769 0.0022494113 
  437000    299.85868    2126.4538        24389    25.716956 -0.0012850889 2.1726836e-05 0.00033098446 
  438000    294.91874    5256.2609        24389    25.375339 0.0048256563 -0.005115918   0.01166691 
  439000    291.80278    6339.1374        24389    25.219901 -0.0041069866 0.0095781956 0.0032085474 
  440000     291.5516    4365.8929        24389    25.150637 -0.0015992328  0.012034905 -0.0007255624 
  441000    290.15437    4954.0897        24389    25.758641 -0.0053200536 0.0044835328 -0.0023944886 
  442000    296.70754    5088.1771        24389    26.506364 -0.012015801 0.0079991061 -0.0085581097 
  443000    290.45876    3920.2688        24389    27.596062 0.0011556125 0.0068613726 -0.00021327958 
  444000    286.49166     907.4961        24389     28.00772 -0.0040322423 -0.017757056  -0.01085821 
  445000    289.77976    4910.8769        24389    28.087313  0.012517546 0.0081176788 -0.0010268605 
  446000    295.20674    6770.9359        24389    28.511698 -0.0096451493 0.00043678811 -0.0050539752 
  447000    291.83806    6899.3416        24389    29.113062 -0.00046010195 -0.0014930816 0.0033077489 
  448000    296.84182    2237.9062        24389    29.183281 -0.0013211806  0.002268506 0.00098382473 
  449000    289.28577    2413.1026        24389    28.432223 -0.0057883921 -0.0011599615 0.0056220725 
  450000    291.89776    7513.3059        24389    27.247422 0.0006477578 -0.0070335105 -0.0013584827 
  451000    288.63226    5628.0685        24389    26.507213 -0.011412023 -0.010514811 -0.008468071 
  452000    293.37808    3268.7787        24389    25.517976  0.002595981  0.010003385 -0.018587197 
  453000    300.05664    3415.1176        24389    24.673767 -0.0058165272 -0.011058403 -0.0037841252 
  454000    291.61918    3153.3391        24389    24.869742 -0.0088028026 -0.00093492738 0.0068788289 
  455000    294.45146    4072.6325        24389    25.498514 0.0009169947 -0.0041542203 -0.0035237222 
  456000    292.46494    3286.0714        24389    26.449163 0.0061948855 -0.0091278018 0.0011009841 
  457000    288.08926    3094.3615        24389    27.289403 -0.0012770947 0.0077836326 0.00049738486 
  458000     285.1968    5108.1872        24389    27.980549 0.00015776238 -0.0024851287 0.0068351446 
  459000    292.81959    5650.1731        24389    28.740132 -0.002466998 0.0050354284 -0.0065080857 
  460000    296.78241    5815.4181        24389    28.757171 -0.0046463555 -0.0026461389 0.0077171907 
  461000    290.50881    2958.7845        24389    28.001302  0.014757752 -0.0062081815 0.0038715868 
  462000    288.71977    795.54008        24389    27.356903 -0.0022682006 0.00066896821 -0.010301905 
  463000    288.28716    4466.0125        24389    27.229964 -0.0014651707 -0.0012344733  0.014240296 
  464000    302.70971    5898.2563        24389      27.6283 0.0086238019 -0.011704677 -0.0032546708 
  465000    292.54948    4298.1161        24389    28.613124 -0.0019554221 0.0091292958 0.0068708918 
  466000    290.84719    2571.6692        24389    29.745609  0.011638865 -0.0048701148 -0.00085292809 
  467000    292.56353    3365.2583        24389    29.531416  0.011908674 -0.010053507 0.00053954847 
  468000    292.50691    6654.9156        24389    28.995892 -0.0023377007 -0.0057773652 0.00048998715 
  469000     293.3174    4322.2838        24389     28.80641 -0.0055581445  -0.01216589 -0.0031545829 
  470000      291.422    3469.7037        24389    29.042344 -0.007480345 0.0004285783 0.0062298222 
  471000    291.65735    4713.5524        24389    29.139277 0.0065587989 -0.0012058075 -0.0015596457 
  472000    290.87227    3887.6111        24389    29.307567 -0.0072685296  0.015517055 0.0081591901 
  473000    288.58229    5061.1548        24389    29.871324 0.0089462716 0.0033385238  0.012318942 
  474000    301.54499    3176.6405        24389    30.089911  0.011917146  0.012481564    0.0107234 
  475000      291.372    6160.2958        24389    29.858738 0.0012136808 -0.0021631226 -0.010394556 
  476000    286.79488    3794.2158        24389    29.355175  0.013240382 -5.2761682e-05 0.0028034175 
  477000     286.6981    2496.5783        24389    29.135054 -5.0164239e-05  0.003783992 0.0037629126 
  478000    294.33554    4404.2472        24389    28.971766 -0.0060498387 0.0078432765 -0.0015941923 
  479000    297.83237    4792.7724        24389    28.623969 0.00081111217 0.0035331968  0.010458092 
  480000    293.32591     4029.876        24389    28.327134 -0.0081984166 -0.0074954598 -0.0036891744 
  481000    287.45742    4818.4169        24389    27.900554 0.0066445948 -0.0058626098 0.0019643574 
  482000    295.26631    5717.4965        24389    27.565549 -0.0039315602  -0.01364241 -0.010515333 
  483000    290.99264    2398.5583        24389    26.709707 -0.0041762301 -0.00060400673 -0.0045196314 
  484000    288.34075    3786.5357        24389    26.172943 0.0080463716 -0.0098684778 -0.0081826823 
  485000    284.64877     5219.214        24389    26.477204  0.012538403 0.0025355537 0.0074591256 
  486000    289.41533    1990.9764        24389    26.524259  0.010122621 -0.0054215553 0.0020424326 
  487000    291.85742    773.28493        24389    25.722798 -0.0060906275 -0.0046614454  0.015824947 
  488000    289.61959    4418.6402        24389    24.207038 -0.0035752182 0.0078815054  0.011191665 
  489000    287.90538    6456.8916        24389    23.047583 0.0047940775 -0.0035487405 -9.5982165e-05 
  490000    282.76097    3322.3096        24389    23.201252 -0.001846335  0.012183286   0.01015507 
  491000    287.32751    2427.0544        24389    24.141359 -0.0028210331 0.0064774659 0.0040821901 
  492000    293.69093    5926.1203        24389     25.60219 -0.0059434086 0.0057903896 -0.0091286061 
  493000    296.46871    5977.5338        24389    26.873691 -0.00022686176 0.00092478906  0.012001228 
  494000    298.38114    3857.6057        24389    27.407556 0.0064482414  0.027426032 -0.0051762182 
  495000    292.74467    4120.1521        24389    27.194164 0.00033681707 0.0044568103 -0.012760981 
  496000    290.84801    4204.0448        24389    27.029577 0.0045914082  0.026567981 -0.0047092107 
  497000    289.46509    4957.0481        24389    27.408608 -0.001795567 -0.0022570946 0.0092726897 
  498000    288.48267    4792.0353        24389    27.851715 0.0062531858   0.01496278 -0.0051914892 
  499000    289.24179    2970.6192        24389    27.727682 0.0022218158 -0.0037674342 -0.012720275 
  500000    289.95569    3228.6331        24389    27.140832 0.0042305228 -0.0063847662 -0.0036937846 
  501000    296.09376    3227.6395        24389    26.696358 0.0073198205 -0.00052127643 -0.012355154 
  502000    290.83431    5788.6158        24389    26.448927 -0.0031424086  -0.00832314 -0.0082202848 
  503000    288.44463    6568.2355        24389    26.693236  0.006869231 0.0046217493 0.00029266467 
  504000    292.87688    2296.8481        24389    27.024547 -0.00012149942 -0.0014394466 -0.0080727662 
  505000    298.36512    3689.1675        24389    26.854134 0.0030880494  0.017489227  0.010016358 
  506000    304.03959    6638.1458        24389    26.622223 0.00055388703 -0.020462242 -0.0039391691 
  507000    291.22972     6814.918        24389    26.426262 -0.0056929379 -0.0026629701 -0.0088160602 
  508000    288.67006    2684.9785        24389    26.166924 -0.0091676089 0.0088177663 0.0039633251 
  509000    292.33949    115.27615        24389    25.761014 0.00025340721 -0.0043753369 -0.0080252237 
  510000    291.65145    2406.7362        24389    25.591596 0.00021890856 -0.012964111 -0.008783135 
  511000    293.43238    7224.1389        24389    26.038858 0.00080811874 0.0048577262 0.0041705164 
  512000     288.5722    6796.4314        24389    27.078415 -0.0034506052 -0.0038745501 0.0018908142 
  513000    290.50356    2320.3953        24389     27.93515 -0.0025188942 -0.013234932 0.00036215995 
  514000    292.41273    1813.5904        24389      28.1063 -0.0055964486  0.011465492 0.0055982064 
  515000     290.2857     5998.041        24389    27.928086 0.0096610366 -0.014721572 -0.004242933 
  516000    293.86392    3580.9772        24389     27.62201 0.0044261346 0.00015484792 0.0042220376 
  517000    288.23011    3573.7425        24389      26.9805   0.01033257 -0.0010149269 -0.022264761 
  518000    286.46495    2475.4965        24389    26.951123 -0.00026047906 0.0078053357 -0.0027395663 
  519000    294.36002    5409.7753        24389    26.685715 -0.0098165114 -0.0085615184 -0.0043056321 
  520000    291.56433    6388.4227        24389    26.286265 -0.002776739 0.0016681599 0.0041755274 
  521000      298.422    7067.6747        24389    25.987179 0.0078307418  0.012965779 0.0013682535 
  522000    290.62451    2574.0683        24389    25.952453 0.0054294446 0.0016574011 0.0059072646 
  523000    282.80939    1008.2533        24389    26.090343 0.0040180925  0.010959897 -0.007675624 
  524000    294.84872    4291.4431        24389    26.542106 0.0075029741 0.00041361638 0.0078832965 
  525000    294.39906    8483.1829        24389    26.487447 0.0055318909 0.0075633389 -0.0094124742 
  526000    291.91785    4681.9475        24389    26.436008  0.004674601 0.0012114855 0.00034207438 
  527000    295.54511   -3.5488625        24389    26.707299   0.01640419 7.4964305e-05 -0.0017958368 
  528000    287.21745    2399.1505        24389    27.139619 0.00090111141 -0.010299796 -0.0027282723 
  529000    289.86566     6792.362        24389    27.443608 0.0058506788 0.0088711647 -0.0040962835 
  530000    293.75212    6691.0333        24389    27.345835  0.016222382  0.016144073 0.00044531301 
  531000    284.47078    2308.4983        24389    26.826217 -0.0027230353 0.0027670387 0.0061849267 
  532000    295.64712     3245.964        24389    25.964996 -0.013341754 -0.0057355123  0.002843592 
  533000    293.44397    4593.5218        24389    25.214983 -0.0061525502 -0.011570714 -0.0010818106 
  534000    289.21824    3592.6515        24389    24.752504  0.013002711 0.0074194667 -0.0025348167 
  535000    288.57379    4361.5409        24389    24.168856  0.011069913  0.002949523 -0.0016399039 
  536000     285.7458    5115.7455        24389    23.552981 0.0025611874  0.012715178 0.00076379843 
  537000    296.83816    2270.6628        24389    24.060671 0.0017105082 -0.0023205422  0.003380802 
  538000    291.22063    2530.5907        24389    25.533473 -0.00031109063  0.008278278 -0.0059728069 
  539000    292.25294    4963.2334        24389    27.017921  0.013410461 0.0089519847  0.016041958 
  540000    296.56164     7891.964        24389    28.010929 -0.010334625 -0.0046289928  0.004823673 
  541000    289.51664    6661.0963        24389    28.367277 0.0058303278  0.004751278  0.014324982 
  542000    287.26407    575.27921        24389    28.183926 -0.011615729 0.0061716484 -0.010605323 
  543000    295.13253    4671.5546        24389    28.069071  0.007253928 0.0011986715 -0.0050398607 
  544000    292.80091     8216.853        24389    27.959027 -0.0041733634 -0.0068152934 0.0037887076 
  545000    293.44796    5943.7396        24389    28.275055 -0.013332038 -0.0034854505  0.016923647 
  546000    289.21221    3550.4513        24389     29.23955 -0.0075979639 0.0012800378  0.011193093 
  547000    291.36198    4950.1367        24389    29.423501  -0.01300763 0.0017507427 -0.0085402829 
  548000    295.24411    2318.6619        24389    29.325066 -0.015084159  0.014654908 0.0070943268 
  549000    291.93273    3929.0209        24389    29.088689 0.00033981972 -0.0053318858 -0.010777344 
  550000    289.54108    2889.6428        24389    28.494194 -0.0030859382 -0.012227294 -0.0017432641 
  551000    295.18361    5163.6991        24389    28.615636 0.0050656931 0.0019856195 0.0086505687 
  552000    290.99357    5548.2417        24389    29.009962 -0.0058202004 0.0030837304 -0.0026546486 
  553000    292.51518    3532.1374        24389    28.746787 -0.016953354  0.008524439 -0.014928847 
  554000    292.34493    4499.0425        24389    27.797881 0.00081831596 0.0030167202 -0.0098090342 
  555000    289.80939     3805.254        24389    27.183001 0.0041218304 -0.0024833289 -0.0083233622 
  556000    294.66599    4997.1175        24389    26.993578 0.00024315797 -0.0055620923 -0.0041471844 
  557000    290.14141    8518.0041        24389    26.945156  -0.01082945 0.0029213598 -0.0038026732 
  558000    293.51903    4304.6255        24389    27.282564 -0.0027732194 0.0057452194 -0.0033756303 
  559000    290.79657    1908.9335        24389    27.905888  0.011324172  0.012332226 0.00082882182 
  560000    290.13679    7223.0802        24389    28.234389 0.0042670728 -0.0056266112 0.00023408577 
  561000    290.26271    5508.9815        24389    28.546643 -0.0093112845 -0.015689931 -0.0042349413 
  562000    292.20302    2528.1256        24389    28.139482  -0.01559326 0.0060329256 0.0011841397 
  563000    287.54566    2850.0493        24389    27.669793 0.0085402594 0.0012176224  0.010324728 
  564000    290.87369    5689.1608        24389       27.306 0.0020216297 0.0024683355 0.0052587852 
  565000    293.40809    6779.9831        24389    26.673345 0.0027284482 -0.0060288359 -0.0035851871 
  566000    289.93103    2942.7338        24389    25.939357 -0.0046837482 -0.0023001981 0.00049096687 
  567000    292.58684   -1310.3065        24389    25.520422 -0.0039919312 0.0077257797 -0.00064729268 
  568000     295.7084    5936.1552        24389     25.25193  0.012284476 0.0015760102   0.01638131 
  569000    292.52522    8785.3429        24389    25.407097 -0.0033734648  0.005087973  0.004195558 
  570000    289.08966    3448.4189        24389    25.841576 0.00012256864 0.0064404028 0.0044962133 
  571000    290.56467    1276.9347        24389    26.262508 -0.012395183 0.00043090549 -0.010236398 
  572000    296.88256    4991.4477        24389    26.456708  0.001212289 -0.0028132867 -0.0047848938 
  573000    288.96327    7695.5791        24389    26.172541 0.0081679741  0.008036632 0.0015924001 
  574000    292.95963    4290.8059        24389    26.195456 0.0054710782 -0.00059580631 -0.001276478 
  575000    291.01755   -429.51198        24389    25.662524 -0.0097078037 -0.0065706366 0.0087268498 
  576000    287.58049    4351.3604        24389    24.658767 -0.0081630492 -0.00015814492 0.0031747648 
  577000    287.87877      6816.88        24389    23.794833 -0.00064698369 -0.0067716909 0.0029708992 
  578000    290.85884    4948.8226        24389    23.797166 0.0070975583 0.00081984932 -0.004614812 
  579000     291.1747    3292.8323        24389    24.827339 -0.0093380062 -0.0041002279 0.0061808195 
  580000    291.12953    4458.3605        24389    25.820538 0.0090256496 -0.0045231622 0.0089546487 
  581000    296.58092    5370.2023        24389    27.045406 -0.0061654191 0.0012468805 -0.0002622426 
  582000    294.72052    3347.9216        24389    28.071345  0.020081709 -0.0039934693  0.010727196 
  583000    288.17045    1864.4015        24389     29.14539 0.0047768541 0.0055359646 0.00058449951 
  584000    286.07734    3472.4135        24389    29.901361 0.0083744349 0.0060028502 0.0072757128 
  585000    292.17038    6239.4751        24389    30.283498 -0.0006667635 0.0085131268 0.0084855108 
  586000    286.61327    7622.3293        24389    29.803827  0.013199649 -0.011658891 -0.0011801199 
  587000    293.72503    3406.8341        24389    29.328488 0.0098049379 -0.0089121182 -0.0068709373 
  588000    297.80269    281.50365        24389    29.203224 0.0097312696 -0.010873773 -0.0089331201 
  589000    291.08805    3794.7967        24389    28.987236 -0.0019868701 0.0059140714  0.016002382 
  590000    295.38712    4811.4815        24389    28.831057 0.00085044724 -0.0042700364 0.0026011632 
  591000    289.60371    4404.6134        24389    28.115477 9.0953859e-05  0.020005902 -0.006812388 
  592000    291.59634    4843.0795        24389    26.946254 -0.021234918  0.008760127 -0.0071009728 
  593000    290.48011    3542.7209        24389    26.530113 -0.015530449 -0.0030845397 -0.011093219 
  594000    291.43108    3100.0579        24389    26.526158 -0.0031448624 0.0050961109 -0.0087310906 
  595000      294.039    4498.1374        24389    26.675405 0.00061695641 0.0029045123 -0.0084613845 
  596000    296.12519    4034.2667        24389    26.460022 -0.0046512089 0.0069691269 0.0093831101 
  597000    288.47635    2535.7063        24389    26.327487 0.0047507825 -0.0011960958 0.0010428869 
  598000    289.46633    5371.6635        24389     26.18803 -0.020180206 0.0072514276 -0.0080262501 
  599000    294.08973    4370.0015        24389    26.484193 -0.0022959485   0.01203772  0.011627546 
  600000    287.77975    2629.0194        24389    27.200143 -0.0060381428 -0.0019297863 0.0026861944 
  601000    284.05718    3983.0868        24389    28.134277 0.0031809056 0.0049973069 0.0039521438 
  602000    285.65019    6809.9442        24389     29.01774 0.0025129263 -0.0092564203 -0.00095081506 
  603000     292.4005    3962.4259        24389    29.111305 -0.00066472221 -0.0011499391 -0.00082658344 
  604000    287.45348    1626.5676        24389    28.379622 -0.0046994689 0.00087507349 -0.0047210078 
  605000    292.35258    4503.1212        24389    27.222072 0.0043655921 0.0042286783 -0.0075489579 
  606000    295.35119     5892.343        24389     26.83579 -0.0015921827 -0.0045029793 0.0025113636 
  607000    288.54627    5086.6935        24389    27.670118 0.0045309426 -0.0044733231 -0.0056971798 
  608000    293.38593    1697.4249        24389    28.760926  0.012471412  0.010663166 -0.0050382303 
  609000    293.78081    5947.3661        24389    29.757932 -0.0027950167 -0.0082355809  0.013370886 
  610000    296.12984    7063.3805        24389     30.09695 -0.0032863997 -0.013480072   0.00311138 
  611000    292.74705    2449.3599        24389    30.190378 0.0013053096 0.0081478163 0.0052935204 
  612000    291.09754    2456.6563        24389    29.544632 -0.0020339567 0.0061183573  0.003129409 
  613000    291.19954    4822.2413        24389    28.615415  0.020358351 0.0042524187  0.016718651 
  614000    292.85395    5758.8253        24389    27.627089 -9.8740781e-05 0.0019026825 -0.0030362973 
  615000     292.5606    4254.7577        24389    27.207997 -0.0022532928 0.00094792692  0.018815507 
  616000    294.11619    2542.1493        24389     27.47895 0.0094017537 0.0017325448 0.0074745539 
  617000    291.72726    4336.4445        24389    27.557108 -0.0026744857  0.009688311  0.003383243 
  618000    292.40277    8649.4745        24389    27.170568 0.0063777037 0.0076775716 -0.001657425 
  619000    287.05578    4678.5532        24389    26.397173 -0.0044817516 -0.016657854 0.0043366752 
  620000    296.81022    730.33398        24389    25.660623 -0.00034617534 0.0060319644 -0.0043174994 
  621000    290.83943    2873.1728        24389    25.294528 0.0070957115 -0.00091308276 -0.0063275337 
  622000    289.76421    5209.8143        24389    25.164212 -0.0033854155 0.0092343372 -0.00071495068 
  623000    291.88779    5870.6346        24389    25.400743 0.0038481777 0.00050775035 -0.0066633927 
  624000    292.47272    4376.4609        24389    25.580923 0.0021617682 0.00095573837 -0.0016816658 
  625000    296.41636    2269.4471        24389    26.100228 -0.0086689869 0.0049366452  0.014893693 
  626000    295.62551     2283.426        24389     26.89343 -0.0069090023 -0.0027729301 0.0032822551 
  627000    299.60629    4695.8819        24389    27.594426 -0.0018521962  0.005002838 -0.0055415219 
  628000    288.63329     4065.809        24389    28.599433 0.0021457943 -5.7692655e-05 0.0011664732 
  629000    296.63206    2167.6034        24389     29.18525 0.0081681949 0.0023219061 -0.002126705 
  630000    296.78775    3422.2209        24389    28.337725 -0.0075671611 0.00075251732 0.00020787638 
  631000    286.00109    2559.6661        24389    26.213612  0.001374705 -0.0092889583  0.004739684 
  632000    290.81763    2924.1061        24389    23.920651 -0.0086234879 0.0013829616 0.0052154978 
  633000    296.09849    3869.6818        24389    22.880142 0.0015019393 0.0087634801 -0.0060911089 
  634000    294.95776    5352.9133        24389    23.229928 0.0049263783 0.0065906936  -0.00933302 
  635000    286.90961    3597.4667        24389    24.100499 0.0039377815 -0.0021536702 0.00071023985 
  636000    287.74857     2165.387        24389    24.491519 0.00019137576 0.0073279158 -0.015004323 
  637000    293.23557    3936.2735        24389    23.978886 0.0074129969 0.0096802798 -0.00050813086 
  638000    287.40319     7155.503        24389    23.396785 0.0025954815  0.015383574 -0.016034652 
  639000    288.04377    5356.4001        24389      23.0566 -0.0041194915 0.0012366126   0.01895689 
  640000    290.47935    340.42471        24389    23.494186 -0.0086436924 -0.0092309517 -0.0057621237 
  641000    289.18218     2984.832        24389    24.302484 -0.0088891623 -0.0086630065 0.00059602113 
  642000    289.91681    6291.0173        24389    24.672279 0.0048884369 -0.0011753409 0.0043478206 
  643000    291.76249    4810.3753        24389    24.705771  0.010968915 -0.0022761982 0.0079865232 
  644000     293.8746    2264.3414        24389    25.029366 -0.0025108476 0.0052298486 0.0059837544 
  645000    289.07868    4375.2763        24389    26.032962 0.0075464109 0.0062124708 -0.00025576089 
  646000    293.89256    4873.5142        24389    26.877223 0.0038690026 0.0053705854 0.0089668058 
  647000    294.09904    4312.0243        24389    27.493581 0.0033747255  0.013977588 -0.0032238992 
  648000    294.79304    1195.0628        24389    27.494972 -0.011422763 -0.00094680444 0.0077553317 
  649000    285.61901    5822.1325        24389    26.854755 -0.00096208162  0.005521753 -0.0086984514 
  650000    290.13731    5240.2457        24389    26.300681 -0.007960703 -0.012170275 0.0030097552 
  651000    289.43172    3407.4118        24389    25.926428 -0.0017973022 0.0063409907 -0.0087474262 
  652000    284.73096    3622.8695        24389     25.71285 0.0059409791  0.010678072 -0.0097251746 
  653000    289.95234    3591.8915        24389    25.036146  0.005066443 0.00095284542  0.012872928 
  654000    292.45756    4065.0222        24389    24.339332 -0.0042090632 -0.0015159269 -0.0013588763 
  655000    292.95438    2562.1167        24389    24.178076 -0.0097627032 -0.011456042 -0.013428365 
  656000    283.83913    4413.9819        24389    24.563442 -0.0086157751 0.0039462875 -0.015092537 
  657000     290.0529    2575.3634        24389     25.19498 -0.0048587977 0.0029847021 -0.0043187903 
  658000    291.33872    5436.3529        24389    25.721199 -0.0095024766 0.0063016367 0.0037113175 
  659000    282.84547    5990.4581        24389    26.379455 -0.013057635 -0.0016858806 0.0021480819 
  660000    286.98355    3192.3647        24389    27.228712 0.0033039251 0.0039771971 -0.0096440247 
  661000    289.49335    2922.3644        24389    28.164295 -0.018035565 0.0089200209 -0.011319886 
  662000    291.82132    1771.8525        24389    28.492524 0.0038188238 0.0041950022 -0.014023255 
  663000    292.44917    5014.2633        24389    27.611348 -0.0079875231 0.0050950705 0.0028421931 
  664000    293.25896    5967.6252        24389    26.433978 0.0057063732 0.00090696668 -0.0078784213 
  665000    294.86819    3427.5689        24389    26.018033 -0.0050285904 -0.0052331571 0.0013336202 
  666000    292.21104    4126.2657        24389    26.179468 0.0059191658 -0.012667482 -0.0072055143 
  667000    293.81033    3038.9503        24389    26.625948 0.0059420606 -0.0056314617 -0.0014282823 
  668000    295.82614    3066.9189        24389     26.89965 -0.0084241926  0.003515588 -0.0022520503 
  669000    285.65092    5417.6254        24389    26.806714 -0.0033465558 0.00050515193 -0.0079484559 
  670000    292.45184     6472.058        24389    26.797503 -0.0063115995 0.0081439692 -0.015953605 
  671000     292.8814    5002.5665        24389     27.44726 -0.012029189 0.0043559121 -0.010586775 
  672000    293.04098    744.52055        24389    27.976802 0.0092757291 0.0020587263 0.0095067722 
  673000    291.16942    2090.4891        24389    28.093738 0.0075610125 -0.0039385558 -0.0012752736 
  674000    291.41695    6043.7976        24389    28.453284 0.0006193913 -0.0097561353 0.0093264758 
  675000    293.71245    4487.1187        24389    29.118566 -0.012835991  0.007236394   0.00757701 
  676000    293.83083     4014.816        24389    30.071651 -0.0011144968 -0.0045814746 -0.0013433342 
  677000    297.08368     3756.848        24389    30.239624 -0.0075255742 -0.0077362834 0.0019517928 
  678000    291.69276    5779.1492        24389    30.025556  0.012760545  0.010385434 -0.010775076 
  679000    291.36833    5622.8498        24389    29.321663 0.0029102979 -0.0085313354 -0.0056744307 
  680000    289.84128    2976.1208        24389    28.414062 -0.0030622621 -0.0077563113 0.0055404283 
  681000    292.55286    2382.9757        24389    28.117133 0.0046673304 -0.00039686685 -0.0054624198 
  682000    289.97345    5107.7355        24389    28.191218 0.0069903589  0.011822134 0.0073715316 
  683000     290.1691    4841.5128        24389    28.187401 -0.0011202447 -0.0083453654 -0.010361768 
  684000    294.31494    1751.3802        24389    28.235109 0.00076427625 -0.0033661648 -0.0085182892 
  685000    285.56391     3197.348        24389    28.005316 -0.020583837    0.0056015 0.0092588974 
  686000    290.69071    7611.4823        24389    28.136273 -0.0014620226 -0.010035687 0.0060279389 
  687000    291.42743    5057.2481        24389     28.19304 -0.010821811 0.0034625235 -0.00044975959 
  688000    292.25861      2412.35        24389    28.530223 -0.0034767506 0.00021696481 -0.00068948977 
  689000    289.58893    1068.9109        24389    28.682532 0.0027626784 -0.0072631415 -0.0013440176 
  690000    298.38157    1584.2948        24389    29.100446  0.011637738 -0.0042395541  0.023984016 
  691000    295.71536    6140.1191        24389    29.229084  0.014104781 -0.00069869059 -0.0045540348 
  692000     289.3639    4817.3762        24389    29.056735 0.0047029489  0.017704533 -0.0012448627 
  693000    293.74396    3427.1167        24389    28.604473 -0.0035472017 -0.0064289827  0.010364532 
  694000    284.83991    2430.7914        24389    28.006066 0.0076514369 0.0060633265 -0.0044389702 
  695000    292.80308    4781.7809        24389    27.722689 -0.0010236284 0.0070376826 0.0024745428 
  696000    293.05401    6452.3997        24389    27.425326 0.00099029923 -0.0031234926   0.01164034 
  697000    290.99388    3559.6254        24389    27.759076 -0.015491548 -0.0060352391 -0.0082280015 
  698000    288.67289    2228.9018        24389    27.574937 -0.00078072954 0.0019066307 -0.0081967128 
  699000     289.4007    4189.3214        24389    27.177718 -0.0011215448 0.0032381836 0.0021805536 
  700000    290.16729     5828.872        24389    27.022662 -0.00080838251  0.011015163 -0.0081652386 
  701000    297.50141    3239.4666        24389    27.474739 -0.0013107135 0.0061420756 -0.00080587625 
  702000    286.07454    4083.4084        24389    28.118074 -0.009045592  0.002691479 0.0082551664 
  703000    294.98109    4262.4755        24389    29.143932 -0.0021540353 0.0065559787 -0.0022480718 
  704000    294.54286    5369.2497        24389    29.957681 0.00041691749  0.013092721 0.0055082538 
  705000    297.69613    3960.8515        24389    30.480164 0.0051517068  0.010913391 0.0065587512 
  706000    294.17114    3242.5433        24389    30.454445 -0.0046093487 -0.0046357579  0.003589692 
  707000    287.57622    4175.0515        24389    30.206824 -0.011389337 0.0067871434 -0.0020217053 
  708000    289.31482    3323.7052        24389    30.220199 0.0032205652 0.0034239244 0.0075007461 
  709000    293.17533    5769.4796        24389    30.089645 0.0044424001 -0.0059797273 0.00014766208 
  710000    293.41178    3966.8093        24389    29.635155 -0.011077325 -0.0058472794 0.0067825512 
  711000    292.25915    3904.8321        24389    29.126226 0.0072542312 -0.0063995395 0.0082419025 
  712000    292.76817    3111.0368        24389     28.92085 -0.00054290788 -0.022760688 -0.0063571685 
  713000    291.61006    6709.3127        24389    29.440568 -0.0029817003 -0.002332485  0.010253082 
  714000    300.30054    2396.7442        24389    30.016938 -0.0068516355 0.0067050516  0.014063608 
  715000    293.67453     1436.958        24389    29.643772 -0.0015297124 0.00037767259 -0.00068551289 
  716000    293.71263    5881.6378        24389    28.513197 -0.015861164 0.0086429701 0.0067513101 
  717000    294.74256      6985.91        24389    26.991647  0.012644135 -0.010112845 -0.0032624974 
  718000    288.03051    2654.1734        24389     26.26134 -0.015622114 0.00051636799  0.010645574 
  719000     287.5003    2049.5195        24389    26.079576  0.010913792 0.0013103427 -0.0065149493 
  720000    294.03449     4400.454        24389    26.327322 -0.0073954532 0.0029224432  -0.00153263 
  721000    291.35856    6465.8403        24389    27.350256 0.0067812708 0.00011616843 -0.0077856669 
  722000    291.14701    3406.4473        24389    28.186442 -0.011187613 -0.0090306173  0.013154585 
  723000    289.07496    2625.4032        24389    28.604864 -0.015715084 -0.0025259793  0.014392845 
  724000    287.97885    3602.7109        24389    28.695791 -0.0034999591 -0.014286629 0.00070840137 
  725000    288.88875    3941.6321        24389    28.630552 -0.0046048994 0.0064091844 -0.0080800396 
  726000    288.09961    3204.2422        24389    28.530833 -0.0041118738 -0.00035797274 -0.0060645373 
  727000    290.03369    4648.9856        24389    27.797644 -0.007374119 0.0076624688  0.003968503 
  728000    292.84318    2821.9497        24389    27.720462 -0.00028044016  0.013168883 -0.0069139091 
  729000    283.10998    3909.7157        24389    27.404453 0.0048767613   0.01890086 -0.00024638177 
  730000    300.15319    4769.6223        24389    26.420249 -0.0081261443 0.0064905782 -0.0059745358 
  731000    290.46554    6383.6525        24389    25.450933 0.0016544261 -0.0032288336  0.015000979 
  732000    291.87693    5343.2581        24389    25.291291 -0.0055407447 0.0050377617 -0.003746592 
  733000    293.03293     2741.036        24389    25.687722 0.0044392881 -0.0064606649 -0.0013739562 
  734000    292.71648    4406.7792        24389    26.339496 0.0040843126 0.0027144661 -0.0035390047 
  735000    289.44244    5267.0806        24389    26.757875 -0.0019069083 -0.0070794575 0.0067018971 
  736000    285.18353    5312.1054        24389      27.2821  0.012421055 0.0080308371 -0.0025595365 
  737000    280.40597    5572.4695        24389    27.000108 -0.0018113706 -0.00035102039 -0.0044133087 
  738000     290.5872    2457.6044        24389    26.787486 -0.00026902705 -0.0035818995 -0.0070259528 
  739000    294.16636    5446.8056        24389    26.450224 9.5868269e-05  -0.01667292 -0.0012381064 
  740000    285.69142    6162.2184        24389     26.89727 -0.0018503099 0.00062256523 -0.0052489976 
  741000    291.71542    3107.8072        24389    27.219307 0.0090989357 0.0082179109 -0.0042885597 
  742000    289.60791    3901.0736        24389    27.200382  0.014367632 -0.0033151193 -0.0029348004 
  743000    290.28411    2603.7057        24389    27.240189 -0.012402742  0.001324034 0.0042128982 
  744000    288.55202    2556.3537        24389     27.56136 -0.0020085176 0.0053091558 0.0070021792 
  745000    290.00717    5552.3915        24389    28.268027 -0.0025101819 -0.0016005759 -0.0038846231 
  746000    287.27043    3679.7469        24389    28.967472 0.0018417671 -0.011811596 0.0045934071 
  747000     296.6458    2865.2633        24389    28.902911  0.011092067 -0.0023765812 0.0060991308 
  748000    286.57091      2961.97        24389    28.065777  0.018188023 -0.020577175 0.0027009611 
  749000     289.8245    4811.9704        24389    27.157795 -0.0020896437 0.0032552019 -0.00085687083 
  750000    292.89707    4894.0591        24389    26.438105 0.0044331942 -0.0015357579  0.015312139 
  751000    296.56854    4211.0345        24389    26.042008 0.0012472461 -0.0041922505 0.00096832463 
  752000    292.97372    2199.8901        24389    25.848742  -0.00712809 -0.0087096904 0.0094484615 
  753000    291.98444    4750.1155        24389    25.905652 0.0032783327 -0.0033922271 -0.0067894168 
  754000    297.20964    6149.6845        24389    26.548096 -0.0047735445 -0.013049004  0.010098598 
  755000    291.17301     4282.591        24389    27.459602 0.0085444497 0.0047468609 -0.0087855879 
  756000    291.20511    1870.6182        24389    28.192354  0.005985272 0.0049053629  0.012362738 
  757000     287.4819    3322.2096        24389    28.390682 -0.0003262934 -0.0050695288 0.00018847679 
  758000    301.84784    7352.8598        24389    28.103689 0.00062451876  0.012657415 -0.00031170888 
  759000    288.16251    6208.9234        24389    27.403347 0.0036987878 0.0088508173 0.0073173936 
  760000    288.63352    1310.7473        24389    26.339956 -0.0063930495 0.0053003825 -0.0097909638 
  761000    290.95046    405.68444        24389    25.943053 -7.6817431e-05 0.0030280086 -0.0030124286 
  762000    292.62477    4546.1724        24389    26.486638 -0.012414469 -0.0043069802 -0.022277075 
  763000    289.10271    7467.6539        24389    27.590701 -0.0017936864  0.010193299 0.0037700998 
  764000    286.98603    3301.7956        24389    28.054411 -0.0050089757 -0.005225903  0.010824311 
  765000    294.58892    2756.3933        24389    27.836512 -0.010561905 0.0001950467  0.010097534 
  766000    291.34312    1173.2552        24389    27.620214 -0.0014893443 -0.0072599336 0.0029554426 
  767000    289.38626    4551.0618        24389    26.811205 -0.0082116529 -0.0087988045 -0.012712002 
  768000    288.30208    5567.7186        24389    26.132206 -0.00093028958 0.0053535657 -0.0085736776 
  769000    297.20718      3867.41        24389     25.54947 -0.0073374617   0.01107593 -0.0044247589 
  770000    301.92369    880.83316        24389    25.407812  0.010624764 -0.0016402556 -0.00097332391 
  771000    282.70286      2627.58        24389    25.793062 -0.0084083527 -0.0065091699 -0.0015913239 
  772000    294.17839    6061.7888        24389    26.515561 0.0014091756 -0.0035507654 -0.0030661442 
  773000    291.76474     3749.195        24389    27.461388  0.002889307   -0.0033476 0.0095650356 
  774000     289.8342    3208.7721        24389    27.820083 0.0016284813 -0.0021659771  0.016120744 
  775000    289.05506    3337.1925        24389    28.167413 -0.0091315986 0.0075884536 -0.0078304827 
  776000    289.97046    6226.3239        24389    28.195756 -0.0071711026 0.0020078543 -0.0093849706 
  777000    289.78132    5499.1948        24389    28.364815 -0.0041179394 -0.0034300216 0.00071909877 
  778000    282.50536    1717.3665        24389    28.253587  0.015436208 0.0061659726 -0.00020235338 
  779000    292.60936    2901.8453        24389    27.671824 0.0055371078 -0.0049915386   0.01056239 
  780000    292.94835    2580.2027        24389    27.144743 0.0018561071 0.00021247172 0.0084222222 
  781000    288.70955    5577.6763        24389    27.606472  0.019191137  0.017297793 0.0008872736 
  782000    297.35549    4748.5302        24389    28.534192  0.010645889 0.0057433161 -0.0074167002 
  783000    292.52735    2276.1684        24389    29.271259 0.0086723817   0.01092059  0.006048874 
  784000    291.68294    3259.0475        24389    30.065871 0.0052931507 0.0016962034 0.0060291159 
  785000     289.9228    5343.8241        24389    31.144623 -0.011566909   -0.0134159 0.0016981784 
  786000    286.86897    6268.2043        24389    31.748885 0.0012430571 -0.0037577402 -0.0010787483 
  787000    297.23576    4091.7351        24389     31.36931  0.010646731 0.0069094132  0.012568668 
  788000    297.79625    2069.0618        24389    30.156381 0.0016557463 0.0010342218 -0.011517061 
  789000    291.40629    1823.7197        24389    28.779811  0.010817052 -0.0069274455 -0.0060403573 
  790000    283.55125    4601.1241        24389    26.996795 0.0078202673 0.0034032265 0.0063552772 
  791000     285.3161    7968.1559        24389    25.874964 0.0037664662 0.0019622963 0.00066465679 
  792000     286.1346    7246.8895        24389    25.529867 0.00054108166 0.0019881223 -0.0065680978 
  793000    299.87055    1599.6227        24389    25.108487 0.0019806853 -0.00077215037 0.0075538746 
  794000    292.45904    2355.5743        24389    24.891261 -0.011952795 -0.0081914162 0.00087530407 
  795000    289.50597    7273.4063        24389     24.44356 0.0012538465 -0.00021646142 -0.0087664901 
  796000    291.30719    7774.9973        24389    23.943152  0.012571749 -0.0045510298 0.0017343413 
  797000    291.72441    1484.3527        24389    23.869094 -0.0089759809  0.007466941 -0.0059311917 
  798000    287.13072     2578.559        24389    24.108041 0.0069258238  0.014180011 -0.00013618802 
  799000    295.22924    4118.1723        24389    24.495954 0.0090706113  0.020689751 -0.0007713285 
  800000    296.38363    4933.7509        24389    25.166437 0.0031888239 -0.0022672059 -0.020705312 
  801000    295.59417    6950.9508        24389    26.515099 0.0040215923 -0.0073063326 0.0002631729 
  802000    293.61227     4061.118        24389    28.127121 -0.0092752836 -0.0020962306 -0.0053564999 
  803000    290.87033    1228.9474        24389    29.183162 0.0096435563     0.012521 0.0070603194 
  804000     295.4289     3192.716        24389    29.818346 0.0034327146  -0.00793364 0.0055664629 
  805000    288.42327     5256.213        24389    29.853078  0.011177201 -0.0094244551  0.010691509 
  806000    288.30685    4893.3847        24389    29.200555 0.0041399686 -0.00073256076 0.00098811409 
  807000    290.79485     2532.628        24389    28.272959 -0.0087908542 0.0029522082  0.010507174 
  808000    287.00496    3075.5298        24389    27.707079  0.018722463 -0.0032009453 0.0080419342 
  809000    289.43183     4844.519        24389     27.92993 0.0053201713    0.0063437 -0.0059050778 
  810000    289.12505    3370.6123        24389     28.02363 0.0041639525 -0.0076095347 0.0066656154 
  811000    288.18635    4944.4552        24389    27.491223 0.0059660864 0.0089093929 -0.0061977182 
  812000    292.20835     4478.879        24389    26.970547 -0.0043506684  0.011947238 -0.010917439 
  813000    295.27643    1682.5103        24389    26.842342 -0.0017151531 -0.00037546074 0.0048206513 
  814000    292.01226    4274.3763        24389    26.729842 0.0015511464 -0.009868312 -0.0028935533 
  815000    292.58761    4771.9712        24389    26.503602 0.0021236292  0.013885246 0.0046786201 
  816000    287.16217    4624.7484        24389    26.569916 -0.0026481191 -0.00017151861  0.011841953 
  817000    291.44598    3037.9084        24389     26.62281 -0.0059276118 -0.0053770732  0.019443632 
  818000    288.68777    4279.9143        24389    26.620026 0.0043529501 -0.0028380582 0.0014091777 
  819000    292.79338    2299.8414        24389    26.178524 -0.0028346735 -0.0078775086   0.01293542 
  820000    290.90006    4583.6136        24389    25.617862 -0.0038076981 -0.0069847958 -0.0047771531 
  821000    284.95157    3368.8943        24389     25.42735 -0.00032201101 -0.018541848 -0.0088385807 
  822000    288.31086    1042.4042        24389    25.495042 -0.00042667374 -0.00030740592 -0.010850698 
  823000     297.7958     4532.412        24389    25.978063  0.011888244 0.00066542668 -0.0029580461 
  824000    294.67844    6754.6225        24389    26.388885 0.0060216105 -0.0042712361 -0.0089491618 
  825000    282.93436    5153.9833        24389    27.238192 -0.00084083449 0.00018342778 0.0043314927 
  826000    290.36198    4211.2576        24389    28.081855  0.013618021 -0.000456024 -0.0057034136 
  827000    291.92585    1553.8503        24389    28.625611 0.00070847797 -0.021115278 0.0017965221 
  828000    287.12167    1751.0073        24389    28.307073 -0.010882342 0.0039853599  -0.01044298 
  829000    298.60895    3405.9701        24389    27.444246 0.0038491408 -0.021869525 0.0028123961 
  830000     293.0998    6257.0469        24389    26.153811 0.0062792393 -0.0037037368 -0.0093117963 
  831000    292.01829    6304.8129        24389    24.924197 0.00062142193 0.0013250092 -0.00057826558 
  832000    293.21652     4560.192        24389    24.806769 -0.0082802829 0.0092295777 0.0051426373 
  833000    287.77026    3278.2607        24389    25.268523 0.0042334777 0.0013345845 -0.007498272 
  834000    292.26704     2487.101        24389    25.984061 0.0064675488 -0.0084972235 -0.0035812014 
  835000    293.58077    3509.8854        24389    26.330801 -0.0035131009 -0.010794011 -0.0013975577 
  836000    294.27986    5423.6346        24389    27.429847 -5.4112145e-06 -0.0018798593  -0.01269625 
  837000    286.79179    2833.7698        24389    28.801398 -0.00011744425 0.0034825007 -0.0022815021 
  838000     291.4464    1521.1254        24389    29.958559 0.0073712478 0.0083917809 -0.0013381503 
  839000     298.9282    5179.2497        24389    30.121663 -0.0014185803 0.0065431515 -0.0070983114 
  840000     286.4566    6507.5166        24389    29.406074 0.0010048899 -0.0027013427 0.0013937335 
  841000    290.75562    2776.4788        24389    28.776905 -0.010929298 0.0050796878 -0.00075744969 
  842000    287.77314    1114.7983        24389    28.749761 -0.0034669022 0.0046748462 0.0047868478 
  843000    293.64693    4810.9818        24389    28.286079 0.0034129621 0.0031285654 -0.0092403822 
  844000    297.72425    7605.1944        24389    28.233142 0.0020188715 -0.0028481854 -0.0038733235 
  845000    290.46164    4794.0035        24389    28.461255 0.0035497297 -0.0072265251 0.0043105229 
  846000    283.92545    2260.5671        24389    28.218548 0.0030541756 0.0067678556 0.0024597917 
  847000    294.48817    2251.3202        24389    28.164901 -0.0025277328 0.00074554677 0.0060910035 
  848000    292.16367    3234.6604        24389    28.233757 -0.0049140425 0.00019274998 -0.00076368638 
  849000    288.41427     6706.058        24389    28.223084 0.0017427696 -8.5015347e-06 -0.0029589397 
  850000    297.92702     4858.936        24389    28.059634 0.0058129405 0.0078953627  0.011328479 
  851000    290.51486    282.01647        24389    28.173857 -0.018820464 -0.0026540865 0.00051609216 
  852000    292.49848    2622.9472        24389    28.213631 0.0066677988 0.00020956246 0.0013314808 
  853000    298.51391    8001.3978        24389    28.478519 -0.010722034 0.0053045944 -0.0011440574 
  854000    290.71258     6223.639        24389    28.965851 0.0083762745 -0.0038500549 0.0072488418 
  855000    282.37631   -175.28458        24389    29.360819 0.0087345129 0.00057895671 0.0062956176 
  856000    291.36595    252.71256        24389      29.2603 -0.0086210794 0.0083488901 -0.0074803453 
  857000    299.81228    4668.2456        24389    28.383768 -0.011765035 -0.011506364 0.0030182914 
  858000    289.98107    6734.5375        24389    27.173759 -0.00072055803 -0.007480545 0.0094778409 
  859000    291.56987     3413.124        24389    25.916433 -0.0018446961 -0.0091300461 -0.0058777379 
  860000    285.59465    3839.7238        24389    25.063471 0.00047545111 0.0026733422 -0.017201241 
  861000    289.70461     2774.416        24389    25.020447 0.0057702204  0.010006064 0.0066094139 
  862000    293.08879    4358.8411        24389    25.679009 -0.00090399343 0.0071103544 0.0034649613 
  863000    290.96251    6353.5887        24389    26.648875 -0.0029366342 -0.00041618389  0.014415791 
  864000    296.87162    3301.9836        24389    26.713791 -0.010532934 0.0018063484 -0.0060746273 
  865000    291.56753     2065.076        24389    26.709031 -0.0046665545  -0.01025873 -0.0012245053 
  866000    291.03422    5713.2671        24389    25.937559 0.0039745456 -0.021366189 -0.0018714883 
  867000    298.95562    4974.1033        24389    25.545312 -0.0012792045 0.0012243605 0.0034912806 
  868000    291.02033     2087.524        24389    24.701878 0.0072642296 -0.0096950232 -0.011127284 
  869000    296.27997     51.16802        24389    23.992179 0.0042995419 -0.0039204823 0.00084344356 
  870000    293.21325    3035.2813        24389    23.820931 -0.0056863355 0.0081508534  0.013238931 
  871000    292.14023    6917.3277        24389    23.618188 -0.0076681812 -0.0099039472 -0.0043712474 
  872000    297.91679    4859.5505        24389    23.962697 -0.017029356 -0.0012170678 -0.00014268913 
  873000    285.70781    1409.5749        24389    25.478199 -0.001663664 -0.0022296309 -0.0059319373 
  874000    285.11203     2284.171        24389    27.151545 0.0016174073 0.0044240204 -0.013884663 
  875000    295.47347    6567.3074        24389    28.035984 0.00020047646 0.0013565996 -0.004104715 
  876000    290.78371    4860.0875        24389    28.225839 -0.0012982709 0.00044183688  0.010241711 
  877000     286.1981    4519.3037        24389    27.902762  0.011502166 -0.0013028094 -0.001673793 
  878000    288.47716    2715.1715        24389    27.379498 0.0031226769 -0.0018071088 0.0085834592 
  879000    289.49361    4419.6996        24389    27.095917 0.0072428299 0.0014495465 -0.0023466359 
  880000    288.24796    4936.7988        24389    26.915764 -0.0035407418  -0.00987858  0.013096402 
  881000    290.05276    4281.4837        24389    26.885827 -0.012210543 -0.014689055 0.0058967601 
  882000     288.1857    3051.3719        24389    27.355197 -0.017391326 -0.0062540009 0.0026741534 
  883000    285.58673    3730.6553        24389    27.839682 -0.016737121 0.0029536506 -0.00069310448 
  884000    288.90821    5014.7354        24389    27.484854 -0.0060453645 -0.0074372876 -0.0086557461 
  885000    289.35686    4441.3955        24389    26.653422 -0.00066397807 0.0061039896  0.013579197 
  886000    288.63606    3425.0422        24389     25.52341 -0.0084830178 -0.0092533425 -0.012955721 
  887000    291.21422    4526.6885        24389     24.43068 -0.010088903 0.0026293523 -0.0058951229 
  888000    289.42677    3072.0656        24389    23.969775 -0.0081966225 0.0027419521   0.00667099 
  889000    287.67983    4260.3965        24389    24.196695 -0.014255456 -0.0016314991 0.0029812296 
  890000    297.21092    4474.8089        24389    25.009371 0.0034977286 0.00039437398 0.0081984678 
  891000    291.28453      3571.53        24389    26.613729 0.0049150947 -0.0083677578 -0.0012749257 
  892000    283.90182    5718.2428        24389    27.417135 0.0069540732 0.0010662212 -0.0023246403 
  893000    297.57538    5143.3944        24389    27.287633 0.0087625756 0.0047826191 -0.0085114867 
  894000    291.67203    2508.7355        24389    27.089572  0.014299357 -0.0057691793 -0.0064259581 
  895000    293.46068    767.57673        24389    26.924596 -0.0029654557 0.0038686595 0.0053369071 
  896000    291.67056    4244.6562        24389    26.894674 0.0086742587 0.0025337687 0.0026769402 
  897000    292.00542    8683.0097        24389    26.731653 0.0056736876 -0.0083319071 0.0024659153 
  898000    298.33848    2638.6456        24389     25.96349 0.00095339723 0.0035596255 0.0086520585 
  899000    297.62126    188.50785        24389    25.636252 -0.0015938282 0.0043842497 0.0074469375 
  900000     294.3969    2645.2337        24389    25.618954 -0.0067786465 -0.0056169374 0.0072467705 
  901000    288.81621    5069.3217        24389    25.236484 -0.0046875294 -0.0070004473 0.00056920451 
  902000    290.69253    4464.6553        24389     25.22163 -0.0038159379 0.0032662639 0.0048655591 
  903000     294.5838    755.78337        24389    25.569957 -0.0029825491 0.0020793006  0.013152082 
  904000     296.1946    2812.0729        24389    25.913079 -0.0058461698 -0.0053243481  0.011390261 
  905000    292.31474    3481.2311        24389    26.366582 -0.0040328037 0.0053858478 -0.011124714 
  906000    289.57542     7533.202        24389    26.672715 -0.0073851334 -0.0024213579 -0.010325101 
  907000    293.65223    3204.2702        24389     26.82015 -0.00091700423 0.0069644392 0.0030187175 
  908000    289.12991    1258.5369        24389    26.996445  0.022156012 -0.0013403882 -0.012005896 
  909000     285.7188    3046.9288        24389     27.70326 0.0065060714 0.0021108389 -0.0073463974 
  910000    290.34175    4548.9347        24389    27.958455 0.0046178712 -0.0079544882 -0.014120261 
  911000    289.55564    3769.4108        24389    27.515261 -0.0015535614 -0.0041908964  -0.00580125 
  912000    289.69454    2324.4555        24389    27.168945 0.0048396288 0.0075268292 -0.0019496525 
  913000    288.08531    3228.7676        24389    26.880227 0.0032935559 0.0022504037 0.0037349268 
  914000    292.15257    6679.4007        24389     26.47697 0.0016280759 -0.0062713457 -0.010711492 
  915000    296.64321    4677.2937        24389    25.718135 0.00052339103 0.0085119112 0.0063979736 
  916000    294.08741   -356.92126        24389    25.485152 0.0085101824 -0.015103304 0.0025279012 
  917000    294.85178    3713.1572        24389    25.841898 0.0020599482 0.0084363227 0.00045226588 
  918000    286.18651    5258.1656        24389    26.330803 -0.00093549196 0.0059831434 -0.0086580674 
  919000    295.59241    5434.1945        24389    26.808785 0.0038256567 -0.015032986  0.011114602 
  920000    288.65129     2280.016        24389    26.425525 -0.0039094735 -0.0035694088  0.015919238 
  921000    288.69889     1160.561        24389    25.903309  0.012539084 0.00043910874 -0.00088462332 
  922000    295.20255    2141.6876        24389    25.486761 -0.003955787 -0.0049241248 0.0014138769 
  923000    295.14869     6304.737        24389    25.130491 -0.00066864309 0.0032139991 -0.011208934 
  924000    288.05447    5135.8725        24389    24.863409 -0.00041806322 0.0045819683 -0.0018976849 
  925000    288.79077     4703.417        24389    25.106213 -0.0095277377 -0.0086902484 0.0031131161 
  926000    291.35366    2883.7489        24389     25.18059 -0.0078228492 0.0035520532 0.0065771894 
  927000    285.75413      2982.34        24389    24.753161 -0.0056668376 -0.012267706 0.0061271536 
  928000    297.08702    6830.9714        24389    24.000829 -0.0077387201 0.0038710378 0.0022640397 
  929000    300.23478    4367.1533        24389    23.646772 -0.010375673 -0.0047079449 -0.0077224401 
  930000    293.73512     784.7212        24389    23.460606 0.0059542362 0.0071665089 0.0030049491 
  931000    292.10773    3503.4162        24389    23.941607 0.0023519964 -0.0054822349 -0.0018992654 
  932000    295.01705    6055.9913        24389     24.47638 0.0068823674 0.0099962331  -0.01254957 
  933000     297.4301    5737.7485        24389    24.945992 -0.0018629653 -0.0022313892 0.0012787328 
  934000    295.31886    3239.9963        24389    25.730182 -0.012844548 -0.0044315127 -0.010007625 
  935000    287.60007    2305.6723        24389    25.851571 0.0029852901 -0.0034899569 -0.0016924148 
  936000    289.06578    3611.4123        24389    26.062301 0.00045116772 0.0070221749 -0.0019319735 
  937000     289.2788    3287.7642        24389    26.306906 -0.011159078 0.0039289617 0.0022647003 
  938000    286.84908    3281.8174        24389    26.381945 0.00056591159 -0.0039158835 -0.0012486211 
  939000    292.12161    3492.1316        24389    26.231727 -0.0056884276 -0.0017664618 0.0099144622 
  940000    289.07113    4813.4488        24389    26.386523 0.0035928046 0.0066562619   0.01072029 
  941000     292.7551     4631.712        24389    27.018316 0.0077922791 -0.0070396196 -0.0015954108 
  942000    297.45869    2685.6562        24389    28.098355  0.015944131 0.0094150677 0.0028337033 
  943000    289.23243    1958.8792        24389    29.109785  0.010988085 -0.015982283 -0.0011661663 
  944000    293.18924    3707.4538        24389    29.653525 -0.0021906422 0.0087193264 0.0064198725 
  945000    287.09555    5611.8885        24389     29.48302 0.0032778713 -0.0012019572 0.0079908186 
  946000    291.67989    4344.8712        24389    28.688802  -0.00186881 0.0013334704 -0.0055732433 
  947000     298.0115    3775.9027        24389    27.957507 0.0042006502 -0.019998126  -0.01630913 
  948000    290.46724    4611.8475        24389    27.067774 -0.0041287698 0.0064594553 0.0039983605 
  949000    288.87995    4977.9795        24389    26.288642 0.0096063207 -0.0061360657 -0.0041386703 
  950000    292.41922    961.40741        24389    25.628536 0.0067908715  0.014116217 -0.014108856 
  951000    289.19814    2262.8912        24389    25.746501 -0.0019383173  0.007422019 0.0007365017 
  952000    297.65418    3929.1471        24389    26.529761 -0.00016497983 -0.0045772749 -0.018601948 
  953000    286.49769     5523.406        24389    27.397185 -0.014775464 -0.00071954272 0.0030769055 
  954000    287.58622    1910.1431        24389    27.937482 -0.00020524174  0.002151063 -0.0023706911 
  955000    288.71308    1191.4417        24389    28.101963  0.005051825 0.0053842667 -0.011505733 
  956000    293.20574    4256.8327        24389    27.669232 0.00064698935 -0.0018652434 -0.0076874983 
  957000    295.37514    4357.4116        24389    26.847537 0.0083976585 -0.002209777 -0.0061677983 
  958000    287.01732    2143.1142        24389    26.122691 -0.0010416071 0.0065318197 -0.0015617122 
  959000    290.57717      3041.43        24389    25.586211 0.0018627882 -0.006526016 -0.0077922666 
  960000    290.55954    4661.2005        24389     26.42365 0.0065259497  0.021863429 -0.00028219168 
  961000    295.49499      4574.95        24389    28.220515 -0.00053626325 0.0023088727 -0.0096598391 
  962000    292.71407    3477.4781        24389    29.964861 -0.0098126548 -0.00074692963  0.014280096 
  963000    298.35904    3228.3534        24389    30.699468 -0.0088020606 -0.0041088647 0.0078901102 
  964000    290.48907    2139.2348        24389    30.378851 -0.0059191139 0.0054684202 -0.00068006722 
  965000    287.89102    2752.1662        24389    29.788176 -0.0011184928 -0.0048388577 0.0084623109 
  966000    288.78963    3870.1247        24389    29.482154 -0.012984563 -0.0046462723 -0.0036396092 
  967000    295.59985    5693.2577        24389    28.859562 -0.0024078458 -0.00078932494 0.0029235164 
  968000    295.54679    7075.0839        24389    28.392703  0.014318261 0.0035384515  0.012370147 
  969000     290.1384    3195.6531        24389    28.203198  -0.01108097 -0.0051657542 0.0045180886 
  970000    280.55919    1335.9659        24389    27.978275 0.00045588243 0.0090846696 0.0071281333 
  971000    292.95879    2767.5327        24389    27.869381 -0.0014977694 0.0012525453  -0.01151549 
  972000    285.13809    4413.5728        24389    27.520453   0.01185785 0.0028424708  0.014247101 
  973000    288.24279    6119.6126        24389    26.953173 0.0066420532 0.0010399894  0.017100044 
  974000    296.74437    5633.5679        24389    26.907394 0.0036749906 0.00066435894 -8.0223486e-05 
  975000    289.92327    3607.6375        24389    27.350979 -0.0032891941 -0.010966219 -0.0048027303 
  976000    297.17932    1325.0104        24389    27.582735 0.0002032675 0.00056158218 -0.0063586076 
  977000     293.3607    3901.4635        24389     27.48872 -0.0013251534  0.010673081 -0.014915664 
  978000    289.22518    4380.8674        24389      27.2405 0.0073213791  0.016048706 -0.0014755102 
  979000    298.09753    5410.3208        24389     26.75233 -0.0021289104  0.011889336 0.0060066876 
  980000    295.84188    4834.1995        24389    26.965494 0.0052303933 0.0003969795 0.0045903344 
  981000    290.47602    1804.0727        24389    26.926565 -0.019982209 -0.0014259228  0.018193007 
  982000    289.32939    2171.3867        24389    26.737457 -0.0026494076 0.00048702921 -0.0042550505 
  983000    288.49031    4391.5667        24389    26.536112 0.00033187999 0.00029905881 0.0047875515 
  984000    284.49731    4431.0286        24389    26.631609 0.0045783765 -0.011115707 0.0041275969 
  985000    288.55978    4190.7518        24389    27.370692 0.0074755879  0.022062239 -0.0071229827 
  986000    290.91251       1959.4        24389    28.107851 -0.0035997222 0.0042002373 -0.0021185101 
  987000    294.22984    1830.9413        24389    28.067413 -0.0032323468 -0.013536593 0.0028858283 
  988000    292.08075    5443.5328        24389    27.741145 0.0093084979 -0.0009389548 0.0011130193 
  989000    292.75886    6118.7624        24389    27.085575 -0.0074372779 -0.0047426057 0.0017131656 
  990000    290.10388    2003.0507        24389    26.138301  -0.01179874  0.015668278 -0.0035914765 
  991000    289.33334    1131.0697        24389    25.446572 0.0076710139 0.0035970525 -0.0040403862 
  992000    294.76489    3786.6948        24389    25.215378 -0.010353533 -0.016031117 -0.0024217758 
  993000    289.93596    6366.5884        24389    25.785724 0.0002475246 -0.010191217 -0.002696716 
  994000    291.28169     5393.401        24389    27.455317 -0.0096413481 -0.0099121402 0.0015898297 
  995000    288.81191    2942.8554        24389    29.171199 0.00031087425 -0.0011071014 0.0039809662 
  996000    289.13031    2025.9517        24389     30.03497 -0.0028775509 0.0031635261 -0.0030713004 
  997000    289.46406     2107.386        24389    30.109189 0.0085804793 0.0019945943 0.0002429415 
  998000    288.25986    5939.9202        24389    29.392472 -0.0032757944 -0.0086993171 0.0042643277 
  999000    292.20581    4426.4246        24389    28.180131 0.0046786909 -0.018857085 -0.0016004931 
 1000000    287.92119    1386.9192        24389    26.774012 -0.014343201 -0.021588867 0.0050579519 
Loop time of 21411.5 on 16 procs for 1000000 steps with 1920 atoms

Pair  time (%) = 18860.8 (88.0874)
Bond  time (%) = 0.500747 (0.00233869)
Neigh time (%) = 42.2714 (0.197424)
Comm  time (%) = 1972.24 (9.21114)
Outpt time (%) = 2.91844 (0.0136303)
Other time (%) = 532.722 (2.48802)

Nlocal:    120 ave 127 max 116 min
Histogram: 2 4 2 3 2 1 0 0 0 2
Nghost:    4896.12 ave 4926 max 4858 min
Histogram: 1 0 3 2 0 2 2 2 1 3
Neighs:    51739.5 ave 54297 max 49882 min
Histogram: 1 2 3 3 2 2 1 0 0 2
FullNghs: 103479 ave 109499 max 99727 min
Histogram: 1 2 5 2 3 1 0 0 0 2

Total # of neighbors = 1655664
Ave neighs/atom = 862.325
Ave special neighs/atom = 0
Neighbor list builds = 4990
Dangerous builds = 0
#	run			10000
	unfix			1
	uncompute		myKE
	uncompute		myPE
	uncompute		myStress
	uncompute		flux
	uncompute		myDis
	unfix			JJ

	next seed
	next iseed
jump lmp.in.gk loop_seed
variable iseed loop 10
variable seed index 11111 22222 33333 44444 55555 66666 77777 88888 99999 11110
clear
###########################################################################
#x0
###########################################################################
units 			metal
atom_style		full
read_data		fort.26
  0 = max bonds/atom
  0 = max angles/atom
  0 = max dihedrals/atom
  triclinic box = (0 0 0) to (29 29 29) with tilt (0 0 0)
  2 by 2 by 4 processor grid
  1920 atoms
  0 bonds
  0 angles
  0 dihedrals
  0 = max # of 1-2 neighbors
  0 = max # of 1-3 neighbors
  0 = max # of 1-4 neighbors
  1 = max # of special neighbors
group         		C type = 1
60 atoms in group C
###########################################################################
#OLPS
###########################################################################

################################################################################
#### Pair potentials
################################################################################
pair_style hybrid/overlay tersoff lj/cut 12.0
pair_coeff * * tersoff C.temp.tersoff 1 2 3 4 5 6 7 8 9 10 11 12 13 14 15 16 17 18 19 20 21 22 23 24 25 26 27 28 29 30 31 32
pair_coeff 1 2 lj/cut 0.00070000000 3.5500000000
pair_coeff 1 3 lj/cut 0.00070000000 3.5500000000
pair_coeff 1 4 lj/cut 0.00070000000 3.5500000000
pair_coeff 1 5 lj/cut 0.00070000000 3.5500000000
pair_coeff 1 6 lj/cut 0.00070000000 3.5500000000
pair_coeff 1 7 lj/cut 0.00070000000 3.5500000000
pair_coeff 1 8 lj/cut 0.00070000000 3.5500000000
pair_coeff 1 9 lj/cut 0.00070000000 3.5500000000
pair_coeff 1 10 lj/cut 0.00070000000 3.5500000000
pair_coeff 1 11 lj/cut 0.00070000000 3.5500000000
pair_coeff 1 12 lj/cut 0.00070000000 3.5500000000
pair_coeff 1 13 lj/cut 0.00070000000 3.5500000000
pair_coeff 1 14 lj/cut 0.00070000000 3.5500000000
pair_coeff 1 15 lj/cut 0.00070000000 3.5500000000
pair_coeff 1 16 lj/cut 0.00070000000 3.5500000000
pair_coeff 1 17 lj/cut 0.00070000000 3.5500000000
pair_coeff 1 18 lj/cut 0.00070000000 3.5500000000
pair_coeff 1 19 lj/cut 0.00070000000 3.5500000000
pair_coeff 1 20 lj/cut 0.00070000000 3.5500000000
pair_coeff 1 21 lj/cut 0.00070000000 3.5500000000
pair_coeff 1 22 lj/cut 0.00070000000 3.5500000000
pair_coeff 1 23 lj/cut 0.00070000000 3.5500000000
pair_coeff 1 24 lj/cut 0.00070000000 3.5500000000
pair_coeff 1 25 lj/cut 0.00070000000 3.5500000000
pair_coeff 1 26 lj/cut 0.00070000000 3.5500000000
pair_coeff 1 27 lj/cut 0.00070000000 3.5500000000
pair_coeff 1 28 lj/cut 0.00070000000 3.5500000000
pair_coeff 1 29 lj/cut 0.00070000000 3.5500000000
pair_coeff 1 30 lj/cut 0.00070000000 3.5500000000
pair_coeff 1 31 lj/cut 0.00070000000 3.5500000000
pair_coeff 1 32 lj/cut 0.00070000000 3.5500000000

pair_coeff 2 3 lj/cut 0.00070000000 3.5500000000
pair_coeff 2 4 lj/cut 0.00070000000 3.5500000000
pair_coeff 2 5 lj/cut 0.00070000000 3.5500000000
pair_coeff 2 6 lj/cut 0.00070000000 3.5500000000
pair_coeff 2 7 lj/cut 0.00070000000 3.5500000000
pair_coeff 2 8 lj/cut 0.00070000000 3.5500000000
pair_coeff 2 9 lj/cut 0.00070000000 3.5500000000
pair_coeff 2 10 lj/cut 0.00070000000 3.5500000000
pair_coeff 2 11 lj/cut 0.00070000000 3.5500000000
pair_coeff 2 12 lj/cut 0.00070000000 3.5500000000
pair_coeff 2 13 lj/cut 0.00070000000 3.5500000000
pair_coeff 2 14 lj/cut 0.00070000000 3.5500000000
pair_coeff 2 15 lj/cut 0.00070000000 3.5500000000
pair_coeff 2 16 lj/cut 0.00070000000 3.5500000000
pair_coeff 2 17 lj/cut 0.00070000000 3.5500000000
pair_coeff 2 18 lj/cut 0.00070000000 3.5500000000
pair_coeff 2 19 lj/cut 0.00070000000 3.5500000000
pair_coeff 2 20 lj/cut 0.00070000000 3.5500000000
pair_coeff 2 21 lj/cut 0.00070000000 3.5500000000
pair_coeff 2 22 lj/cut 0.00070000000 3.5500000000
pair_coeff 2 23 lj/cut 0.00070000000 3.5500000000
pair_coeff 2 24 lj/cut 0.00070000000 3.5500000000
pair_coeff 2 25 lj/cut 0.00070000000 3.5500000000
pair_coeff 2 26 lj/cut 0.00070000000 3.5500000000
pair_coeff 2 27 lj/cut 0.00070000000 3.5500000000
pair_coeff 2 28 lj/cut 0.00070000000 3.5500000000
pair_coeff 2 29 lj/cut 0.00070000000 3.5500000000
pair_coeff 2 30 lj/cut 0.00070000000 3.5500000000
pair_coeff 2 31 lj/cut 0.00070000000 3.5500000000
pair_coeff 2 32 lj/cut 0.00070000000 3.5500000000

pair_coeff 3 4 lj/cut 0.00070000000 3.5500000000
pair_coeff 3 5 lj/cut 0.00070000000 3.5500000000
pair_coeff 3 6 lj/cut 0.00070000000 3.5500000000
pair_coeff 3 7 lj/cut 0.00070000000 3.5500000000
pair_coeff 3 8 lj/cut 0.00070000000 3.5500000000
pair_coeff 3 9 lj/cut 0.00070000000 3.5500000000
pair_coeff 3 10 lj/cut 0.00070000000 3.5500000000
pair_coeff 3 11 lj/cut 0.00070000000 3.5500000000
pair_coeff 3 12 lj/cut 0.00070000000 3.5500000000
pair_coeff 3 13 lj/cut 0.00070000000 3.5500000000
pair_coeff 3 14 lj/cut 0.00070000000 3.5500000000
pair_coeff 3 15 lj/cut 0.00070000000 3.5500000000
pair_coeff 3 16 lj/cut 0.00070000000 3.5500000000
pair_coeff 3 17 lj/cut 0.00070000000 3.5500000000
pair_coeff 3 18 lj/cut 0.00070000000 3.5500000000
pair_coeff 3 19 lj/cut 0.00070000000 3.5500000000
pair_coeff 3 20 lj/cut 0.00070000000 3.5500000000
pair_coeff 3 21 lj/cut 0.00070000000 3.5500000000
pair_coeff 3 22 lj/cut 0.00070000000 3.5500000000
pair_coeff 3 23 lj/cut 0.00070000000 3.5500000000
pair_coeff 3 24 lj/cut 0.00070000000 3.5500000000
pair_coeff 3 25 lj/cut 0.00070000000 3.5500000000
pair_coeff 3 26 lj/cut 0.00070000000 3.5500000000
pair_coeff 3 27 lj/cut 0.00070000000 3.5500000000
pair_coeff 3 28 lj/cut 0.00070000000 3.5500000000
pair_coeff 3 29 lj/cut 0.00070000000 3.5500000000
pair_coeff 3 30 lj/cut 0.00070000000 3.5500000000
pair_coeff 3 31 lj/cut 0.00070000000 3.5500000000
pair_coeff 3 32 lj/cut 0.00070000000 3.5500000000

pair_coeff 4 5 lj/cut 0.00070000000 3.5500000000
pair_coeff 4 6 lj/cut 0.00070000000 3.5500000000
pair_coeff 4 7 lj/cut 0.00070000000 3.5500000000
pair_coeff 4 8 lj/cut 0.00070000000 3.5500000000
pair_coeff 4 9 lj/cut 0.00070000000 3.5500000000
pair_coeff 4 10 lj/cut 0.00070000000 3.5500000000
pair_coeff 4 11 lj/cut 0.00070000000 3.5500000000
pair_coeff 4 12 lj/cut 0.00070000000 3.5500000000
pair_coeff 4 13 lj/cut 0.00070000000 3.5500000000
pair_coeff 4 14 lj/cut 0.00070000000 3.5500000000
pair_coeff 4 15 lj/cut 0.00070000000 3.5500000000
pair_coeff 4 16 lj/cut 0.00070000000 3.5500000000
pair_coeff 4 17 lj/cut 0.00070000000 3.5500000000
pair_coeff 4 18 lj/cut 0.00070000000 3.5500000000
pair_coeff 4 19 lj/cut 0.00070000000 3.5500000000
pair_coeff 4 20 lj/cut 0.00070000000 3.5500000000
pair_coeff 4 21 lj/cut 0.00070000000 3.5500000000
pair_coeff 4 22 lj/cut 0.00070000000 3.5500000000
pair_coeff 4 23 lj/cut 0.00070000000 3.5500000000
pair_coeff 4 24 lj/cut 0.00070000000 3.5500000000
pair_coeff 4 25 lj/cut 0.00070000000 3.5500000000
pair_coeff 4 26 lj/cut 0.00070000000 3.5500000000
pair_coeff 4 27 lj/cut 0.00070000000 3.5500000000
pair_coeff 4 28 lj/cut 0.00070000000 3.5500000000
pair_coeff 4 29 lj/cut 0.00070000000 3.5500000000
pair_coeff 4 30 lj/cut 0.00070000000 3.5500000000
pair_coeff 4 31 lj/cut 0.00070000000 3.5500000000
pair_coeff 4 32 lj/cut 0.00070000000 3.5500000000

pair_coeff 5 6 lj/cut 0.00070000000 3.5500000000
pair_coeff 5 7 lj/cut 0.00070000000 3.5500000000
pair_coeff 5 8 lj/cut 0.00070000000 3.5500000000
pair_coeff 5 9 lj/cut 0.00070000000 3.5500000000
pair_coeff 5 10 lj/cut 0.00070000000 3.5500000000
pair_coeff 5 11 lj/cut 0.00070000000 3.5500000000
pair_coeff 5 12 lj/cut 0.00070000000 3.5500000000
pair_coeff 5 13 lj/cut 0.00070000000 3.5500000000
pair_coeff 5 14 lj/cut 0.00070000000 3.5500000000
pair_coeff 5 15 lj/cut 0.00070000000 3.5500000000
pair_coeff 5 16 lj/cut 0.00070000000 3.5500000000
pair_coeff 5 17 lj/cut 0.00070000000 3.5500000000
pair_coeff 5 18 lj/cut 0.00070000000 3.5500000000
pair_coeff 5 19 lj/cut 0.00070000000 3.5500000000
pair_coeff 5 20 lj/cut 0.00070000000 3.5500000000
pair_coeff 5 21 lj/cut 0.00070000000 3.5500000000
pair_coeff 5 22 lj/cut 0.00070000000 3.5500000000
pair_coeff 5 23 lj/cut 0.00070000000 3.5500000000
pair_coeff 5 24 lj/cut 0.00070000000 3.5500000000
pair_coeff 5 25 lj/cut 0.00070000000 3.5500000000
pair_coeff 5 26 lj/cut 0.00070000000 3.5500000000
pair_coeff 5 27 lj/cut 0.00070000000 3.5500000000
pair_coeff 5 28 lj/cut 0.00070000000 3.5500000000
pair_coeff 5 29 lj/cut 0.00070000000 3.5500000000
pair_coeff 5 30 lj/cut 0.00070000000 3.5500000000
pair_coeff 5 31 lj/cut 0.00070000000 3.5500000000
pair_coeff 5 32 lj/cut 0.00070000000 3.5500000000

pair_coeff 6 7 lj/cut 0.00070000000 3.5500000000
pair_coeff 6 8 lj/cut 0.00070000000 3.5500000000
pair_coeff 6 9 lj/cut 0.00070000000 3.5500000000
pair_coeff 6 10 lj/cut 0.00070000000 3.5500000000
pair_coeff 6 11 lj/cut 0.00070000000 3.5500000000
pair_coeff 6 12 lj/cut 0.00070000000 3.5500000000
pair_coeff 6 13 lj/cut 0.00070000000 3.5500000000
pair_coeff 6 14 lj/cut 0.00070000000 3.5500000000
pair_coeff 6 15 lj/cut 0.00070000000 3.5500000000
pair_coeff 6 16 lj/cut 0.00070000000 3.5500000000
pair_coeff 6 17 lj/cut 0.00070000000 3.5500000000
pair_coeff 6 18 lj/cut 0.00070000000 3.5500000000
pair_coeff 6 19 lj/cut 0.00070000000 3.5500000000
pair_coeff 6 20 lj/cut 0.00070000000 3.5500000000
pair_coeff 6 21 lj/cut 0.00070000000 3.5500000000
pair_coeff 6 22 lj/cut 0.00070000000 3.5500000000
pair_coeff 6 23 lj/cut 0.00070000000 3.5500000000
pair_coeff 6 24 lj/cut 0.00070000000 3.5500000000
pair_coeff 6 25 lj/cut 0.00070000000 3.5500000000
pair_coeff 6 26 lj/cut 0.00070000000 3.5500000000
pair_coeff 6 27 lj/cut 0.00070000000 3.5500000000
pair_coeff 6 28 lj/cut 0.00070000000 3.5500000000
pair_coeff 6 29 lj/cut 0.00070000000 3.5500000000
pair_coeff 6 30 lj/cut 0.00070000000 3.5500000000
pair_coeff 6 31 lj/cut 0.00070000000 3.5500000000
pair_coeff 6 32 lj/cut 0.00070000000 3.5500000000

pair_coeff 7 8 lj/cut 0.00070000000 3.5500000000
pair_coeff 7 9 lj/cut 0.00070000000 3.5500000000
pair_coeff 7 10 lj/cut 0.00070000000 3.5500000000
pair_coeff 7 11 lj/cut 0.00070000000 3.5500000000
pair_coeff 7 12 lj/cut 0.00070000000 3.5500000000
pair_coeff 7 13 lj/cut 0.00070000000 3.5500000000
pair_coeff 7 14 lj/cut 0.00070000000 3.5500000000
pair_coeff 7 15 lj/cut 0.00070000000 3.5500000000
pair_coeff 7 16 lj/cut 0.00070000000 3.5500000000
pair_coeff 7 17 lj/cut 0.00070000000 3.5500000000
pair_coeff 7 18 lj/cut 0.00070000000 3.5500000000
pair_coeff 7 19 lj/cut 0.00070000000 3.5500000000
pair_coeff 7 20 lj/cut 0.00070000000 3.5500000000
pair_coeff 7 21 lj/cut 0.00070000000 3.5500000000
pair_coeff 7 22 lj/cut 0.00070000000 3.5500000000
pair_coeff 7 23 lj/cut 0.00070000000 3.5500000000
pair_coeff 7 24 lj/cut 0.00070000000 3.5500000000
pair_coeff 7 25 lj/cut 0.00070000000 3.5500000000
pair_coeff 7 26 lj/cut 0.00070000000 3.5500000000
pair_coeff 7 27 lj/cut 0.00070000000 3.5500000000
pair_coeff 7 28 lj/cut 0.00070000000 3.5500000000
pair_coeff 7 29 lj/cut 0.00070000000 3.5500000000
pair_coeff 7 30 lj/cut 0.00070000000 3.5500000000
pair_coeff 7 31 lj/cut 0.00070000000 3.5500000000
pair_coeff 7 32 lj/cut 0.00070000000 3.5500000000

pair_coeff 8 9 lj/cut 0.00070000000 3.5500000000
pair_coeff 8 10 lj/cut 0.00070000000 3.5500000000
pair_coeff 8 11 lj/cut 0.00070000000 3.5500000000
pair_coeff 8 12 lj/cut 0.00070000000 3.5500000000
pair_coeff 8 13 lj/cut 0.00070000000 3.5500000000
pair_coeff 8 14 lj/cut 0.00070000000 3.5500000000
pair_coeff 8 15 lj/cut 0.00070000000 3.5500000000
pair_coeff 8 16 lj/cut 0.00070000000 3.5500000000
pair_coeff 8 17 lj/cut 0.00070000000 3.5500000000
pair_coeff 8 18 lj/cut 0.00070000000 3.5500000000
pair_coeff 8 19 lj/cut 0.00070000000 3.5500000000
pair_coeff 8 20 lj/cut 0.00070000000 3.5500000000
pair_coeff 8 21 lj/cut 0.00070000000 3.5500000000
pair_coeff 8 22 lj/cut 0.00070000000 3.5500000000
pair_coeff 8 23 lj/cut 0.00070000000 3.5500000000
pair_coeff 8 24 lj/cut 0.00070000000 3.5500000000
pair_coeff 8 25 lj/cut 0.00070000000 3.5500000000
pair_coeff 8 26 lj/cut 0.00070000000 3.5500000000
pair_coeff 8 27 lj/cut 0.00070000000 3.5500000000
pair_coeff 8 28 lj/cut 0.00070000000 3.5500000000
pair_coeff 8 29 lj/cut 0.00070000000 3.5500000000
pair_coeff 8 30 lj/cut 0.00070000000 3.5500000000
pair_coeff 8 31 lj/cut 0.00070000000 3.5500000000
pair_coeff 8 32 lj/cut 0.00070000000 3.5500000000

pair_coeff 9 10 lj/cut 0.00070000000 3.5500000000
pair_coeff 9 11 lj/cut 0.00070000000 3.5500000000
pair_coeff 9 12 lj/cut 0.00070000000 3.5500000000
pair_coeff 9 13 lj/cut 0.00070000000 3.5500000000
pair_coeff 9 14 lj/cut 0.00070000000 3.5500000000
pair_coeff 9 15 lj/cut 0.00070000000 3.5500000000
pair_coeff 9 16 lj/cut 0.00070000000 3.5500000000
pair_coeff 9 17 lj/cut 0.00070000000 3.5500000000
pair_coeff 9 18 lj/cut 0.00070000000 3.5500000000
pair_coeff 9 19 lj/cut 0.00070000000 3.5500000000
pair_coeff 9 20 lj/cut 0.00070000000 3.5500000000
pair_coeff 9 21 lj/cut 0.00070000000 3.5500000000
pair_coeff 9 22 lj/cut 0.00070000000 3.5500000000
pair_coeff 9 23 lj/cut 0.00070000000 3.5500000000
pair_coeff 9 24 lj/cut 0.00070000000 3.5500000000
pair_coeff 9 25 lj/cut 0.00070000000 3.5500000000
pair_coeff 9 26 lj/cut 0.00070000000 3.5500000000
pair_coeff 9 27 lj/cut 0.00070000000 3.5500000000
pair_coeff 9 28 lj/cut 0.00070000000 3.5500000000
pair_coeff 9 29 lj/cut 0.00070000000 3.5500000000
pair_coeff 9 30 lj/cut 0.00070000000 3.5500000000
pair_coeff 9 31 lj/cut 0.00070000000 3.5500000000
pair_coeff 9 32 lj/cut 0.00070000000 3.5500000000

pair_coeff 10 11 lj/cut 0.00070000000 3.5500000000
pair_coeff 10 12 lj/cut 0.00070000000 3.5500000000
pair_coeff 10 13 lj/cut 0.00070000000 3.5500000000
pair_coeff 10 14 lj/cut 0.00070000000 3.5500000000
pair_coeff 10 15 lj/cut 0.00070000000 3.5500000000
pair_coeff 10 16 lj/cut 0.00070000000 3.5500000000
pair_coeff 10 17 lj/cut 0.00070000000 3.5500000000
pair_coeff 10 18 lj/cut 0.00070000000 3.5500000000
pair_coeff 10 19 lj/cut 0.00070000000 3.5500000000
pair_coeff 10 20 lj/cut 0.00070000000 3.5500000000
pair_coeff 10 21 lj/cut 0.00070000000 3.5500000000
pair_coeff 10 22 lj/cut 0.00070000000 3.5500000000
pair_coeff 10 23 lj/cut 0.00070000000 3.5500000000
pair_coeff 10 24 lj/cut 0.00070000000 3.5500000000
pair_coeff 10 25 lj/cut 0.00070000000 3.5500000000
pair_coeff 10 26 lj/cut 0.00070000000 3.5500000000
pair_coeff 10 27 lj/cut 0.00070000000 3.5500000000
pair_coeff 10 28 lj/cut 0.00070000000 3.5500000000
pair_coeff 10 29 lj/cut 0.00070000000 3.5500000000
pair_coeff 10 30 lj/cut 0.00070000000 3.5500000000
pair_coeff 10 31 lj/cut 0.00070000000 3.5500000000
pair_coeff 10 32 lj/cut 0.00070000000 3.5500000000

pair_coeff 11 12 lj/cut 0.00070000000 3.5500000000
pair_coeff 11 13 lj/cut 0.00070000000 3.5500000000
pair_coeff 11 14 lj/cut 0.00070000000 3.5500000000
pair_coeff 11 15 lj/cut 0.00070000000 3.5500000000
pair_coeff 11 16 lj/cut 0.00070000000 3.5500000000
pair_coeff 11 17 lj/cut 0.00070000000 3.5500000000
pair_coeff 11 18 lj/cut 0.00070000000 3.5500000000
pair_coeff 11 19 lj/cut 0.00070000000 3.5500000000
pair_coeff 11 20 lj/cut 0.00070000000 3.5500000000
pair_coeff 11 21 lj/cut 0.00070000000 3.5500000000
pair_coeff 11 22 lj/cut 0.00070000000 3.5500000000
pair_coeff 11 23 lj/cut 0.00070000000 3.5500000000
pair_coeff 11 24 lj/cut 0.00070000000 3.5500000000
pair_coeff 11 25 lj/cut 0.00070000000 3.5500000000
pair_coeff 11 26 lj/cut 0.00070000000 3.5500000000
pair_coeff 11 27 lj/cut 0.00070000000 3.5500000000
pair_coeff 11 28 lj/cut 0.00070000000 3.5500000000
pair_coeff 11 29 lj/cut 0.00070000000 3.5500000000
pair_coeff 11 30 lj/cut 0.00070000000 3.5500000000
pair_coeff 11 31 lj/cut 0.00070000000 3.5500000000
pair_coeff 11 32 lj/cut 0.00070000000 3.5500000000

pair_coeff 12 13 lj/cut 0.00070000000 3.5500000000
pair_coeff 12 14 lj/cut 0.00070000000 3.5500000000
pair_coeff 12 15 lj/cut 0.00070000000 3.5500000000
pair_coeff 12 16 lj/cut 0.00070000000 3.5500000000
pair_coeff 12 17 lj/cut 0.00070000000 3.5500000000
pair_coeff 12 18 lj/cut 0.00070000000 3.5500000000
pair_coeff 12 19 lj/cut 0.00070000000 3.5500000000
pair_coeff 12 20 lj/cut 0.00070000000 3.5500000000
pair_coeff 12 21 lj/cut 0.00070000000 3.5500000000
pair_coeff 12 22 lj/cut 0.00070000000 3.5500000000
pair_coeff 12 23 lj/cut 0.00070000000 3.5500000000
pair_coeff 12 24 lj/cut 0.00070000000 3.5500000000
pair_coeff 12 25 lj/cut 0.00070000000 3.5500000000
pair_coeff 12 26 lj/cut 0.00070000000 3.5500000000
pair_coeff 12 27 lj/cut 0.00070000000 3.5500000000
pair_coeff 12 28 lj/cut 0.00070000000 3.5500000000
pair_coeff 12 29 lj/cut 0.00070000000 3.5500000000
pair_coeff 12 30 lj/cut 0.00070000000 3.5500000000
pair_coeff 12 31 lj/cut 0.00070000000 3.5500000000
pair_coeff 12 32 lj/cut 0.00070000000 3.5500000000

pair_coeff 13 14 lj/cut 0.00070000000 3.5500000000
pair_coeff 13 15 lj/cut 0.00070000000 3.5500000000
pair_coeff 13 16 lj/cut 0.00070000000 3.5500000000
pair_coeff 13 17 lj/cut 0.00070000000 3.5500000000
pair_coeff 13 18 lj/cut 0.00070000000 3.5500000000
pair_coeff 13 19 lj/cut 0.00070000000 3.5500000000
pair_coeff 13 20 lj/cut 0.00070000000 3.5500000000
pair_coeff 13 21 lj/cut 0.00070000000 3.5500000000
pair_coeff 13 22 lj/cut 0.00070000000 3.5500000000
pair_coeff 13 23 lj/cut 0.00070000000 3.5500000000
pair_coeff 13 24 lj/cut 0.00070000000 3.5500000000
pair_coeff 13 25 lj/cut 0.00070000000 3.5500000000
pair_coeff 13 26 lj/cut 0.00070000000 3.5500000000
pair_coeff 13 27 lj/cut 0.00070000000 3.5500000000
pair_coeff 13 28 lj/cut 0.00070000000 3.5500000000
pair_coeff 13 29 lj/cut 0.00070000000 3.5500000000
pair_coeff 13 30 lj/cut 0.00070000000 3.5500000000
pair_coeff 13 31 lj/cut 0.00070000000 3.5500000000
pair_coeff 13 32 lj/cut 0.00070000000 3.5500000000

pair_coeff 14 15 lj/cut 0.00070000000 3.5500000000
pair_coeff 14 16 lj/cut 0.00070000000 3.5500000000
pair_coeff 14 17 lj/cut 0.00070000000 3.5500000000
pair_coeff 14 18 lj/cut 0.00070000000 3.5500000000
pair_coeff 14 19 lj/cut 0.00070000000 3.5500000000
pair_coeff 14 20 lj/cut 0.00070000000 3.5500000000
pair_coeff 14 21 lj/cut 0.00070000000 3.5500000000
pair_coeff 14 22 lj/cut 0.00070000000 3.5500000000
pair_coeff 14 23 lj/cut 0.00070000000 3.5500000000
pair_coeff 14 24 lj/cut 0.00070000000 3.5500000000
pair_coeff 14 25 lj/cut 0.00070000000 3.5500000000
pair_coeff 14 26 lj/cut 0.00070000000 3.5500000000
pair_coeff 14 27 lj/cut 0.00070000000 3.5500000000
pair_coeff 14 28 lj/cut 0.00070000000 3.5500000000
pair_coeff 14 29 lj/cut 0.00070000000 3.5500000000
pair_coeff 14 30 lj/cut 0.00070000000 3.5500000000
pair_coeff 14 31 lj/cut 0.00070000000 3.5500000000
pair_coeff 14 32 lj/cut 0.00070000000 3.5500000000

pair_coeff 15 16 lj/cut 0.00070000000 3.5500000000
pair_coeff 15 17 lj/cut 0.00070000000 3.5500000000
pair_coeff 15 18 lj/cut 0.00070000000 3.5500000000
pair_coeff 15 19 lj/cut 0.00070000000 3.5500000000
pair_coeff 15 20 lj/cut 0.00070000000 3.5500000000
pair_coeff 15 21 lj/cut 0.00070000000 3.5500000000
pair_coeff 15 22 lj/cut 0.00070000000 3.5500000000
pair_coeff 15 23 lj/cut 0.00070000000 3.5500000000
pair_coeff 15 24 lj/cut 0.00070000000 3.5500000000
pair_coeff 15 25 lj/cut 0.00070000000 3.5500000000
pair_coeff 15 26 lj/cut 0.00070000000 3.5500000000
pair_coeff 15 27 lj/cut 0.00070000000 3.5500000000
pair_coeff 15 28 lj/cut 0.00070000000 3.5500000000
pair_coeff 15 29 lj/cut 0.00070000000 3.5500000000
pair_coeff 15 30 lj/cut 0.00070000000 3.5500000000
pair_coeff 15 31 lj/cut 0.00070000000 3.5500000000
pair_coeff 15 32 lj/cut 0.00070000000 3.5500000000

pair_coeff 16 17 lj/cut 0.00070000000 3.5500000000
pair_coeff 16 18 lj/cut 0.00070000000 3.5500000000
pair_coeff 16 19 lj/cut 0.00070000000 3.5500000000
pair_coeff 16 20 lj/cut 0.00070000000 3.5500000000
pair_coeff 16 21 lj/cut 0.00070000000 3.5500000000
pair_coeff 16 22 lj/cut 0.00070000000 3.5500000000
pair_coeff 16 23 lj/cut 0.00070000000 3.5500000000
pair_coeff 16 24 lj/cut 0.00070000000 3.5500000000
pair_coeff 16 25 lj/cut 0.00070000000 3.5500000000
pair_coeff 16 26 lj/cut 0.00070000000 3.5500000000
pair_coeff 16 27 lj/cut 0.00070000000 3.5500000000
pair_coeff 16 28 lj/cut 0.00070000000 3.5500000000
pair_coeff 16 29 lj/cut 0.00070000000 3.5500000000
pair_coeff 16 30 lj/cut 0.00070000000 3.5500000000
pair_coeff 16 31 lj/cut 0.00070000000 3.5500000000
pair_coeff 16 32 lj/cut 0.00070000000 3.5500000000

pair_coeff 17 18 lj/cut 0.00070000000 3.5500000000
pair_coeff 17 19 lj/cut 0.00070000000 3.5500000000
pair_coeff 17 20 lj/cut 0.00070000000 3.5500000000
pair_coeff 17 21 lj/cut 0.00070000000 3.5500000000
pair_coeff 17 22 lj/cut 0.00070000000 3.5500000000
pair_coeff 17 23 lj/cut 0.00070000000 3.5500000000
pair_coeff 17 24 lj/cut 0.00070000000 3.5500000000
pair_coeff 17 25 lj/cut 0.00070000000 3.5500000000
pair_coeff 17 26 lj/cut 0.00070000000 3.5500000000
pair_coeff 17 27 lj/cut 0.00070000000 3.5500000000
pair_coeff 17 28 lj/cut 0.00070000000 3.5500000000
pair_coeff 17 29 lj/cut 0.00070000000 3.5500000000
pair_coeff 17 30 lj/cut 0.00070000000 3.5500000000
pair_coeff 17 31 lj/cut 0.00070000000 3.5500000000
pair_coeff 17 32 lj/cut 0.00070000000 3.5500000000

pair_coeff 18 19 lj/cut 0.00070000000 3.5500000000
pair_coeff 18 20 lj/cut 0.00070000000 3.5500000000
pair_coeff 18 21 lj/cut 0.00070000000 3.5500000000
pair_coeff 18 22 lj/cut 0.00070000000 3.5500000000
pair_coeff 18 23 lj/cut 0.00070000000 3.5500000000
pair_coeff 18 24 lj/cut 0.00070000000 3.5500000000
pair_coeff 18 25 lj/cut 0.00070000000 3.5500000000
pair_coeff 18 26 lj/cut 0.00070000000 3.5500000000
pair_coeff 18 27 lj/cut 0.00070000000 3.5500000000
pair_coeff 18 28 lj/cut 0.00070000000 3.5500000000
pair_coeff 18 29 lj/cut 0.00070000000 3.5500000000
pair_coeff 18 30 lj/cut 0.00070000000 3.5500000000
pair_coeff 18 31 lj/cut 0.00070000000 3.5500000000
pair_coeff 18 32 lj/cut 0.00070000000 3.5500000000

pair_coeff 19 20 lj/cut 0.00070000000 3.5500000000
pair_coeff 19 21 lj/cut 0.00070000000 3.5500000000
pair_coeff 19 22 lj/cut 0.00070000000 3.5500000000
pair_coeff 19 23 lj/cut 0.00070000000 3.5500000000
pair_coeff 19 24 lj/cut 0.00070000000 3.5500000000
pair_coeff 19 25 lj/cut 0.00070000000 3.5500000000
pair_coeff 19 26 lj/cut 0.00070000000 3.5500000000
pair_coeff 19 27 lj/cut 0.00070000000 3.5500000000
pair_coeff 19 28 lj/cut 0.00070000000 3.5500000000
pair_coeff 19 29 lj/cut 0.00070000000 3.5500000000
pair_coeff 19 30 lj/cut 0.00070000000 3.5500000000
pair_coeff 19 31 lj/cut 0.00070000000 3.5500000000
pair_coeff 19 32 lj/cut 0.00070000000 3.5500000000

pair_coeff 20 21 lj/cut 0.00070000000 3.5500000000
pair_coeff 20 22 lj/cut 0.00070000000 3.5500000000
pair_coeff 20 23 lj/cut 0.00070000000 3.5500000000
pair_coeff 20 24 lj/cut 0.00070000000 3.5500000000
pair_coeff 20 25 lj/cut 0.00070000000 3.5500000000
pair_coeff 20 26 lj/cut 0.00070000000 3.5500000000
pair_coeff 20 27 lj/cut 0.00070000000 3.5500000000
pair_coeff 20 28 lj/cut 0.00070000000 3.5500000000
pair_coeff 20 29 lj/cut 0.00070000000 3.5500000000
pair_coeff 20 30 lj/cut 0.00070000000 3.5500000000
pair_coeff 20 31 lj/cut 0.00070000000 3.5500000000
pair_coeff 20 32 lj/cut 0.00070000000 3.5500000000

pair_coeff 21 22 lj/cut 0.00070000000 3.5500000000
pair_coeff 21 23 lj/cut 0.00070000000 3.5500000000
pair_coeff 21 24 lj/cut 0.00070000000 3.5500000000
pair_coeff 21 25 lj/cut 0.00070000000 3.5500000000
pair_coeff 21 26 lj/cut 0.00070000000 3.5500000000
pair_coeff 21 27 lj/cut 0.00070000000 3.5500000000
pair_coeff 21 28 lj/cut 0.00070000000 3.5500000000
pair_coeff 21 29 lj/cut 0.00070000000 3.5500000000
pair_coeff 21 30 lj/cut 0.00070000000 3.5500000000
pair_coeff 21 31 lj/cut 0.00070000000 3.5500000000
pair_coeff 21 32 lj/cut 0.00070000000 3.5500000000

pair_coeff 22 23 lj/cut 0.00070000000 3.5500000000
pair_coeff 22 24 lj/cut 0.00070000000 3.5500000000
pair_coeff 22 25 lj/cut 0.00070000000 3.5500000000
pair_coeff 22 26 lj/cut 0.00070000000 3.5500000000
pair_coeff 22 27 lj/cut 0.00070000000 3.5500000000
pair_coeff 22 28 lj/cut 0.00070000000 3.5500000000
pair_coeff 22 29 lj/cut 0.00070000000 3.5500000000
pair_coeff 22 30 lj/cut 0.00070000000 3.5500000000
pair_coeff 22 31 lj/cut 0.00070000000 3.5500000000
pair_coeff 22 32 lj/cut 0.00070000000 3.5500000000

pair_coeff 23 24 lj/cut 0.00070000000 3.5500000000
pair_coeff 23 25 lj/cut 0.00070000000 3.5500000000
pair_coeff 23 26 lj/cut 0.00070000000 3.5500000000
pair_coeff 23 27 lj/cut 0.00070000000 3.5500000000
pair_coeff 23 28 lj/cut 0.00070000000 3.5500000000
pair_coeff 23 29 lj/cut 0.00070000000 3.5500000000
pair_coeff 23 30 lj/cut 0.00070000000 3.5500000000
pair_coeff 23 31 lj/cut 0.00070000000 3.5500000000
pair_coeff 23 32 lj/cut 0.00070000000 3.5500000000

pair_coeff 24 25 lj/cut 0.00070000000 3.5500000000
pair_coeff 24 26 lj/cut 0.00070000000 3.5500000000
pair_coeff 24 27 lj/cut 0.00070000000 3.5500000000
pair_coeff 24 28 lj/cut 0.00070000000 3.5500000000
pair_coeff 24 29 lj/cut 0.00070000000 3.5500000000
pair_coeff 24 30 lj/cut 0.00070000000 3.5500000000
pair_coeff 24 31 lj/cut 0.00070000000 3.5500000000
pair_coeff 24 32 lj/cut 0.00070000000 3.5500000000

pair_coeff 25 26 lj/cut 0.00070000000 3.5500000000
pair_coeff 25 27 lj/cut 0.00070000000 3.5500000000
pair_coeff 25 28 lj/cut 0.00070000000 3.5500000000
pair_coeff 25 29 lj/cut 0.00070000000 3.5500000000
pair_coeff 25 30 lj/cut 0.00070000000 3.5500000000
pair_coeff 25 31 lj/cut 0.00070000000 3.5500000000
pair_coeff 25 32 lj/cut 0.00070000000 3.5500000000

pair_coeff 26 27 lj/cut 0.00070000000 3.5500000000
pair_coeff 26 28 lj/cut 0.00070000000 3.5500000000
pair_coeff 26 29 lj/cut 0.00070000000 3.5500000000
pair_coeff 26 30 lj/cut 0.00070000000 3.5500000000
pair_coeff 26 31 lj/cut 0.00070000000 3.5500000000
pair_coeff 26 32 lj/cut 0.00070000000 3.5500000000

pair_coeff 27 28 lj/cut 0.00070000000 3.5500000000
pair_coeff 27 29 lj/cut 0.00070000000 3.5500000000
pair_coeff 27 30 lj/cut 0.00070000000 3.5500000000
pair_coeff 27 31 lj/cut 0.00070000000 3.5500000000
pair_coeff 27 32 lj/cut 0.00070000000 3.5500000000

pair_coeff 28 29 lj/cut 0.00070000000 3.5500000000
pair_coeff 28 30 lj/cut 0.00070000000 3.5500000000
pair_coeff 28 31 lj/cut 0.00070000000 3.5500000000
pair_coeff 28 32 lj/cut 0.00070000000 3.5500000000

pair_coeff 29 30 lj/cut 0.00070000000 3.5500000000
pair_coeff 29 31 lj/cut 0.00070000000 3.5500000000
pair_coeff 29 32 lj/cut 0.00070000000 3.5500000000

pair_coeff 30 31 lj/cut 0.00070000000 3.5500000000
pair_coeff 30 32 lj/cut 0.00070000000 3.5500000000

pair_coeff 31 32 lj/cut 0.00070000000 3.5500000000

special_bonds lj 0.0 0.0 0.0 coul 0.0 0.0 0.0

#pair_style tersoff 
#pair_coeff * * C.4.tersoff 1 2 3 4

#pair_style lj/cut 12.0
#pair_coeff 1 1 0.0700000000 3.5500000000
#special_bonds lj 0.0 0.0 0.0 coul 0.0 0.0 0.0
###########################################################################


#--------------------------------------------------------------------------
#variables
#--------------------------------------------------------------------------
variable   	dt 		equal 0.001
#--------------------------------------------------------------------------
#kappa parameters
#--------------------------------------------------------------------------
variable    	p 		equal 100000 	# correlation length
variable    	s 		equal 10  	# sample interval
variable    	d 		equal $p*$s 	# dump interval 
variable    	d 		equal 100000*$s 	variable    	d 		equal 100000*10 	
#--------------------------------------------------------------------------
variable 	T_run 		equal 300
#--------------------------------------------------------------------------

log 	log_heat_${iseed}.lammps
log 	log_heat_6.lammps
