	reset_timestep  	0
	fix 			1 all nve
	compute   		myKE all ke/atom
	compute   		myPE all pe/atom
	compute   		myStress all stress/atom virial
	compute   		flux all heat/flux myKE myPE myStress
	variable  		Jx equal c_flux[1]/vol
	variable  		Jy equal c_flux[2]/vol
	variable  		Jz equal c_flux[3]/vol
	fix       		JJ all ave/correlate $s $p $d c_flux[1] c_flux[2] c_flux[3] type auto file J0Jt_${iseed}.dat ave running
	fix       		JJ all ave/correlate 10 $p $d c_flux[1] c_flux[2] c_flux[3] type auto file J0Jt_${iseed}.dat ave running
	fix       		JJ all ave/correlate 10 100000 $d c_flux[1] c_flux[2] c_flux[3] type auto file J0Jt_${iseed}.dat ave running
	fix       		JJ all ave/correlate 10 100000 1000000 c_flux[1] c_flux[2] c_flux[3] type auto file J0Jt_${iseed}.dat ave running
	fix       		JJ all ave/correlate 10 100000 1000000 c_flux[1] c_flux[2] c_flux[3] type auto file J0Jt_6.dat ave running
	compute 		myDis all msd 
	thermo_style 		custom step temp press vol c_myDis[4] v_Jx v_Jy v_Jz 
	thermo			1000
	timestep		${dt}
	timestep		0.001
	run			1000000
Memory usage per processor = 6.2488 Mbytes
Step Temp Press Volume myDis[4] Jx Jy Jz 
       0    298.81363    3846.9855        24389 1.1188842e-30 -0.0092968917 -0.0010539241 -0.0037593317 
    1000    303.17919    3862.0486        24389     3.721689 0.0035473334  0.017185181 0.0030201401 
    2000    300.51423    5983.4791        24389    10.905763 -0.0082100415 -0.0048046566 0.0085165997 
    3000    299.64093     4945.846        24389    17.647982 -0.0086353604 0.0038421498 0.0054182298 
    4000    301.89047    4286.2576        24389    21.049972 -0.0059146224 -0.0034973663 -0.00089696517 
    5000    303.58756    9234.1508        24389    21.553806 -0.0071782856 -0.0038458663 0.0033092481 
    6000    294.23623     5033.439        24389     21.51402 0.0011189796 -0.0063725217 -0.021174939 
    7000    296.63419    3684.7771        24389    21.537444 -0.0046422139 -0.00079681252 -0.0079292847 
    8000    306.74698    5239.5286        24389    22.915023 -0.0027122079 0.0041026166 0.0011540897 
    9000    297.81793    6891.1786        24389    24.480139 0.0081833236 0.0052703833 0.0023617118 
   10000     301.5269    4316.2034        24389    25.102562 -0.004773118 0.0062102762 -0.012232748 
   11000    300.01065    3734.4782        24389    25.276931  0.016922061  0.004980217  -0.01084541 
   12000    298.01614    6853.1383        24389    25.353365 0.0055577991 -0.0038887276 -0.0014000855 
   13000    301.41078    4786.8003        24389    24.927088  0.017571261 0.0077161299 -0.012473668 
   14000    304.68551    5336.4157        24389    24.945704 0.0041605994  0.013371171 -0.011474765 
   15000     303.6953    4199.3672        24389    25.612819 0.0042932256 -0.0048380994 -0.013655383 
   16000    303.95995    4668.5937        24389    26.584931  0.013611923  0.016018375 0.0064978303 
   17000    308.06938    3346.7292        24389    26.898716 -0.017577931 -0.0020865309 -0.0044791038 
   18000     297.5348    4741.0437        24389    26.236582 -0.010201248 0.0044094308 -0.0065315077 
   19000    298.87382    6942.4623        24389    25.355264 0.0052197728 0.0063234847  0.008915034 
   20000    301.32304    5971.3434        24389    25.611888 -0.00048377969 -0.0010556864 0.00078091761 
   21000    297.39867    2938.3286        24389    26.282167 0.0079216408 -0.0078227944 -0.011972809 
   22000    302.02391    3544.0431        24389    26.278274 -0.0095229719  0.010505241 -0.0080269881 
   23000    304.46069    5683.9605        24389    26.145324  -0.01143057 -0.0049991747  0.005852819 
   24000    305.87772     5044.224        24389    26.426798 -0.015017527 0.00090291786 0.0053868652 
   25000    300.73773    4689.6417        24389    27.699083  -0.01080916 -0.0065994691  0.017437583 
   26000    292.45782    3941.3206        24389    28.891612 -0.0067160485 -0.003493637 0.0059000152 
   27000    293.55787    5914.8951        24389    29.878793 0.0023789544 -0.017453444 -0.0030773079 
   28000    290.86807    7285.2356        24389     29.44323  0.022345002 -0.011295325 -0.0060883959 
   29000    302.07646    5032.3865        24389    29.056172 -0.0076764267 -0.010744318 -0.0024786334 
   30000    302.26508    4979.8497        24389    28.220977 0.0026150526 -0.0027746641 -0.018187601 
   31000    302.88448    4780.4489        24389    27.480006 0.0011908594  0.011532348 -0.0074036521 
   32000    298.08626    5515.5654        24389    27.404774 0.0053222794 -0.0010261176 -0.015067593 
   33000    298.68456    5240.6602        24389     27.14116 0.0060801075 -0.0031265341 -0.0035417692 
   34000    301.71264     8676.584        24389    27.616556  0.011465164 0.00094913602  0.014486471 
   35000    300.27441    5864.7185        24389    28.675457  -0.01148737 -0.0046267409 -0.0083584454 
   36000    297.35875     3870.429        24389    29.260558 0.0019924146 0.00033936204 -0.0016895276 
   37000    301.58147    4704.0964        24389    29.490081 -0.012395234  0.018994541 -0.0061507692 
   38000    305.92469     6701.194        24389    29.248099    0.0139687 -0.012238961 -0.011235071 
   39000    296.41322    6560.3498        24389    28.848626 -0.009669173 -0.0056544652 0.0044167979 
   40000     307.0932    875.75767        24389    28.216818 0.0070477832 -0.015920285 0.0050262125 
   41000    300.31606    4802.8887        24389    27.549778 0.00032146042 -0.0069608658 0.0074101142 
   42000    296.51535    5437.2732        24389    26.761712 -0.0041008467 -0.00095508751 0.0061168188 
   43000    296.95744    1495.8307        24389    25.920515 0.0045216944 0.0048697545 -0.004529301 
   44000    302.27873     6774.973        24389     25.96715 0.0029477051 0.0023309392 0.0062237838 
   45000    305.17379    6181.9528        24389    26.574388 -0.00096359808 -0.0085969084 -0.012510452 
   46000    303.13135    2702.9635        24389     26.93466 0.0069407323 0.0072873992 -0.0090037985 
   47000    301.40276    4204.9717        24389    27.544761 -0.005470724 0.0080290759 0.0070804207 
   48000    292.47661    7029.0134        24389    26.958735 -0.0096482206 -0.0052069475 0.0057106306 
   49000    294.09004    6860.7053        24389    26.206939 -0.0011178647 0.0049032277 0.0042822895 
   50000     290.4763    6661.1979        24389    26.484324  0.011584584 0.0065086497 0.0051514346 
   51000    296.79003    5729.0156        24389    27.718904 -0.0016819816 0.0046412462 0.0016822716 
   52000    305.22217    5488.5029        24389    28.881465  0.010323232 -0.0050261626 0.0013575655 
   53000    298.85615    3783.5186        24389    28.431834 -0.0090709269  0.002316466 0.0075723015 
   54000    296.51311    6014.6285        24389    27.380264 0.0018028951 0.00038392551 -0.0090346494 
   55000    297.15359    5420.2528        24389    26.998887 -0.003800208 0.0077981986 0.0055850879 
   56000    293.39908    6117.7664        24389    27.434231 -0.016219896 -0.011223343 -0.006959355 
   57000    299.06242    3713.8976        24389    28.076084 -0.017530097 -0.00065578821 -0.0086732119 
   58000    301.19157    3600.3545        24389    28.587384 0.0059454846 -0.0031484131 -0.018150498 
   59000    297.96881    7790.2793        24389    28.595869 0.0016133784  0.011249503 0.0021357115 
   60000    297.20757    5176.3729        24389    28.178993 0.0006979622 -0.0044724781 -0.0040297531 
   61000    300.17333    3489.7233        24389    27.880037 -0.0031880663 -0.010774041 -0.0077223725 
   62000    302.48985    4001.3274        24389    28.950105 -0.012187272 -0.011581515 0.0013032252 
   63000    301.85422    6522.5094        24389    29.826433  0.010733228  0.001216462 0.00017827951 
   64000    307.32415    3280.4814        24389    29.704112 -0.0049384152  0.013613732 0.0048352317 
   65000    308.18585    6384.5733        24389    29.364129 0.0044951069 0.0044374425 0.0010754282 
   66000    297.00628     2886.791        24389    28.943931 0.0048367668 0.0067966967 0.0013261731 
   67000    297.30068    2488.1785        24389    28.928125 0.0018235182 0.0063315241 -0.0010926623 
   68000    291.70973    5845.5294        24389    29.066667 0.00041399541 0.0093115318 -0.017674779 
   69000    300.42445    5849.6673        24389    29.719384 -0.0079220688 0.0073023606 -0.0053675611 
   70000    300.81206    6401.8546        24389    30.474933 -0.0058470243 0.0012495406 0.0053612842 
   71000    289.70845    3374.1546        24389    30.771581 -0.003593873 -0.020696857 0.0086665285 
   72000    294.35636    3526.4578        24389    30.213563  0.012114063 -0.0053918221 -0.0063332794 
   73000    295.95545    6763.4044        24389    29.517073 0.0029529397 -0.00065733007  0.011340941 
   74000    294.21445    6215.1503        24389    28.538895 -0.0085496817 -0.0086103865 -0.014432209 
   75000      302.089    4589.7948        24389     27.31508 0.0080036969 -0.00064638251  0.013310337 
   76000     293.3066     3486.521        24389    26.718024 -0.0087729937 0.0039952832 -0.0087985227 
   77000    306.98137    5645.3682        24389    26.828191 -0.0033367124 -0.0083629619   0.01083049 
   78000    295.07863    4973.4919        24389    27.059763 0.0027368492 0.0044879315 0.0064149202 
   79000    296.23535    7550.9879        24389     27.24139 0.0022465024 0.00016028932 -0.0023799164 
   80000      298.622    5505.6769        24389    27.859928 -0.0023711125 0.00054442424 -0.00021325978 
   81000    300.16262    3522.9892        24389    28.845002 -0.0013508462 0.0037113343 -0.0060637633 
   82000    294.52659    4350.1317        24389    29.667113  -0.00295474 -0.00016480685 0.0041310527 
   83000    302.68004    2780.7863        24389    30.133136 -0.00028359093 0.00056489076 -0.0027271606 
   84000    291.26532    4841.2496        24389    30.069953  0.000742929 0.00088440987 -0.0069309339 
   85000    296.05272     5870.286        24389    29.064965 -0.0013781268 -0.0038954202 -0.011838802 
   86000    299.07767    3608.2767        24389      27.4483  0.012383981 -0.010392269 -0.011450097 
   87000    303.21124    3291.7889        24389    26.600543 0.0079614844 -0.016673241 -0.006526012 
   88000    291.12955    5755.9532        24389    26.784198 0.0028844258 0.0047517784 0.0062467184 
   89000    299.03254    6070.8741        24389    27.287711  0.012430559 -0.0073655009 0.0011999297 
   90000    293.86171    4272.6848        24389    28.091829  0.003305622 0.0025035812 0.0034888887 
   91000    303.84805    5251.8008        24389    28.480754 -0.0024615888 -0.0029424156   0.00268758 
   92000    298.98339    5727.6206        24389      28.6706 -0.012056142 -0.0035230943 0.00084103922 
   93000    295.51213    5970.6135        24389     28.72874 -0.001672762 -0.0019840936 -0.001782326 
   94000    292.32125    5660.9987        24389    29.233772 -0.0044227755 0.0084917949 -0.011427696 
   95000     301.8038    6116.4738        24389    29.727998 0.0012211687 -0.0022318795 -0.0096182013 
   96000    299.65713    2778.7338        24389    29.852694 0.0099103141 0.0049147418 0.00018585094 
   97000    294.49083    7154.6482        24389    30.379075 0.0024163923 0.0012999282 0.0013239317 
   98000    296.42302    6378.3364        24389    29.790345 0.0011973922 -0.0081934406 -0.0061095521 
   99000    301.90053    4409.1964        24389    29.092414 -0.001594727 -0.013489831  0.005456463 
  100000    304.20796    6447.0415        24389    28.114628 -0.012884053 -0.011868935 0.0072568283 
  101000    305.59461    3715.6229        24389    27.310068 0.0058955078 -0.0080106155  -0.01214257 
  102000    299.03398    5681.6432        24389    27.553367 0.0015319128  0.017625184 -0.0089942437 
  103000    298.33233    7210.2197        24389    27.712668 0.0056569775  0.013502995  0.002973145 
  104000    292.92427    4427.4773        24389    27.989167 0.0054222285  0.007395581 -0.012216127 
  105000    296.35722    1972.9377        24389     27.49668  0.010668938  -0.00863976 1.0102243e-05 
  106000    297.79599    6757.4331        24389    26.828337  0.012693777 -0.0025961872 0.0070416549 
  107000    296.77537    5418.3019        24389    26.137659 0.0081675476 0.0047428897 -0.0042274943 
  108000    297.40627    4015.2119        24389    25.657802 0.0067309785 0.0056117657  0.011670796 
  109000    297.40128    7789.2159        24389    25.305992  0.001516395 0.0055179783 -0.002599251 
  110000    306.68177    5027.0832        24389    24.874509 -0.0094651159 0.0010013691 0.0039650422 
  111000    293.71814    6067.2143        24389    25.198937 0.0058165941 -0.0074926448   0.01039271 
  112000    293.82183    4319.2023        24389    25.715835 -0.0032654737 0.0044099228 0.0098815778 
  113000    302.85684    6054.9193        24389    26.268358 0.0035026027  0.012390884 0.00050220405 
  114000    304.66864    5740.7346        24389    26.753495 -0.004741005 0.0050627143 -0.00021609934 
  115000    303.27784    6031.5776        24389    26.819237 0.0052677569 -0.0017790307 -0.017651861 
  116000    301.90843    5228.4527        24389    26.587544  0.013368613 -0.0049432019 -0.00098289833 
  117000    295.31647    3759.8134        24389    26.421741 -0.010915931 -0.0041387959   -0.0027814 
  118000    296.91521    4745.2488        24389    26.087138 -0.0014070664 -0.014662708 -0.0035364866 
  119000     291.2684    5477.3863        24389    25.828516  0.011085518 -0.0013121911  0.012227608 
  120000    304.10593    5519.5361        24389    26.096086 -0.0011704293 -0.0058760358  0.021203783 
  121000    304.41602    2293.3745        24389    26.549327 -0.0010539372 -0.006019062 -0.0080432418 
  122000    298.40796    3692.5746        24389    25.663252 0.0068327526 -0.0049346579 -0.0031034836 
  123000    300.78972    6213.7171        24389    24.214364 0.0020967037 -0.00035332052 -0.0039682998 
  124000    291.44679    5817.5113        24389    23.445497   0.00878033 -0.0042535238  0.013852083 
  125000    296.32105    4112.8874        24389    23.845658 0.0072826404 -0.0048320687 -0.0085995291 
  126000    297.96195    3040.3716        24389    24.291587 -0.0083425015 0.0076551401 0.00083488944 
  127000    289.22137    2275.8844        24389    24.646134 0.0052614441 -0.010893222 0.0002804071 
  128000    298.99691    5665.3377        24389    25.208037 -0.0089933456 -0.0017066694 -0.0076116912 
  129000    301.22147    6206.1309        24389    25.447591  0.013301794 -0.010765177 -4.3774277e-05 
  130000    299.75311    5148.1721        24389    26.333172 -0.0053514236 -0.010611126 -0.0091384683 
  131000    307.34916    3296.2775        24389    27.384719 0.0061135877 0.0022979167 -0.0032253745 
  132000    298.73364    4282.2141        24389     28.08206 -0.0021006271 0.0055190542 -0.0073418747 
  133000    292.18556    5582.1052        24389    28.226169 -0.0011779706 0.0044326911 -0.0073697443 
  134000    297.22384    5945.6677        24389    27.597432  0.002103132 -0.0029378431 -0.0078596436 
  135000    296.24239    6836.6982        24389    26.352673 -0.016955841 -0.0071862768 0.0020271667 
  136000    303.02637    3975.1047        24389    25.309627 0.00029255323 -0.000917245 -0.0051671746 
  137000    299.85416    5042.4879        24389    24.569038 -0.0062310651 -0.0068666077 0.0094243388 
  138000    302.93643    7310.7552        24389    24.979586 0.0052280062 0.0068446417 0.0079896115 
  139000    295.77981    4724.0506        24389    26.405344 -0.0069117711 -0.00091318932 -0.0082514944 
  140000    299.10046    4052.0397        24389    27.704215 -0.014236819 -0.0011207966 -0.0044326798 
  141000    308.80598    6036.4428        24389     28.93523  0.013603324 0.0046454753 0.0043204506 
  142000     297.1322     7145.999        24389    29.155508 -0.0020697049 -0.0046660796 -0.0057625724 
  143000    296.84049    5459.6925        24389    29.197254 -0.0046644184 0.0074848707 0.0037874837 
  144000    296.87556    5202.1362        24389    29.574857  0.012464662 0.00042234657  0.012144035 
  145000    296.59688    4357.6684        24389    30.307727 0.0025347483 -0.0046727862 0.0049232227 
  146000    300.55198    5925.5084        24389    30.830267 0.0026208729 0.0025548356 -0.0069227624 
  147000    294.08895     5060.746        24389    31.869623 0.0048677198 -0.00052942451 0.00012397479 
  148000    293.82182     4120.121        24389    32.043009  -0.01379734  0.004291254 -0.0053091059 
  149000    291.18917      5849.11        24389    31.064151 -0.009624578 -0.011820313 0.0016753036 
  150000    296.16789    5629.8705        24389     28.84414 -0.0047452329 -0.014720232 0.00030948709 
  151000    303.66979    3557.7102        24389    26.315757 0.0030337486 0.0072642145  0.009719242 
  152000    294.91532    3667.0074        24389    25.002136 0.0076230139 0.0012314973  0.010220743 
  153000     295.5563    7911.1933        24389     25.64916 0.0074386635  0.010604123 -0.0014222682 
  154000    304.16957    6933.3125        24389    27.731841 0.0084093203 -0.0062863001 0.0030959563 
  155000    298.78132    1785.1936        24389     29.41248  0.000883435 -0.0013090819 -0.0014921596 
  156000    289.90683    5327.2322        24389    29.897634 -0.0040183747 -7.5530434e-05 0.0033020548 
  157000    297.59248    6180.5343        24389    28.634098 0.00083060153 -0.0082983589 -0.00027758433 
  158000    298.55206    4263.8591        24389     26.56386  0.017959435  0.005455795 -0.0058994536 
  159000    293.19535    2616.9861        24389    24.779565  0.007063491 0.0035452279 0.0077218068 
  160000    294.32432    4878.4702        24389    24.521419 -0.0035553838 0.0016563185 0.0015836163 
  161000    293.63604    4375.5755        24389    25.686455 0.0016373299 0.0011827845   0.01681125 
  162000    297.92493    6421.1334        24389    27.270355 0.00052421642 -0.011466837 -0.0080006986 
  163000    299.86567    5318.7428        24389    28.576139 -0.0046677551 0.00094088492 -0.0094623982 
  164000    300.76108     3035.764        24389    28.836508 -0.015642738 0.0020287675 -0.0036796056 
  165000    295.90528    4107.6323        24389    28.237075 -0.015156873 -0.0089201838 -0.0020828132 
  166000    304.44013    2735.1037        24389    27.883857 -0.0099168327 0.00048388139 -0.0043917743 
  167000    290.38427    5683.6227        24389    28.207725 -0.0031834022 0.0033967617 0.0053969399 
  168000    298.93696    6245.9573        24389    28.814827 0.0067164103 -0.0051849709  0.003256224 
  169000    297.59873    8323.8821        24389    29.070082 -0.0029428585  0.017016514 -0.0067750033 
  170000    300.77678    2911.6245        24389    28.703527 0.0051218731 -0.0015509684 0.0016433981 
  171000    302.41068   -287.51904        24389    28.045126 -0.013498066 -0.0031421238 -0.0076111853 
  172000    300.66623    6667.5855        24389    26.942437 0.0050788106  0.007461403 0.0097767083 
  173000    304.12715    7370.3592        24389    26.201974 -0.0037784421 0.0061778209  0.017856589 
  174000    295.06673    3246.5535        24389    25.591443 -0.0035992056 -0.012139349 -0.0039574943 
  175000    297.76209    3261.1187        24389    25.356595 0.0057340716 0.0065991242 -0.0017155215 
  176000    299.38625    6605.2699        24389    26.711391  0.017425173 0.0030342245  0.011727063 
  177000    290.50052    5109.4943        24389    28.575013 0.00042493213 0.0062936936 0.0024125325 
  178000    306.14058    6180.7158        24389    29.595678 -0.0026510899 0.0057510454  0.013660647 
  179000     296.5723    4153.4052        24389    29.929054 -0.0046748224 -0.010951688 -0.0037060633 
  180000    296.19874    3864.3202        24389    29.415086 0.0051925287 -0.0003149255 0.0027121403 
  181000    302.12267    5092.3222        24389     28.67098 -0.0048586918 0.0069473965 0.0064231412 
  182000     297.0786    4238.9284        24389    28.633489 0.0046551867 0.0025690494 -0.0017444716 
  183000    299.65058    7067.4411        24389    29.596011 0.0037565433 0.0024124455 -0.0023160162 
  184000    297.73619     5141.079        24389    30.226796  0.012660086 -0.0036134502 -0.00090170164 
  185000    291.16571    5272.8412        24389    30.603662 -0.010141254  0.012752785 -0.001403576 
  186000    302.35503     3237.455        24389    30.059609 0.0024863755 -0.0044115371 0.0062050625 
  187000    295.70651    2747.4999        24389    29.269378 0.0058388146 -0.0015610855 0.0046602786 
  188000    292.94386    5089.6247        24389    28.340924 -0.0056026567 0.0099020188  0.010180236 
  189000    299.90834    6631.3951        24389    28.236069 0.00034858198 -0.0033289156 0.0044257411 
  190000    297.44023    5279.0338        24389    28.578702   0.00706722 -0.0059499462 0.0018439688 
  191000    295.60526    5361.8555        24389    29.230645 -0.0053842743 -0.0065431895 0.0020916147 
  192000    290.94072    5932.6213        24389    29.468575 -0.014275034 -0.016280958  0.014176769 
  193000    298.83904    3511.7707        24389    28.875678 0.0016010437 0.00092362103 0.0029765299 
  194000    300.99031    5171.7059        24389    28.926471 -0.0070108217 0.0047783457 -0.0022601288 
  195000    294.75513    5296.0719        24389    28.877989 0.0045947767 0.0002765882 -0.0045139145 
  196000    291.81592    6000.1726        24389     28.59876  0.011456443   0.01318824 -0.0061966966 
  197000    304.27976    3360.7662        24389    28.439482 0.0045391542 0.0050382374 0.0094117798 
  198000    302.84316    2670.2722        24389     28.88689 0.0088174209 -0.010883376 -0.011748245 
  199000    293.60515    5750.4748        24389    29.086903 0.0030251593  0.011060415  -0.00858435 
  200000     302.2656    7582.3509        24389    28.205361 0.0026443727 -0.011563613 -0.0078488737 
  201000    293.24205    4078.1516        24389    27.650184 -0.0011442723 -0.0035072538  -0.00275442 
  202000    302.09153    2575.8858        24389    28.443658 0.0082522379 -0.016433551 -0.0062993589 
  203000     301.7911    4793.8121        24389    29.575749 0.0041250703 0.0040377417 -0.0065748652 
  204000    298.42695    4617.2571        24389    29.857996 0.0033272513 -0.0050300195 0.0056181152 
  205000    305.65634    3308.1842        24389    29.040112 -0.0036628337 0.0064088977 -0.0061805118 
  206000    306.13184    5042.1738        24389    28.334464 0.0087606708 -0.0048726093 -0.0098327709 
  207000      305.385    3323.2441        24389    27.836042 0.0029866288 0.0074924388 -0.0019966126 
  208000    301.78846    4868.4102        24389    27.977325 -0.0025135126  0.016771156 0.0021773178 
  209000    292.65425     6816.978        24389    29.029689 0.0098447867 0.0049299915 -0.00064211973 
  210000    301.23363    2978.4875        24389    30.315776 -0.0063725348 0.0076309574   0.00860742 
  211000    303.54472    4159.1515        24389      30.6674 -0.011193115 -0.010787872 -0.0075493356 
  212000    301.10172    3576.5193        24389    29.749605 0.0090686976 0.0071017918 0.0044613726 
  213000    300.26676    5535.1255        24389    28.844958 0.0079172518  0.014233533 0.0018119048 
  214000    297.26779    5514.6428        24389    28.689121 -3.0762171e-05  0.011672531 0.0020040173 
  215000    294.15465    2590.8716        24389    29.233065 -0.0033238007 -0.0024466553  0.005370086 
  216000    290.71264    4135.7455        24389     29.39233 -0.00058457667 0.0098827897 0.0021211437 
  217000    292.37212    5851.8497        24389      29.4201 -0.0048475952  0.014721302 -0.0070879716 
  218000    303.26614     5674.472        24389    28.856141 0.0048376066  -0.01450996 -0.002395684 
  219000     307.9646    3471.0462        24389    28.239444 -0.0070610301   0.01335047 0.0040464713 
  220000    298.75253    5250.8114        24389    27.559908 -0.00062770638 0.0033857834 -0.0087550926 
  221000    302.74223    6145.7175        24389    27.191055 -0.0069654973 -0.020747316 0.0026251183 
  222000    293.42429    3360.0166        24389    27.047881 -0.00064023955 0.0087756776 0.0086107676 
  223000    294.52976    3743.6165        24389    26.621755 0.0014745957 -0.0068417361 0.0064816754 
  224000    290.44054     4914.347        24389    26.361621 -0.0038024583 0.00091611177  0.002552056 
  225000    288.46364    7517.6933        24389     26.70046  0.012471215 0.0025731052 0.0028197857 
  226000    297.12752    6332.0603        24389    26.893063 0.0070503897 -0.0056620217 0.00066673652 
  227000    301.40849    3012.8182        24389    27.415468 0.0075760002 -0.0026384249 -4.4422956e-05 
  228000    296.91017    3350.6401        24389    28.096484  0.013925921 0.0088410528 -0.0042798278 
  229000    294.04414    7141.5699        24389    28.374118 -0.0087612147 -0.004156063 0.0044985933 
  230000    300.88435    6496.4874        24389    28.011433  0.013080356 0.0034162708 -0.0034475657 
  231000    304.62704    5412.9701        24389    26.728569 -0.0063428803 -0.0096315964 -0.0021278047 
  232000    304.61008    210.55082        24389    24.978001 -0.0035943808 -0.015148944 -0.0020248271 
  233000    301.52099    3651.6304        24389    23.740577 -0.009627608 -0.017901649 -0.0021841603 
  234000    300.17362    8622.3154        24389    23.469748 0.0016028355 0.0063740322 0.0036828319 
  235000     294.3296    3783.2606        24389    24.263973 0.00058342783 -0.0029341648 0.0098213019 
  236000    295.05123    3645.2896        24389    25.286759 -0.014687527 -0.00049213335 0.0033399026 
  237000    300.33406     5192.708        24389    26.136042 -0.0043677495 -0.010242721 0.0073434124 
  238000     301.6911     4844.213        24389    26.431438  0.022687534 -0.0081361716 -0.0038595177 
  239000    296.60754    3588.5165        24389    26.137053 -0.0044299201 0.0007799255 0.00079368572 
  240000    297.60461      5504.18        24389     25.83262 -0.0018909201 -0.0087985829 -0.0062549132 
  241000     302.6552     4927.217        24389      25.9672 0.00051329661 -0.012556462 -0.0041945454 
  242000    294.13629    3991.9835        24389    26.536551 -0.0025953737  0.010619342 0.0036974529 
  243000     295.2186    5930.1364        24389    27.145694 0.0071230291 0.0034883097  0.011491442 
  244000    301.89663    4205.1788        24389    27.281653 0.0073068124 0.0070845911  0.015152385 
  245000     297.7842    4987.6884        24389    27.396789 0.00048668469  0.005227042 -0.00034806068 
  246000    295.08329    7223.8833        24389     27.32102 -0.013629525  0.010322967  0.012900588 
  247000     298.8634    3516.1811        24389    27.271223 -0.0065110875 -0.0095919409 0.0095013496 
  248000    299.37476     3575.895        24389    26.379725 0.0058831126 -0.0025965188 -0.0037107318 
  249000    296.30913    7129.1939        24389    25.131865 0.0074190122 -0.00084404265 -0.0023959694 
  250000    300.88527    5697.2681        24389    24.874137  0.012916743 0.0092938611 0.0090384416 
  251000    300.65856    1554.7896        24389    25.180803 0.0059799341 -0.0064453219 -0.0075025137 
  252000    297.76951    4736.8254        24389    26.294812 -0.0010746683 -0.0020889463  0.015559513 
  253000    298.45802    6416.6958        24389    27.176119 0.0037880059 0.0096844378  0.011805906 
  254000    298.30663    4529.0826        24389    27.791498   0.01013733    0.0133172  0.021573094 
  255000    302.27452    1870.8639        24389    27.757998 -0.0052926147 -0.0043088625 -0.0031170522 
  256000    299.62623    5544.4671        24389    27.230891 -0.010611528 -0.0080436007 -0.0017227223 
  257000     298.9424    7631.8131        24389    27.203144 0.0035230331 -0.0013453234 -0.0044331237 
  258000    292.60762    1252.6685        24389     27.07065 -0.011190615 -0.0032716621 0.0034115675 
  259000    295.32565    4234.0434        24389    27.670049 0.0018356338 0.00057941027 0.00014883093 
  260000    297.84838    5119.5219        24389    27.858996 -0.0035588864 0.0029863682 -0.0050631744 
  261000    299.01871    5915.6573        24389    27.546379 -0.0032195923 -0.010621389 -0.015226875 
  262000    298.69514    6787.6154        24389    27.867211 -0.0019562383 0.0026586735 0.0032806673 
  263000    297.52421    2431.5651        24389    28.382376 -0.0028428992 -0.0021952163   0.01353711 
  264000    300.35699    4004.9419        24389    28.112554 -0.0015400676 0.0016620204 -0.0016779885 
  265000    298.70318    5899.9891        24389    26.997388 0.0021544739 -0.0028346187 -0.0012773118 
  266000    304.61748     5838.776        24389    25.623455 0.0025660812  0.013828817 -0.0024642382 
  267000    295.76611    5249.9329        24389    25.079092  0.012685231   0.01033335  0.012954057 
  268000    307.90097    3378.3823        24389    25.699504 -0.013333183 -0.0099417257 0.0056148524 
  269000    302.32444    3163.9294        24389    26.810529  -0.01506538  0.014579632 0.0050509433 
  270000    302.51557    4581.7799        24389    27.236116 -0.0014967231 0.0071365834 0.0050425266 
  271000    298.33144    6338.4598        24389    27.703704 -0.0089064573   0.01488051 8.9930563e-05 
  272000    299.94263     5857.784        24389    27.925517  0.010813883 0.0086508063 -0.011088618 
  273000     294.2075    4392.3216        24389    28.204294 -0.0093104616 0.0098929417 -0.0013959172 
  274000    286.36223    4018.1407        24389    28.921512 0.0012758662 0.0034763238 -0.012545837 
  275000    303.90382    4442.8684        24389    29.011423 0.0097173674 0.0077674257 -0.0016924465 
  276000    292.64464    4248.3461        24389    28.111766 0.0062362175 -0.0046322698 -0.0047197804 
  277000      298.316    4689.3223        24389    27.077167 -2.1668819e-05 0.0040667939 0.0065529491 
  278000    299.04512    3620.7959        24389    26.541356 0.0076939789 -0.010783706 -0.019145093 
  279000    304.02342     2639.763        24389    26.283967 -0.010325779 -0.0020479041 0.0012011854 
  280000     298.8964    3774.4646        24389    26.734475 0.0055272808  0.012680505 0.00070169106 
  281000    300.88018    7451.1694        24389    27.508629 0.0077854942  -0.01376661 0.0010247015 
  282000     293.8366    5735.4131        24389     28.41282 -0.010383911 -0.003724499 -0.013567925 
  283000    300.15691    1978.0064        24389    29.218147  0.005619356 -0.005614743 -0.0082915237 
  284000    291.26597    3745.3619        24389    29.823847 -0.0024426655 -0.014645365 -5.9647638e-05 
  285000     298.5946    8051.7358        24389     29.53919 -0.004744239 -0.0033219228  0.018687826 
  286000    294.14459    6640.2512        24389    28.524265 0.0052978452  0.018713073  0.013813375 
  287000    299.75048    2838.7086        24389    27.155357 -0.00034779037 -0.0004092449 0.00079068013 
  288000    301.99577    4769.1042        24389    25.837884 -0.0019630151 -0.0082393186 0.00044905456 
  289000     301.6097    4454.3664        24389    25.197126 0.00055891543 -0.0091501667 0.0029241236 
  290000    302.77675    5217.1218        24389    24.947727 -0.0081184235 -0.0030795041 -0.0041500693 
  291000    293.23057    5365.4714        24389    25.040967  0.001542688  0.015735118  0.021584623 
  292000    300.07007    3450.7142        24389    26.012192 -0.018589663 -0.0064897123 -0.001842437 
  293000    298.77661    4044.9919        24389    27.612025  0.011241525 -0.020344714 0.0023808968 
  294000    303.11929    4643.5419        24389    29.316613 0.0088737569  -0.00332388 0.0003693416 
  295000    296.12059    4592.0193        24389    29.823391 -0.0067788909  0.010458995 -0.0032670449 
  296000    297.90329    5229.0051        24389    28.766709 -0.002663772  0.001755002  0.011812263 
  297000    293.84644    7658.7495        24389    27.507313 -0.0062479317 0.0020494918 -0.0033639699 
  298000    297.05285    5647.7728        24389    27.351787 -0.0035058049 -0.0029360319 -0.007262447 
  299000     296.6266    3000.8247        24389    27.936209 -0.0018024838 -0.002156935 0.0088446929 
  300000    298.79217    2965.1443        24389    28.398493 -0.0033192342 -0.004372855 -0.00022979337 
  301000    297.61391    4114.3936        24389    28.225923 -0.0020523608 -0.0047248452 0.0038063299 
  302000    301.69718    4350.5414        24389    27.227765 -0.0035537112 0.0097817156 0.0044526834 
  303000    294.92465     4266.789        24389    26.486793 -6.4865915e-05 -0.002424077 -0.013741715 
  304000    296.62956    6266.4405        24389    25.937552 -0.0042824408 0.0040300896 -0.0078731314 
  305000    299.78776    3780.0008        24389    26.091956    0.0134103 -0.0015993155 -0.008830252 
  306000    299.44453    2883.9937        24389    26.637113 0.0011999655 -0.0032931476 -0.010312133 
  307000    298.43013    3738.6062        24389    27.645981  0.012204607 0.0022635646 -0.0089833115 
  308000    297.01689    6327.2165        24389    28.132245  0.004507685 -0.012642432 -0.0021679844 
  309000    301.92372    5791.5033        24389    28.152788 0.0030406712 -0.0031560291 0.0034477843 
  310000    293.46508     3607.298        24389     28.51157 0.0032255885 0.0022372338   0.01500102 
  311000    301.75789    3426.8343        24389    29.024495 0.0049473034 -0.0018287414 0.0068235449 
  312000    296.32783    3348.5203        24389     29.30423  0.010456871 0.0026080691 0.0071245397 
  313000    298.59509    6720.6072        24389     30.04645 -0.002561087 -0.017051745 0.0050887001 
  314000    300.51583    4646.8941        24389    30.364838 -0.0091105326 -0.0017450471 -0.0060927944 
  315000    295.66578     3075.591        24389    30.303742 -0.006926953 0.0098450666   -0.0134787 
  316000    300.31045    4867.9849        24389     29.42432  0.007834409 -0.0042021109  0.013313894 
  317000     304.6088    7198.0723        24389    28.101974 -0.0049333664 -0.011913331  0.002110452 
  318000    297.93538    3624.5014        24389    26.808364 -0.0039661026 0.00018921893 0.0097608961 
  319000     302.9671    3726.6773        24389    26.099104  0.003257252 0.0098452418 0.0086186036 
  320000    302.69138    4853.9139        24389    25.829494 -0.0055903773 -0.0034380981 0.0066499594 
  321000    300.43705    6304.9529        24389    25.635784 -0.0022429807  -0.02004468 0.0036285381 
  322000    298.62874     5110.023        24389    25.924723 -0.011240461 -0.0023831369 -0.0041457341 
  323000    293.20851    4446.3955        24389    26.651431 0.00018946164 -0.00017396868 -0.013115721 
  324000    289.67969    5033.6475        24389     27.67677 0.0088861054   -0.0149884 -0.0035569454 
  325000    294.19272    6251.3376        24389    28.426083 0.0032879059 -0.0073348419 -0.0028228419 
  326000    299.89313    4204.2359        24389    29.038567 0.0079405311 0.0022695935 0.0082158795 
  327000    296.00652    3034.7476        24389    28.953057 -0.00072505847 -0.0041326246 0.0039579224 
  328000    299.70801    6302.3244        24389    28.710324 0.0015913943 -8.1343084e-05 -0.0027895108 
  329000     299.7433    6664.3365        24389    28.707821 -0.0079090233 -0.0048987551 -0.0048948806 
  330000    298.43595    2140.6837        24389    28.572009 -0.015430256 -0.0021937295 0.0070127288 
  331000    296.80394    2683.7861        24389    28.305947 0.0087734745 -0.0032034008 -0.0025976064 
  332000    301.10052    5596.5764        24389    27.614268  0.005321182 0.0065252279 -0.011575682 
  333000    299.21773    7697.7399        24389    27.393232 0.0067925474 -0.0033968937 0.0030469165 
  334000    297.37952    2471.6504        24389    26.917487 0.00087740111 0.0053568698 -0.0012186687 
  335000    293.54539    2299.5985        24389    26.385738 0.0057267079 -0.0035739908 0.0026993941 
  336000    298.87328    6389.4562        24389    26.033962 -0.011915257 -0.0043355994 -0.0062925138 
  337000    298.00194    5580.5133        24389     26.38819 0.0019939921 -0.008591587 -0.028419118 
  338000    290.04411    2859.7085        24389    27.617713 -0.0084459575  0.015310682 -0.012527249 
  339000    295.91169    4382.2746        24389    29.500165 -0.0021358154 0.0058955035 0.0054279014 
  340000    298.34567    3318.6585        24389    31.679749 -0.0004434796 -0.018377156 -0.0039096651 
  341000    297.39434    3423.6726        24389    32.498025 -0.011456771 0.0026453866  0.012969848 
  342000    303.47324    4726.2442        24389    32.564237 -0.0025813937  0.013098677 0.0093930624 
  343000    292.21469    5850.1794        24389    31.687503 0.0011873333 -0.005743478 -0.00037865131 
  344000    297.43789    3485.2641        24389    30.279269 0.0086523335 -0.009929655 0.0075042174 
  345000     298.2536    4522.5304        24389     28.85654 0.00084339421 0.00088517541  0.012225121 
  346000    306.11472    5024.0287        24389     27.61652 -0.0030921227 -0.0091927622 -0.0051906815 
  347000    296.15268    6797.5005        24389    26.982583 -0.0032853429 -0.010135533  0.004443626 
  348000    302.85763    4708.7893        24389    27.198609 -0.00089581939 0.0092233868 0.0017039958 
  349000    298.62358    3781.2759        24389    27.803131  0.021360693 -0.0077582959 0.0083059606 
  350000    298.61515    3572.3704        24389    28.141717 -0.0044773606 -0.0038290553 0.0082729032 
  351000    306.51301    7147.6075        24389    27.881613 -0.0081581675 0.0087179086 0.0066615728 
  352000     300.7227    4077.4578        24389    27.367613 0.00093167418 0.0086836661 -0.0079307032 
  353000    300.48712    3940.4756        24389    26.713414  0.007211298  0.015460711 0.0064889884 
  354000    304.13657    3180.0007        24389    26.275379 0.0015658311 -0.0075016889 0.0026425269 
  355000    296.34595    5823.5357        24389    26.141657 -0.0072308891  0.005986643 -0.008408849 
  356000    296.34125    5252.1638        24389     26.39843 0.0066479618 0.0092764762  0.012648728 
  357000    293.69976    3889.2159        24389    26.196627 0.0052837874 0.0057173213 -0.0019679053 
  358000    295.97455    6283.0951        24389    25.732453 -0.0094299902 -0.0037954316 -0.00073055682 
  359000    294.40615     5759.094        24389    25.492798 -0.0094230261 -0.0084629758   0.01110771 
  360000    291.68993    4731.6976        24389    26.095435 -0.00095047968  0.011146911 -0.0034033616 
  361000    297.49874     3550.718        24389    26.520556 0.0039352544 -0.0009043996  0.008335763 
  362000    290.98517    6392.0624        24389    26.746446 0.0083672808 0.0038989972 -0.00049916605 
  363000    296.23332      6157.18        24389    27.191301 -0.0093321555 -0.0035599293  0.005935678 
  364000    291.12061    2766.8134        24389    27.723504 0.0027546755 -0.0053110074 -0.010178663 
  365000    297.10533    2252.8726        24389    28.313661 -0.0024147033 -0.0068920392 -0.0081033883 
  366000    301.82013    5157.1867        24389    28.236715 -0.0053768435 -0.013135576 -0.011459232 
  367000    295.81306    6530.3309        24389    27.856504 0.0023099959  0.018979735 -0.0002556819 
  368000    296.96692    3804.6435        24389    27.485874 -0.010850685 -0.0010516732 -0.0089393202 
  369000    292.54125    3414.7936        24389    27.345706 -0.008633907 -0.0016856794 0.0012153061 
  370000    304.13532    3905.2753        24389     27.17169 0.0032922035  -0.00784753 0.0031948538 
  371000    300.97143    7845.0059        24389    27.501196 -0.0082478075 -0.025172691 -0.0018389748 
  372000    300.49879     2422.726        24389    27.957369 0.0044611039 -0.0036005345 -0.0060067767 
  373000    291.95415    1232.3069        24389    28.560344 0.0013994671  0.006789968 -0.0040033199 
  374000    293.48754    5166.3725        24389    28.873241 -0.0091765153 -0.0041901817  0.012031236 
  375000    296.24757    5730.6347        24389    29.166914 -0.0087967529 -0.011603569 -0.00098755979 
  376000    303.66312    5210.6518        24389    28.783616  -0.00313207 -0.008440972 0.0045989761 
  377000    300.94418    3222.0473        24389    28.253615  -0.01690893 -0.012334899 -0.0074155067 
  378000    302.83039     4918.929        24389    27.703958 0.0019172928 -0.0015697507 -0.0082973003 
  379000    305.54942    4962.8023        24389    27.450359 -0.0046503331  0.016248895 0.0079195156 
  380000    298.70281    4558.6773        24389    27.395182 -0.006396499 0.00099433809  0.001258005 
  381000    297.90382    2357.4719        24389    27.801069 0.0025630348   0.01212728 0.0021251463 
  382000    296.14969    3549.5393        24389    28.240611 -0.0069374346 -0.0094709841 0.0094381344 
  383000     300.1549    6000.6988        24389    27.997799 0.0059096104 -0.0030221299  0.016735669 
  384000    302.02517    5791.5337        24389    27.543996 -0.00014647372 -0.0098511833 -0.0068505884 
  385000    297.44397    4043.1978        24389    27.124799 -0.0035790528 -0.011242156 -0.0069387622 
  386000    298.25893    2363.1331        24389     26.50906  0.015454897 -0.0059249267 -0.00023144767 
  387000    303.38104    3227.5983        24389    25.867363 0.0067909424 -0.0039522496 0.0017881658 
  388000    300.83106    5777.2557        24389    25.810388 -0.0050330323  0.010309512 0.00040749807 
  389000    296.74383    6874.5343        24389    26.548718 -0.0035276797 0.0065438754 -0.0086581435 
  390000    298.15391    3098.4956        24389    27.632575 0.0036298619 -0.00048041356 0.0032766532 
  391000    294.05418    4492.7028        24389    27.784696 -0.0045167417 0.0094194086  0.011994136 
  392000    299.76964     5718.604        24389    27.499089 0.0030677482 -0.0078151283 0.0050320168 
  393000    289.00836    3825.3695        24389    27.242218 3.5761952e-05 0.0050141875  0.006884393 
  394000    298.59633     3273.582        24389    27.660007 -0.0044262564 0.0043413276 0.0089238772 
  395000    299.38905    3900.0694        24389    28.092082 -0.005668714 0.0043421354 0.0090370236 
  396000     297.1097    4996.3729        24389    29.289979 0.0025575845 -0.0051774387 -0.0024176844 
  397000    293.40494    7496.4577        24389    29.945026 -0.014527932 -0.0050708434 -0.010436809 
  398000    297.03695    5845.4552        24389    29.447283 0.0047240848 0.0092523696 -0.019464067 
  399000    302.87607    2721.1531        24389    28.002352 0.00011123616 -0.0076403067 -0.014504807 
  400000     297.3203    4526.6991        24389    26.535067 0.0091418498 -0.00056407597 0.00011231152 
  401000    298.24077    5154.3934        24389    26.173666 -0.0011271468 0.0036530733 -0.0052578978 
  402000    291.05455    1696.0724        24389    26.370048 0.0019482842 -0.0010616674 0.0021204704 
  403000    295.55968    2588.1487        24389    27.176785 0.0023469903 -0.0023712783 0.0051417821 
  404000     300.5331    7599.4297        24389     27.57918 -0.0051161957 0.0078289374 -0.0013654471 
  405000    297.03801    2880.4174        24389    27.328575 -0.0042284521 0.0031830111 -0.0041494846 
  406000    297.82191    1978.2993        24389    26.662802 -0.0086200161 -0.0013819726 -0.0076914364 
  407000     300.5174    2624.6148        24389    25.715308 0.00078438424 0.0056545488 -0.0085599681 
  408000    296.26945    5255.0198        24389    25.085597   0.01067628 0.0018357204 -0.0021847231 
  409000    291.83868    4593.3518        24389    25.493916  0.012793021  0.015506448   0.01256141 
  410000    301.67907    5594.6124        24389    26.573747 -0.0071314435 -0.012950787 0.0071030013 
  411000    292.85252    4452.7538        24389    27.075916 0.0038803836  -0.01191273  0.012821189 
  412000    290.79934    3083.1021        24389    27.424247 -0.0037886313 0.00072918553 -0.00033604729 
  413000    293.32407    5530.9841        24389    27.689901 0.0089413399 0.0070637446 -0.006272369 
  414000    291.54987     6775.877        24389    27.799292 -0.0021237753 0.0097623769  0.017392744 
  415000    293.60893    4956.1222        24389    27.412602 -0.0020536684 0.0061890931 -0.019002292 
  416000    302.33184    1831.9241        24389    26.808071 0.0035978207 -0.0017473898 0.00019944112 
  417000    301.22512    2696.3532        24389    25.807633 0.0052322474 0.0069113678 -0.0059827779 
  418000    297.91117    5116.5513        24389    25.035112 -0.0013274786  0.012138599 -0.0011133604 
  419000    290.16001    4708.7456        24389    25.079793  0.010447652  0.010240099 -0.0033616516 
  420000     299.0133    2343.7056        24389    25.720758 0.00087362366 0.0045797179 -0.0014590961 
  421000    303.16884     3021.672        24389    26.810575 0.0062028391 0.0018488412 0.0035950672 
  422000    298.93342    4259.2879        24389    28.199984 0.0081933308 0.0025296096 0.0033541111 
  423000    294.11967    3666.1503        24389    29.547615 0.0025089083 -0.0041646418 -0.0053389718 
  424000     301.1688    5422.0933        24389     30.23667  0.010199064 -0.0099316362 -0.0015653344 
  425000     292.5819    5663.4261        24389    30.396522 0.0069974057 0.0043758772 -0.015680524 
  426000    296.17159    4112.6228        24389    29.822846 0.0018730414 0.0047721033 -0.0040434746 
  427000    297.26164    3607.5481        24389    29.422673 -0.0004584514 -0.0052026682 0.0068133442 
  428000    293.00227     4011.119        24389    29.424431 -0.0018841196  0.010026835  0.016156597 
  429000    297.54449    4479.7668        24389    29.263698 -0.0016496396 -0.0051546883 -0.0073222588 
  430000    293.67244    3424.1995        24389    29.387035 0.0015410282 0.0022769784 -0.0041185166 
  431000     299.6333    1447.3803        24389    29.282132 -0.0070004115 0.0045443091 -0.0017349693 
  432000     296.4382    3897.0888        24389     28.32799 0.0070836101 0.00034054005 -0.013193905 
  433000    293.37725    5352.5202        24389    27.279925 -0.0011650708 -0.0036549384 0.0056147262 
  434000    297.00918    5282.3088        24389    26.203596 0.0018615155 0.0060264705 -0.0030997024 
  435000    299.12845    4669.0976        24389    25.737224 0.0029279373 -0.0083543597 -0.0092597735 
  436000    288.18187    3184.3586        24389    26.025894 -0.00081296915 -0.019321862  0.014046421 
  437000    301.30567    4258.4483        24389    26.497206 -0.0057825957 -0.0064286234 -0.0077308892 
  438000     294.3726    3692.8838        24389    26.992519 0.0082088607 -0.0087083739 0.00026493841 
  439000    301.16452    5718.0533        24389    27.718484 -0.011625847 -0.0083385835 0.0031946686 
  440000    292.97322    4213.1178        24389    28.571998 -0.00087742783 -0.014328914 0.0095326853 
  441000    295.45923    3599.9579        24389    28.904033 -0.00090736268 -0.024226931 -0.0031108707 
  442000    298.19781    4465.0575        24389    28.697653 -0.0015437586 -0.0034131787  0.013399076 
  443000    297.06536    2435.9052        24389    28.161859 0.00061190386 -0.004329987  0.010784656 
  444000    297.96431    5167.9166        24389     28.07958 0.0019464145 -0.0059284448 0.0012526172 
  445000    296.34633    6189.4239        24389    28.112786 -0.0071158284 0.0056531921 0.0011755684 
  446000    296.39744     2293.528        24389    28.387839 0.0070574748 -0.010569712 -0.010450847 
  447000    300.56956    2145.1137        24389    28.507788 -0.0087211051 -0.0048156258 -0.0041515083 
  448000    305.49418    4824.5914        24389    28.755397 -0.0054671521 -0.0056447659 -0.010338906 
  449000    295.74023    6106.3027        24389    28.907354 0.0032136101 -0.0072868239 -0.0068625726 
  450000    295.17623    3632.7402        24389    29.590714 0.0011114736  0.014944198 -0.013096397 
  451000    293.66045    3160.0971        24389    30.414101 0.0048847653 0.0071392145  0.001626639 
  452000    289.75074    3518.4356        24389    30.144955 0.0078480354   0.01590467  0.003376356 
  453000    299.52828    5514.3764        24389    28.813893 0.00099625522  0.014187398 -0.010979567 
  454000    295.72458    5682.6764        24389    26.875664  0.013018046  0.015177044 -0.0054581312 
  455000    292.50489    3416.8688        24389    25.271139 -0.0062685592 0.0090358474  0.004127914 
  456000    300.01751    3338.2295        24389    24.973008 0.0098231298 0.0009773023 0.0097280417 
  457000    297.28745    4841.4046        24389    25.746446 -0.013059943 -0.0049434164 -0.0034046553 
  458000    299.87966    4701.0772        24389    26.809776 0.0030387259 -0.0063090669  -0.01272342 
  459000    293.91261    2755.5426        24389    27.799117 -0.0029965204  0.016938913 -0.0039151004 
  460000    292.41718    4555.6741        24389    28.284825 -0.0011901556 -0.0031505397  -0.01005342 
  461000    294.39573    4059.0982        24389    27.983415 -0.021189625 -0.0053660183 -0.012667399 
  462000    300.41851    3280.6014        24389    27.641352  0.005019808 -0.0015665836 -0.0010069381 
  463000    299.24562    4125.0249        24389    27.599147 0.0053373722 -0.0012384287 -0.0095449875 
  464000    299.40499    4158.9564        24389    27.972499 0.00035337854 -0.0068811629 -0.015649648 
  465000    295.93874    2934.9913        24389    28.416199 -0.0046417572 -0.014634331 -0.00066504909 
  466000    290.90578    2733.9993        24389    28.530654  0.013327679 0.00011162162 -0.0091530647 
  467000    297.06409    5803.7268        24389     29.12281 -0.0013901926 -0.0021347024 -0.0038315788 
  468000    291.44305     4752.448        24389    29.610178 0.0081036276 -0.0033294352 -0.0068959748 
  469000    296.44214    4545.0578        24389    29.879002 -0.011738796 -0.012280655 0.0035629105 
  470000    296.85426    5549.1286        24389    29.475281  0.011827816 0.0053932289  0.006730363 
  471000      290.126    6068.0925        24389    28.989326 -0.0052422058 -0.0093031196 -0.0020488779 
  472000     289.9813    1614.6108        24389    28.246022 0.0012635641 -0.022671564 0.0017046393 
  473000    291.74141    2416.8571        24389    27.702553 -0.0095109157 0.0095083197 0.0012721762 
  474000     295.6034    5794.4508        24389    27.680263 -0.0067179352  0.013993636 -0.0099157037 
  475000    294.23054     6213.981        24389    28.212187 -0.0011970518 0.0028673648 0.0013471187 
  476000    295.21036    1040.8261        24389    28.262664 -0.00078464734 -0.0002657808 -0.001053291 
  477000     300.5257    2465.5409        24389    28.703543  0.012568294 -0.0091939079 -0.0036121789 
  478000    300.25306    7249.3318        24389    29.279947 -0.011418605 0.0018794689 -0.0094745744 
  479000    300.09653    4972.3932        24389    29.038737 -0.0024398112 -0.014733841 0.00090298551 
  480000     305.4309    1240.2851        24389    28.380616  0.001803186 -0.012737921 0.0066815623 
  481000    292.76238    7303.3151        24389    27.141972 -0.0056872465 -0.0058110193 -0.0058474739 
  482000    297.59216    7944.0549        24389    25.963288  0.015638639  0.002203661   0.01431693 
  483000    294.41707    3161.4698        24389    24.900176 0.00084626885 -0.0068945703 0.0016015888 
  484000    298.88595    3244.9628        24389    25.054843 0.0076466399  -0.00488655 -0.0042471113 
  485000    302.27852    6165.3563        24389    25.364611 -0.002797139  -0.00113812 -0.0054934513 
  486000    301.52215    5045.8499        24389    26.405396  0.009486058 -0.0024216948 0.0042403015 
  487000    294.84219    4313.1031        24389    27.558248 -0.0055495427 0.0040238888 -0.0080722359 
  488000    289.91031    2885.6631        24389    28.415474 -0.0012172202 -0.0057690406 0.0014388382 
  489000    296.33248    4797.8568        24389    28.970829  0.010327184 -0.011271521 0.0091639298 
  490000    297.70724    4257.3103        24389    28.941181 -0.0038617121 -0.014995337 0.00016504598 
  491000    297.60675    3282.2976        24389    28.460369 -0.010043116 0.0050637518 0.0023180989 
  492000    290.27763    4207.6365        24389    27.978856 0.0026138467 -0.0065330644 0.0018235133 
  493000     297.4757    3273.1983        24389    28.070958 -0.013361131 -0.023388789 -0.0050403047 
  494000    301.76228    7401.4287        24389    28.465083   0.00602914  0.010219362  0.011484864 
  495000    291.81214    4201.3744        24389    29.151195 0.0012482015 0.0033074754  0.015043137 
  496000    297.73014    1971.9816        24389    29.081806 -0.0039589912 -0.0046177142 -0.0050739819 
  497000    291.43454    3323.2492        24389    29.009661 -0.00015414092 0.0021677717 -0.012396229 
  498000       302.02     5541.062        24389    29.504921 0.0094842168 0.0049000712 -0.011100505 
  499000    296.77214    4145.2871        24389    29.770064 0.00023385166 -0.00091638281 -0.015486925 
  500000    300.78402    3723.0564        24389    29.642932 -0.0014483493 -0.010113277 0.0041444183 
  501000    296.64529    3512.4314        24389    29.321829 0.0043177061 0.0026891904   0.01004601 
  502000     292.3896    4949.4554        24389    28.238323 0.0012541821 0.0064091327 -0.0079639872 
  503000    298.31186    7857.6685        24389    26.580421 0.0035831502 -0.011510956 -0.0077952138 
  504000    292.94266    2244.3571        24389    25.231159 -0.0028085111 0.0022367118 0.0055104139 
  505000    291.67394    1861.9243        24389     24.83679 -0.0077368287 -0.0051953547 -0.002992546 
  506000    304.63495    6005.5456        24389    25.732975 -0.0061657873 -0.0041676119 -0.0047749084 
  507000    293.55685    7963.5987        24389    27.202028 0.0086252602 -0.00062186072 -0.0078634993 
  508000    288.83221    3402.0284        24389    28.655517 -0.0068626799 -0.0018843435 -0.0045286056 
  509000    290.86099    1633.8464        24389    29.986379  0.012481422 0.0094370594 -0.012619353 
  510000    290.70074    6326.6797        24389    30.384505 0.0078427025 -0.0015118065 0.0056437215 
  511000    293.79764    5274.8855        24389    29.468537  -0.01478686 -0.0061577226 0.0079094517 
  512000    299.63844    1680.3324        24389     28.79007 0.0044688173  0.010642909 -0.0023635246 
  513000    288.49348      3240.28        24389    28.110405 -0.00026452406 0.0092390089 0.0048959535 
  514000    295.20734    4749.9391        24389    27.526418  0.006823564  0.010112839 -0.004904217 
  515000    296.89242    4997.9277        24389    26.609086 -0.0019711522  0.013188359  0.006798991 
  516000    299.25941    3018.3616        24389     25.29181 -0.00060144034 0.0090179781 0.00039552026 
  517000     296.4163    5064.1805        24389     24.69422  0.010224771  0.004704482 0.0010565601 
  518000    292.14109    6205.9865        24389    24.509305 -0.0083598407 -0.0052427213 -0.021596332 
  519000     296.3631    1971.6503        24389    25.113097 -0.0081397131 -0.0075274376 -0.0081429469 
  520000    294.59269    2847.3826        24389    25.788096  0.010234478 -0.013347192 0.0044172729 
  521000    296.35248    4792.9143        24389     26.43319 0.0018686264  0.014157863 -0.00075419651 
  522000    287.09742    4433.2131        24389    27.747287  0.005996724 0.0017092567 -0.010579421 
  523000     295.1377    3987.3151        24389    28.350467 0.0023376208 -0.016560595 -0.0094443881 
  524000    294.50806    5827.7516        24389    27.853204 -0.00086158944 -0.00085698422  0.003741948 
  525000    298.05154    5781.4758        24389     26.55961 0.0054758925 0.0049154325 0.0055348084 
  526000    297.40575    3285.9776        24389    25.273088 -0.011403049 -0.0036553113 -0.0061604863 
  527000    295.72767    2988.6891        24389     23.91254  0.012549457 0.0073417865 0.0034395284 
  528000    292.87477     6193.768        24389    22.875484 -0.0031037302 -0.00018964175 0.0028061144 
  529000    297.54743    5346.6492        24389    22.916003  0.004453271 0.0062844338   0.01093059 
  530000    293.66865    2140.3768        24389    23.703483 0.0084700494 -0.0013058684 0.0088633198 
  531000    294.55078    4428.6318        24389    24.566827  0.010762516 -0.00073658572 -0.011615915 
  532000    300.33293    5862.8909        24389    25.498924  0.018719445 -0.0078261904  -0.01040395 
  533000    292.52589    6282.9435        24389     26.29907 0.00072408812 0.0037435606 -0.0085343136 
  534000    294.54949    2899.7493        24389    27.680796 -0.014996563 0.00059561748 -0.021342022 
  535000    295.06537    1806.0744        24389    28.348911 0.0018347159 0.0034241227 -0.010746994 
  536000    295.49014    3580.1063        24389    28.458208 0.0035706726 -0.0044757239 -0.0014030992 
  537000     301.5482    4282.0504        24389    27.889328   0.01790808 -0.012059179 -0.0061002547 
  538000    295.86714    4400.2981        24389    27.160447 0.0083369583 -0.0058416564 0.00066167621 
  539000    299.47276    3955.2973        24389    26.626777  0.008900772 -0.003141597  0.007703431 
  540000    298.08489    5461.9562        24389    25.841051  0.010638275 -0.011007111 -0.0025016622 
  541000     305.3142    5611.8912        24389    24.945844 0.0072639602 0.0035860344 -0.0048615723 
  542000    291.28862    4826.5251        24389    25.205301 -0.00034851314 0.0094416704 -0.012803665 
  543000    295.73726    3335.6208        24389    25.477391 0.00058118384 -0.012294936 -0.0034999233 
  544000    289.98772    4335.3097        24389    26.251971 0.0081778422 -0.0021189517 0.0046014278 
  545000    294.14753    5384.3736        24389     27.37825 0.00077026279 0.0018409636 -0.0037345366 
  546000    295.41684     5791.044        24389    28.786439 0.0045064485 0.0081406581 -0.0060869799 
  547000    301.38682    6780.0969        24389    29.757116 -0.0023205631 0.0051604662 -0.011709983 
  548000    297.77677    3762.5396        24389     30.13679 0.0021242163 0.0046663933 0.0074466672 
  549000    293.70949    1340.5792        24389    30.087274 0.0014897122 -0.0064816141 -0.0037040492 
  550000    291.54546    3623.6048        24389    29.057501 0.0010830216 0.0031101044  0.010354663 
  551000    297.53444    4309.3058        24389    27.282035 0.0017748326 -0.006396832 0.0013901798 
  552000     295.0428    6420.4272        24389    25.322061  0.001620451 -0.0097755291 0.0093806684 
  553000    289.20758    4616.7529        24389    23.248901  0.012749717 -0.0072835747 0.0068599435 
  554000    296.63865    3697.2733        24389    21.454294  -0.00432796 -0.0045183868 -0.0019250891 
  555000    294.50042    5517.2346        24389    21.321068 -0.0040219928 0.0027273484 -0.0015847181 
  556000    293.94869    4349.5824        24389     23.05629 -0.014078341 0.0060860878 -0.0055972904 
  557000    298.57447    4271.5736        24389    25.734156 -0.0022793717  0.016203443 0.0030030529 
  558000    296.75765    4416.6626        24389    28.548569 0.0034006171   0.01493937 0.0011891459 
  559000    298.59451    4227.6712        24389    30.344991 -0.016524994 0.0032497942 -0.0058570651 
  560000    299.94959    4934.4486        24389    30.737562 -0.0023742917 -0.0077557933 0.0099044855 
  561000    293.53362    4434.7562        24389    29.442176  -0.01769254  0.010616576 0.0041098252 
  562000    292.93769    4671.3264        24389    27.471774 0.00072456692 0.0054693178 -0.0022863863 
  563000    295.78781    4896.6327        24389    26.204117 -0.0030482441 -0.0077146175 -0.017104593 
  564000     298.8181    4405.1958        24389    25.811968 -0.0050336194 0.0033839774  0.010623904 
  565000    294.73205    3309.8748        24389    26.057592 0.0059359044 -0.0036425574 -0.021341976 
  566000     296.8282    2383.5534        24389    27.231241 -0.0017589165 0.0018590667 -0.011153892 
  567000    295.59423    2783.6788        24389    28.316898 0.0060033578 -0.0039608884 0.0051907059 
  568000    299.12435    6086.2869        24389    28.586493 -0.011107566 -0.0038586907 -0.0038966127 
  569000    296.42013    5713.5222        24389    28.357812  0.012492539 -0.0023896063 -0.011079687 
  570000    295.30732    2488.6415        24389    28.035104  0.013707217 -0.0042312794 -0.010785013 
  571000    295.97507    3999.3328        24389    27.870877 0.0099863565  -0.01748905 -0.0033297086 
  572000     295.4554    6028.7697        24389    27.795367  0.013702977  -0.01481274  0.010760732 
  573000    295.78139    4717.7042        24389    27.168883 -0.0024957471 0.0021938702 0.0055809593 
  574000    298.50856    4511.5898        24389    26.736195  0.011674235 -0.008565642 -0.010240343 
  575000    296.26045    4354.2915        24389    27.042882 -0.0002395082 -0.017207935 0.00046296424 
  576000    296.54893    4152.7664        24389    27.968222 -0.0025529597 -0.017898527   0.01140473 
  577000    298.61046    3667.8895        24389    28.494588 -0.0032729658 -0.0093038602  0.018303761 
  578000    295.02452    4445.5037        24389    28.598394 0.00081387058 -0.008578847 -0.0050066304 
  579000    300.86019    3071.5417        24389    28.967427   0.01611486 0.0030041321 0.0050126686 
  580000    294.53314    4791.4376        24389    29.388768 -0.00061550256 -0.0030278391 -0.0058845515 
  581000    295.71668     4766.891        24389    29.385974 -0.0016709307 -0.0047615253 0.0011525828 
  582000    298.62072    5967.1192        24389     29.29891 -0.00087719903 -0.0048346175 -0.00011824005 
  583000    293.45887     2534.633        24389    29.508963  0.006534059 0.0079885599   0.01189726 
  584000    292.69441    4670.9927        24389    29.394055 0.00088286817 -0.0033233686 0.0028916932 
  585000    295.32893    4386.1003        24389    28.712459  0.011295605 -0.0032433357 -0.0068344382 
  586000    293.23897    4811.3241        24389     27.77443 0.0063810463 0.0033208347   0.02137126 
  587000    305.36363    4775.7742        24389     27.13206 -0.0014481228 -0.0035280271 0.0099244375 
  588000     299.4132    4712.5154        24389    27.532841  0.002607377 -0.0033929366 -0.0028654273 
  589000    300.07099    4392.0545        24389    28.182096  0.011223278 0.0036293608 -0.0047623484 
  590000    290.76719    4528.5231        24389    29.008199 -0.0026127711 3.6544564e-06 0.00072020517 
  591000     292.2586    4308.9428        24389    29.741352 0.0072157765 0.00042769211 -0.0040827031 
  592000    291.91168    2778.9838        24389    30.142187  0.003678741 -0.0010251451 -0.00098753387 
  593000    291.13186    4221.7856        24389    30.365923  0.016974944  0.012972524 0.0018984569 
  594000    290.27204    7759.2437        24389    30.363178  0.013208902 0.0056842225 -0.0068002086 
  595000    291.49747     4504.749        24389    30.216615 -0.0042812927  0.014504811 -0.0096268471 
  596000    293.79251     227.8751        24389    29.913098  0.010279943 -0.0049096832 -0.0097348565 
  597000    290.18317    6731.9244        24389    29.679744 -0.0014131569 -0.0035626603 -0.0012863177 
  598000    290.70987    8106.2639        24389    29.694543 0.0034725428 -0.0077256088 -0.0031975169 
  599000    296.50042    1576.6852        24389    30.043666  0.020460207 -0.0075516182 -0.0018963458 
  600000    295.15545   -154.34487        24389    30.035583 0.0019319588 -0.00039246756 -0.011155892 
  601000    303.52038    5167.0779        24389    29.853276   0.01078698 -0.003727477 -0.0022914116 
  602000    299.27249    8817.4594        24389    29.468315 0.0085177916 -0.0061930335 -0.010809043 
  603000    299.29313     3535.682        24389    29.114784 -0.014283445 0.00016802813 0.0027400571 
  604000    302.15762    629.22789        24389    28.833509 0.00017278673 0.0081798473 -0.015445397 
  605000    300.78395    5724.9147        24389    28.512055 -0.011778769  0.012121376 -0.010942999 
  606000    297.34283    6176.4311        24389    27.645093 -0.00092923861 -0.0071209774  0.007305543 
  607000    300.35866    3910.7605        24389    26.402689 0.0092171808 0.0038297487 -0.0045166487 
  608000    301.18346    2966.3738        24389     25.75594 -0.0021173552 0.0067609505 0.0025527927 
  609000    292.42867    3043.1494        24389     25.96391  0.013396539 0.0033496774 -0.0045538345 
  610000     300.1356    4594.7598        24389    26.423686 -0.010281159 0.0060183114 0.0024701656 
  611000    298.16061    2035.1041        24389     26.25752 -0.0052367063 -0.011276942  0.001946962 
  612000    296.78837    5519.4667        24389     25.42528 0.0072153604  0.014481571  0.014408786 
  613000    297.14177    5960.2224        24389    25.208482 0.00040372496 -0.0022423189 -0.0048426038 
  614000    299.88756    4725.4024        24389    25.845741     0.014316 -0.0052918444 0.0079343561 
  615000    297.01154    2644.0695        24389    27.007789 -0.0048113513 -0.0050267744 0.0075398223 
  616000    293.09397    6178.8923        24389    27.702156 0.0054569146 0.0031704879  0.011697294 
  617000    297.37251    3623.7748        24389    27.760145 0.0073188919 -0.0052119933 0.0029022171 
  618000    296.97731    3182.3155        24389    27.096967 -0.0038677169 -0.0084737747 0.00036518418 
  619000    298.80993     4624.813        24389    26.635632 0.0095541887 0.0076029463 -0.0027900013 
  620000    302.05107    3197.9841        24389    26.082542 0.0075480878 0.00060987483 -0.011329758 
  621000    300.11224    5043.2547        24389    26.024727 -0.010435414 0.0028110787 -0.006802913 
  622000    297.50642    3674.4295        24389    26.796402  0.010732637 -0.0037519348 -0.002149158 
  623000    291.55069    5521.5559        24389    27.232558 -0.0022023617 -0.015788901 -0.00054085271 
  624000    298.28378    5234.3121        24389    27.017729 -0.0091146526 0.00052405301 0.0026297891 
  625000    296.45843    4022.2586        24389    27.148486 -0.00050408693 -0.0073707302 -0.009932627 
  626000    297.65207     2798.914        24389    27.498934 -0.012125121 0.0013438545 0.0042200665 
  627000    299.58224    5595.9797        24389    27.523336  0.010133624 0.0043061698  0.011618451 
  628000    292.92698    4163.0169        24389    27.756225 0.0093745957 0.0027302895 0.0061413272 
  629000    295.57934    4563.3616        24389    27.428184 -0.0070257694  0.005839022 -0.008375705 
  630000    298.60045    5865.0544        24389    27.274361 0.0088842194 -0.0010127154 0.00057393222 
  631000    294.88679    4162.5928        24389    26.998939 -0.0015770627 -0.0041694954 0.0042475661 
  632000    301.19543    3975.8362        24389    26.642319 -0.011419431 -0.0073248027  0.003128156 
  633000     297.5466    5472.8373        24389    26.490522 -0.019559444 -0.020500789 0.0041053435 
  634000    297.63706    4370.5173        24389    26.665389 -0.0040750358 0.0014927051 -0.0022098229 
  635000    291.01718    3226.9216        24389    26.540524 -0.010462051 -0.0098309928 -0.011540052 
  636000    291.10624    4556.9911        24389    26.185973 -0.0087277896 -0.0036209503  -0.01039258 
  637000    298.07997    4656.8397        24389    25.826894  0.011836665 0.0056592577 -0.0065182866 
  638000    296.14173    4623.0282        24389    25.988381 -0.0080547692 0.0054954311 -0.001807808 
  639000    299.98065    5738.9341        24389    26.692834 -0.0083631453 0.0037071859 0.0018659815 
  640000    293.04166    6021.3302        24389    27.363735 -0.0090531774 -0.0038849984  0.017572279 
  641000    300.49868    3688.9006        24389    28.207104 0.0039941258 -0.010013414  0.012064567 
  642000    291.67936     3146.477        24389    28.283824 0.0043501451   -0.0107015 -0.0051086595 
  643000    293.68607    4801.8185        24389    28.342843 -0.0084674407  0.011436247 0.0024603433 
  644000    292.94374    6420.9616        24389    28.459842  0.011374102  0.011283741 -0.00060657347 
  645000     288.9754    5831.5255        24389    28.114453 0.0034052979 -0.0039208954 -0.0046570978 
  646000    307.88767    3018.9848        24389    26.938437  0.013180579 -0.0071650989  0.014590021 
  647000    293.03777    4516.5923        24389    25.421483 0.0074294121 -0.0014394486 0.0091184786 
  648000    296.04427     3436.001        24389    24.554285 -0.0065319834 -0.0010794742 0.0057654548 
  649000    304.28831    3281.9915        24389    24.420198 0.0015732806 0.0090344304  0.010445006 
  650000     293.6714    4064.5234        24389    24.436171 0.00019428002 0.0080345492 -0.0047862408 
  651000    296.37194    5590.1566        24389     24.57855 -0.010415957 0.0092961233 -0.0011336794 
  652000    297.69335    4958.0136        24389    24.868597 0.0076874102 0.0069471834  0.010610818 
  653000    298.19851    3179.5628        24389     25.62159 -0.004658868  0.013909929 0.0083155358 
  654000    290.13089    3120.3749        24389    26.079915 -0.0090301064 -0.00076652137 -0.0033571252 
  655000    293.82899    5469.0458        24389    26.574697 -0.017702024 0.00047925199 -0.011984463 
  656000    295.77598    5796.4197        24389    27.023891 0.0019972419 -0.0048241344  0.016357814 
  657000    291.81269    5756.3372        24389    27.438814 -0.00058417859 -0.0017899803 -0.0046230139 
  658000    295.94149    5087.4146        24389    27.664379 0.0012005166 -0.0068469344 -0.0076350105 
  659000    296.16287    2655.2888        24389     28.04035 0.0081346687 0.0048742101 -0.0088266725 
  660000     298.5953    5513.8371        24389    28.301035 0.0029059521 0.0024589863 -0.0076561857 
  661000    299.83048    3871.3895        24389    28.176496 -0.0068480813 0.0077622748  0.013782687 
  662000    288.98559    4119.3268        24389    27.718362 -0.0038002887 -0.0054894806 0.0078759054 
  663000    296.83823    3318.9907        24389    27.119886 -0.0046228908 0.0016044164  0.013056469 
  664000    295.72594    5472.9541        24389    26.362901  -0.00188688 -0.0025036937 0.0025831278 
  665000    294.99569    7107.6653        24389    26.101698 0.0027045364 -0.0080435368 -0.013520862 
  666000    302.48687    5062.2033        24389    26.492423 -0.0042729908 0.0062093878 -0.015246893 
  667000    297.68888    901.61823        24389    27.280169  0.001375559 0.0073215476 0.00095515312 
  668000    290.05336    1645.5458        24389    28.176048 -0.018375595 0.0054587592 -0.0062013694 
  669000    298.69864    6010.4144        24389    28.920391 -0.00064406575 -0.0057113066 0.0062669269 
  670000    302.03055    8765.8518        24389    29.501371 -0.0015960024 -0.0041090573  -0.01330354 
  671000    295.75422    3397.3682        24389    29.634876 0.0057567647  0.002240913 -0.0056292299 
  672000    298.05055     2023.929        24389    28.786044  0.019172533 -0.0022464993 -0.0095070861 
  673000    297.99021    4779.8239        24389    28.054176 -0.0030545626 0.0060354427 -0.0046298627 
  674000     294.4464    5602.6347        24389    27.383165 0.0014783172 -0.0067258101 -0.003498494 
  675000    302.24833    5161.8716        24389    26.414212 -0.0011451354 -0.00073408152 0.0026813163 
  676000    300.29094    2418.1811        24389    25.065001 0.0027224744 0.0024980786  0.005240879 
  677000    298.82723    3311.4366        24389    23.891061 0.0069408675 -0.0010952229 -0.0026513983 
  678000    303.06671     6318.896        24389    23.708718  0.014320918 -0.0077087903 -0.016998237 
  679000    292.99178    3984.2273        24389    24.447556  0.014286985 0.0060310275 -0.0073161632 
  680000    299.90507    4754.4695        24389    25.657212 0.0052852052 -0.0082248405 -0.0011727002 
  681000    299.05411    6087.8826        24389    26.523554 0.0038199509 0.0047214409 -0.0076150545 
  682000     300.2084    2899.2243        24389    26.459978 -4.5574156e-05 0.00013031471 0.00074508388 
  683000    296.09531    2309.1248        24389    25.245806 -0.0023275626 -0.0017910948  0.012134412 
  684000    298.22179    4110.7575        24389    24.088011 0.0092837011 -0.0051552814  0.001742156 
  685000     304.9305    4947.9841        24389    23.767258 0.00064446369 0.0041858328  0.017794592 
  686000    296.42161    6493.2005        24389    23.834666 0.0032602897 -0.0067143256   0.00544152 
  687000    291.98358    4514.8447        24389    24.637781 -0.0060485294  0.005033391 0.0086312462 
  688000    297.38416    2607.2832        24389    25.476258 -0.0057266856 -0.015710774 0.0074794235 
  689000     292.1135     6855.458        24389    25.931082 -0.0052619431 -7.8026798e-05  0.014207578 
  690000    299.72369    3540.2676        24389    26.335462 0.0056801385 -0.0049445916   0.01219345 
  691000    291.00987    2930.7416        24389    26.821886 -0.00035500379 -0.006728684  0.012661228 
  692000    294.61874      2367.41        24389    27.295998 0.0047639011 0.0060847889 0.0067044913 
  693000    296.63262    5061.1051        24389    27.876321 -0.0099710647 -0.0066540639 -0.0049001832 
  694000    296.86864     5001.387        24389    27.697932 -0.015989142  -0.01145696  0.015637256 
  695000    299.81195    3483.2158        24389    27.537843 -0.011371242 0.0041669859 -0.0063824134 
  696000    299.57423      3532.76        24389    27.186139 0.0084770075 -0.0075957817 0.0049715928 
  697000    295.19987    5130.5915        24389    27.362481 0.0050744322 0.0082371204 -0.0062950789 
  698000    289.00806    3710.1812        24389    28.223745 0.0022750764 0.0095017638 0.0061648885 
  699000    296.04998     1401.591        24389    29.024148 -0.002824385 0.00060108828 -0.0004408645 
  700000    297.89387    6082.9958        24389    29.202376  0.010837559 -0.014727641 -0.013680352 
  701000    299.81642     7193.468        24389    29.171729  0.002906668 0.0056218335 -0.0032329026 
  702000    296.64067    5222.2336        24389    29.519299 0.0054184919 -0.0085867747 0.0013810138 
  703000    291.58446    1079.4701        24389    29.464299 0.0078711479 0.0022891312 -0.011501902 
  704000    293.76257    4209.7808        24389    29.514937  0.012315217 -0.0048970389  0.010175007 
  705000    293.66303    6958.4511        24389    28.842241 -0.00016994741 -0.014450565 0.0097935862 
  706000    300.72082    5412.5114        24389    27.830272 0.0031995837  0.013033911 0.0053945819 
  707000    292.83686    1445.7102        24389    27.203188 0.0076825784 0.00092732533 -0.0075291348 
  708000    299.20698     5379.249        24389    27.223132  0.010711636 -0.004914332 0.0023943995 
  709000    294.08784    8088.5586        24389    28.148594 0.00027805363 0.00045792601 0.0020130523 
  710000    291.13829    3742.4039        24389    29.351391 -0.011455509 -0.00018056073 0.0031208005 
  711000    295.22302    2777.9705        24389    30.741876  0.011817071 0.0087106226 0.0070579979 
  712000    295.96454    5325.5551        24389    30.951442 -0.0071064613 -0.0017565087 0.0008588823 
  713000    291.84076    6286.1946        24389    30.109163 -0.00097195356  0.011637388 -0.015600757 
  714000    296.43068    4166.3969        24389    28.915519  0.013316478 -0.010272047  0.015086409 
  715000    300.80193    1709.4633        24389    27.550038 -0.0049280472 -0.013355434 0.0030685567 
  716000    297.09401    4629.2617        24389    26.897995 -0.0094961821  0.010932058 -0.0067245573 
  717000    292.76293    6425.7293        24389    26.769336  0.008056844 -0.015053178 -0.0016355377 
  718000    292.68717     6087.447        24389    27.261931  0.018343498 0.0046739533 0.0053836026 
  719000    299.42707    904.54352        24389    28.103674 -0.010869081 -0.0052047285 -0.0090181152 
  720000    297.82365    3538.1883        24389    28.557497 0.0076561949 0.00062368614   0.01363527 
  721000    295.35941       8475.8        24389    28.663635 -0.00086327318  -0.01124811  0.005116535 
  722000    299.04741    7766.3776        24389    27.994749 -0.0082400086 0.0068976903 -0.0072668709 
  723000    300.59858    1335.0423        24389    27.638363 0.0054901802 -0.0078812593 0.0043020601 
  724000    303.23165    2267.3936        24389    27.050795 0.0039663391  0.015215605 -0.00094180921 
  725000    300.64194    7274.0754        24389    26.638543 -0.011874362 0.0054081071  0.010827827 
  726000    295.70321    3517.1497        24389    25.979301  0.012851157 0.0059205526 0.0075568028 
  727000    292.48935    2585.4193        24389    26.100657 -0.011372383  0.019186751 -0.0032699953 
  728000    289.84548    3005.5391        24389     27.14878 -0.0010039687  0.017531801  0.014328227 
  729000    295.31445     2731.386        24389    28.308379 0.0023794079 0.0058915785 0.0078953586 
  730000    292.80202    5304.9427        24389     29.24144  0.001257784 0.0087042788 0.0095532227 
  731000    291.80967    5152.5918        24389    29.529136 0.0083332603 -0.0070680115 -0.0041775845 
  732000     294.3514    3978.8539        24389    29.211789 -0.0064434635  0.013216937  0.009694733 
  733000    293.39597     4491.803        24389    29.109231 -0.00035895754 0.00012853099 -0.0063860771 
  734000    296.51687    5029.0731        24389    28.949233 -0.00090240074 0.0076146736 -0.0013100701 
  735000    296.39785    4693.8586        24389    28.683604  0.005048119 -0.013590777 -0.008113802 
  736000    297.78088    1956.5225        24389    28.554592 -0.0098347795  0.013076068 -0.0018222887 
  737000    299.70403    3175.3207        24389    28.561764 0.0044978115 9.4311383e-05 0.0028636203 
  738000    295.26697    5419.9898        24389    28.693246 -0.0069531364 0.0069375469 0.0094955481 
  739000    298.46746    3978.6066        24389    28.613292 -0.0079383592 -0.0032724355 -0.0076466169 
  740000    291.26867    2201.2211        24389    28.406119 -0.010333903 0.0030180061 -0.0014213794 
  741000    291.47276    3336.9916        24389    28.453056 -0.0027170067 -0.0010154888 0.0044223452 
  742000    297.12542    5110.3393        24389    28.436352  0.014213696 0.0029322144 -0.0019522266 
  743000    299.79144    6049.9941        24389    28.476996 0.0041097827 0.0081736286 -0.012002387 
  744000    298.43161    4022.2798        24389    28.367013 7.8272202e-05 -0.0041158458 0.0057082238 
  745000     290.8992    1388.8629        24389    27.542177 -0.0013562136 -0.0091398989 0.0058432315 
  746000    292.98955    3088.8655        24389    26.503007 0.0085302904 -0.0059250555 0.00021394109 
  747000    292.58424    4158.6593        24389    26.411332 0.0013971808 -0.003418175 -0.0068503354 
  748000    297.47915    7797.8422        24389    26.763638 -0.006775735 -0.0065340411 -0.007708489 
  749000    290.60456    2771.2509        24389    27.028032 0.0084784517 -0.0059193433 0.0064325101 
  750000     295.1776    2124.2397        24389     27.40167 0.0041813541 -0.0033700909 -0.00012303741 
  751000    300.13304    5540.4609        24389    27.039986 -0.019699587 -0.012395935 -0.0019781481 
  752000    297.28136    6201.3401        24389    26.195242 -0.0050176343 -0.0049919779 0.0048994102 
  753000    306.12443    3918.5637        24389    25.405893 -0.015736396 -0.0040101543 -0.0020616941 
  754000     294.5602    1314.4361        24389    24.803471  0.017277508 -0.0043808059 -0.00019139441 
  755000    295.50248    5302.8164        24389    24.756689 0.0052379026 -0.0051335262  0.021218373 
  756000     297.3798    7052.8883        24389    25.136518  0.016005191 -0.011485553  0.013707734 
  757000    302.84064    3489.6704        24389    25.996666  0.015823336 -0.0093844868 -0.0058434241 
  758000    291.05504    2425.4304        24389    26.717364 0.0024486774 0.0079898997 0.0051675111 
  759000    300.88532    4111.7332        24389     27.38161 -0.017942922 -0.0019071769 0.0031408095 
  760000    290.89244    7431.8771        24389    28.086953 -0.014887606   0.01398575  0.015029001 
  761000    297.97702    3273.6102        24389     28.37739 -0.0040397327 -0.012000282 -0.0076253651 
  762000    301.65873    2636.5958        24389    28.613202 -0.0030056924 0.0059975133 -0.00028713677 
  763000     290.0872    5346.4505        24389    27.963073 -0.0092237335  0.012800109 -0.0011501174 
  764000    296.85829    4607.6756        24389    27.183617 0.0090812723 0.0054001261 0.00014681796 
  765000    294.76388    4532.5316        24389    26.816003 -0.0046423198 -0.011959308  0.019373026 
  766000    292.29877    3862.6903        24389     26.98975 0.0069499398  0.016588446  0.019594201 
  767000    292.32602    3471.6614        24389    27.521651 0.0021454209  0.012198267  0.013403279 
  768000    299.56979    4223.5144        24389    28.003407 -0.0031096458 0.0010263172 -0.0014275741 
  769000     288.8158    6159.7689        24389     27.94711 -0.0043743566 -0.010613683 0.0040061248 
  770000    292.43357    6340.3179        24389    27.763144 0.0044332697  0.004599945  0.005798945 
  771000     301.8566    2500.3167        24389    27.351599 -0.0094588591 -0.0038540144 -0.0027193562 
  772000    292.94441    1813.7321        24389    27.544179 0.0019318416 -0.0029897076 -0.0027474967 
  773000    288.88371    6098.6467        24389    28.126987 -0.0052130977 -0.0052576313 -0.016852861 
  774000    290.80784    8181.5508        24389    28.267796 -0.012645101 -0.0066504143 -0.0030791089 
  775000    298.17829    4879.8061        24389      28.3317 -0.010812014 -0.0061667129 0.0084698244 
  776000    290.81696    1999.6834        24389    28.816496 0.0024988969 0.0021550459 -0.008425245 
  777000    300.12045    2424.6903        24389    29.480697 -0.004996104 -0.010143692 -0.005834078 
  778000    297.19794    7120.9681        24389    29.303485 -0.001561549  0.012933329 0.00097073738 
  779000    296.50143    4784.0113        24389    28.777139 0.0040609948  0.020439678 0.0040075544 
  780000    298.77373    3020.1326        24389    28.556354 -0.0061712982 9.2037455e-05 -0.012555671 
  781000    296.38325    4226.9947        24389    28.713145 -0.0026164462 0.0016388333  0.013796243 
  782000    302.47528    7076.0409        24389    29.410822  0.007953493 -0.0026524725 0.0018563639 
  783000    296.22808    3079.4766        24389    29.413521  0.012374313 0.0040570518 -0.0044185236 
  784000    298.05918    3190.5647        24389    29.547088  0.017299027 -0.00019495867 -0.0025107802 
  785000    296.28583    2786.5047        24389    29.585462 -0.0038957817 -0.0059739855 -0.0046487222 
  786000    295.15911    4813.8144        24389    29.039325 -0.0091136437 -0.0043098313 -0.0044152531 
  787000    295.53626    4211.6778        24389    28.264779 -0.0064276029 0.0033945955 0.0030066114 
  788000    296.73314      5082.89        24389    27.773552 -0.012856318 -0.0011525521  -0.01415449 
  789000    291.40578    3848.2076        24389    27.886136 -0.0068129896 0.0013519749 0.0071963126 
  790000    297.92745     3691.137        24389    28.172704 -0.0091158586 -0.0074073387  0.018703711 
  791000    301.66001    3758.3955        24389    28.302537 0.0024481625 -0.0014784461 0.0049123826 
  792000    291.96102    3899.1585        24389    28.446746 0.0063331807 -0.012578132 0.0033088904 
  793000    297.03328    5764.9489        24389    28.233445 -0.0059788985 0.0082198791 0.0089484756 
  794000    297.91115    5152.8068        24389    28.008119 -0.0033437169  0.010628861 0.0035444633 
  795000    295.95762    2204.7563        24389    27.857157 0.0044713068 -0.0030344777 -0.0019632837 
  796000    297.64603    2968.7642        24389    27.711289 -0.0048851582 -0.015203478 -0.0017294815 
  797000    293.18433    4670.2288        24389    27.328148  0.015648917 -0.0028837523  0.020839468 
  798000    293.81675    5240.0648        24389    26.764432 -0.00063672514 -0.0074563258 -0.0012073044 
  799000    292.12295    2587.3105        24389    26.506855 -0.0026780332 -0.0096453953 -0.00027114091 
  800000    299.25576     3141.363        24389    26.622221 -0.0082784617 -0.007183993 0.0011639145 
  801000     289.5143    5064.5242        24389     26.77701 0.0082948463 -0.0064996481 -0.011271281 
  802000    295.81004     6055.192        24389    26.541081 -0.0029618407 -0.0088006613 0.0064677179 
  803000    294.19892    2465.7116        24389    26.759061 0.0058390537 -0.013512494  0.010398996 
  804000    292.67857    3252.3303        24389    27.124839 0.0064257655 -0.0064956159  0.013375919 
  805000    297.33282    5573.6997        24389    27.903897 0.0040863052 -0.0054766193   0.01390919 
  806000    296.57366    6888.2238        24389    28.258807 0.0033582794 -0.0027022478 0.00098512252 
  807000    296.70793    4698.8053        24389    28.439846 -0.0048327981  -0.00108151  -0.01010556 
  808000    294.13002    3138.9966        24389    28.511728 0.0057916618 -0.0024538057 -0.0048836855 
  809000    294.51583    4239.7675        24389    28.157135 0.0018300299 -0.0064326669 -0.0066934774 
  810000    294.41299    5633.1983        24389    27.797106 0.0010201208 -0.0033939095  0.012037168 
  811000     291.8581    4377.2882        24389    27.120684 -0.0033785364 -0.013378859 0.0066431445 
  812000    293.35712    2482.0653        24389    26.760514  0.016873675 -0.0034358873 -0.00014025212 
  813000    294.07664     3118.495        24389    26.549257  0.014282373 0.0036782107 0.0020258821 
  814000    294.77244    3883.2966        24389    26.184717  0.010791258 -0.018288734 -0.005156475 
  815000    290.77851    4778.2432        24389     26.13958 -0.0054396532  0.011079227  0.013268597 
  816000    300.81722    4559.7565        24389    25.938968 -0.005088144  0.005614313 -0.0085528309 
  817000    293.67811    3891.7526        24389    25.810563 0.00064019142 0.0028763165 -0.0054583129 
  818000    295.23436    3547.9446        24389    25.804577 0.0018949958 -0.0024967747  -0.01529093 
  819000    294.90546    6554.3132        24389    25.589889 -0.012562872 -0.0055819386 0.0016134839 
  820000     294.7958    4689.3634        24389    25.408177 0.00045521257 -0.0082566007 -0.006334099 
  821000    291.85484     3982.873        24389    25.599913 -0.0015053522 0.0066794809 -0.0059611303 
  822000    292.24693    955.65292        24389    26.092334 -4.8788056e-05 0.0016455822 -0.0069145968 
  823000    294.82815     4371.454        24389    26.841568 0.0013102071 0.0014053985 -0.016223222 
  824000     295.8787    7350.5179        24389    27.755643  0.000960322  -0.01023686 0.0031873502 
  825000    297.73874    4449.7851        24389     28.07941 0.0038465196 -0.0026743981 -0.001563836 
  826000    294.78239    1897.2097        24389    27.514708 0.0016073628 -0.0024263657 0.0052937165 
  827000    290.41468    4151.5875        24389    27.387845 0.0039067938 -0.011060943 -0.015755771 
  828000    293.34755    6765.5976        24389    27.274691 -0.014683189 -0.0037479046 0.0028055741 
  829000    297.40816    2961.0015        24389    27.298031  0.010078893 0.0009975466   0.01682083 
  830000     292.7229    4387.3303        24389    27.203298  0.011011907 -0.0091983661 0.0073779962 
  831000    286.73634    4515.3775        24389    26.537672 0.0058564771 -0.0023877762 -0.00087765096 
  832000     293.5627    4950.0206        24389    26.119985 -0.010096403 -0.0062427401 0.00092772922 
  833000    294.35756    3367.6545        24389    26.735018 -0.0076519785 0.0078357228 0.0054734766 
  834000    293.78296    4678.2941        24389    27.005448 0.0034075746 0.0008196453  0.017518999 
  835000    295.39774    6975.5332        24389    26.713071   0.01210131  0.013102046 -0.008829143 
  836000    291.59924    5957.4717        24389    25.728531 0.0044161459 0.0018177278 0.0038789951 
  837000    289.08876    1280.2328        24389    25.467279 -0.0028255568 0.0010335767 -0.0082543231 
  838000    293.56947    2702.0811        24389    25.688034 -0.009330616  0.001411498 0.0085772412 
  839000     291.7888    6234.5868        24389    26.809789 0.0041915327 0.0080006122 0.0031478964 
  840000    299.96073    4027.7854        24389    27.406742  0.010928342 0.0058401123 1.4920804e-05 
  841000    296.55387    3052.2229        24389     27.69045 0.0052265525 -0.0021289367 -0.0035647156 
  842000     293.7322     3254.913        24389    27.707749 -0.0012952161 -0.013123184 0.0016212733 
  843000    299.27165    4177.1184        24389    27.543659 0.0044241499 -0.0014325862   0.01162758 
  844000     299.5205    4727.3101        24389    27.579686 -0.0061040552 -0.0071631545 -0.0051685458 
  845000    293.97963    3802.6055        24389    27.855912 -0.0043122096 -0.0062595426 -0.0069462503 
  846000    291.05919    4974.2855        24389    27.858618    0.0127403 -0.0060914155 0.0042429229 
  847000    290.80242    4277.9757        24389    27.806576  0.019567974 0.00055166752  -0.00275915 
  848000    284.04027    4206.9384        24389    27.295464  0.010589789  0.005737942 0.00081966048 
  849000    299.48318    4480.6279        24389    26.947833 0.0080640599  0.002711209 -0.00094913333 
  850000    300.46958    5745.2391        24389    26.260848 -0.0046388574  0.002661949  0.017002879 
  851000    294.43329    2860.9079        24389    25.254462 -0.007439324 0.0058556842  0.015399392 
  852000    289.17644    5829.8334        24389    24.441607  -0.01571031 -0.0041657182 0.0022283565 
  853000    298.84849    2999.1547        24389    23.958179  0.013377663 -0.016211528 0.0030864778 
  854000    296.81292    1399.4885        24389     23.94345 -0.0038098483 -0.016668543  0.004744654 
  855000      288.983    2921.2373        24389    23.799064 -0.00093422963 -0.0051763455  0.010007017 
  856000    290.21891    5732.7914        24389    23.849092 0.00017371532  0.006837233 -0.0055083157 
  857000     297.7924    6842.9613        24389    24.150123 -0.0011659288 -0.0033243744 -0.0017631284 
  858000    306.00753    2940.8854        24389    24.602585 -0.0022744907 -0.0015718459 -0.00040407196 
  859000    299.43373    1096.8842        24389    25.247551 0.0070031884     0.001762 0.0048285371 
  860000    302.49999    3865.7567        24389    25.835276 0.0010006908  -0.01247633 0.0076397327 
  861000     293.5388    5913.8406        24389    26.373623   0.01542417 0.0020461669 0.0031618512 
  862000    291.81589    3148.7441        24389    27.170259 -0.0020680134 0.0002956565 0.0090414784 
  863000    298.74203    3720.1733        24389    27.281879 -0.0038441808 0.0037811248 -0.013303069 
  864000    298.51572    4297.8804        24389    27.122805  0.002082556 0.0085768917 0.0064258203 
  865000    290.06189    4489.6082        24389    26.741554  0.014160247 -0.00083331886 0.0075850825 
  866000    303.83288    5742.5007        24389    26.370654 0.00028019968 -0.0042402971 -0.00081898407 
  867000    298.50468     5443.367        24389     26.00193  0.015863651  0.001209203 0.0092467066 
  868000    295.19571    1941.4375        24389    25.954757 0.0023762864 -0.0054900266 0.0092129341 
  869000    296.19513    3662.9752        24389    26.693295  0.003787612 0.0012241636 -0.0019124692 
  870000    293.82791    6333.4971        24389    27.466875 -0.0047327033 -0.0077880125 0.0015938982 
  871000    292.69833    4224.4223        24389    27.910473 -0.00034927545 0.00057958665 -0.0066770185 
  872000    293.58836    1338.4489        24389     27.29166  0.002669778 0.0037431942  0.010366703 
  873000    296.24954    4051.6624        24389     26.88478 0.00073660778  0.010376524 -0.0033607599 
  874000    299.69782    6096.2541        24389    26.690102 0.00014042129 0.0058942483 -0.0019197469 
  875000    296.50759    3365.6962        24389    26.863726 -0.0020585265 -0.0099329388 -0.0043071599 
  876000    294.83388    3877.9985        24389    26.719195 0.0085650903 0.0047291239 0.00060589288 
  877000    295.42041    5071.9061        24389    26.736879 0.0085905375 -0.00018697047 0.0005056186 
  878000    295.14668    2494.2239        24389    27.126974 -0.00043824532 0.0070160724 -0.0049500012 
  879000    299.11603    4851.5556        24389     27.54794  0.002432746  0.002314498 -0.010643316 
  880000    286.25996    4845.8957        24389    28.284688 0.0021398973 0.0067519793 0.0043510966 
  881000    295.07217    2847.3592        24389    29.074131 0.0082504356 0.0061760259  0.005521646 
  882000    291.53559    2817.1363        24389    29.533689 0.00026801787 0.0046694572 0.0011350005 
  883000    293.90032    4888.4209        24389    29.306872 0.0070626704 -0.0055639054 0.0050148239 
  884000    290.53193    2548.5023        24389    28.913255 -0.0014090354 -0.010889815 0.0030510063 
  885000    296.29882    3248.1499        24389    28.617918 0.0076587277 0.0043920196 -0.0096280298 
  886000    294.72038    5842.7284        24389    27.972749 -0.0011819933 -0.0091508286 -0.00059638559 
  887000    294.83985    6106.7639        24389    27.591254 0.0083064439 -0.010862806 0.0065474342 
  888000    295.09452    2152.4474        24389    27.410322  0.011927336 -0.013367972 0.0068416305 
  889000    303.96043    3412.0594        24389    27.326889 -0.0002844259 0.0012410546  0.001424812 
  890000    291.62988    3774.6341        24389    27.847637  0.013210012 -0.011472358 -0.00011366286 
  891000    298.34043    4957.7979        24389     28.06471 -0.016551434 0.0034863953 -0.012200927 
  892000    300.10343     3000.594        24389    28.563527 -0.0033614237 -0.00014858026 0.0099647205 
  893000    293.87529    3485.5981        24389    28.770516 0.0025625131 -0.013036513 -0.010825193 
  894000    292.61833    3645.8214        24389    28.761956  0.006676649 -0.0038308838 0.0020759513 
  895000     294.4037    6083.2395        24389     28.64072 -0.0016952778 0.0057934655  0.010556638 
  896000    297.21378    4853.0365        24389    28.809231 -0.0020762287 -0.0083576462  0.011236944 
  897000    300.90314    1551.5827        24389    28.846101 0.0039827338 0.0054256723 0.00060635689 
  898000    300.49563    4936.7968        24389    28.761699  0.009036049 0.0035408337 0.0038823384 
  899000    298.05143    4865.1413        24389    28.796506 -0.0061177432 0.0020665793 0.0039886539 
  900000    296.94507    3621.2315        24389     28.80963 -0.018935252 0.0044412436 0.0038443328 
  901000    298.70535    3268.8523        24389    28.854118  0.011475759 0.0032435119 -0.010274285 
  902000    298.08689    3409.2664        24389    28.541902 -0.0077937885   0.00777226 0.00024778975 
  903000    292.06779    3281.6138        24389    28.104045 -0.0097827679 -0.006252603 -0.0059991401 
  904000    296.60178    5168.3786        24389     27.66624 0.0015621873 -0.0085869063 0.0029288538 
  905000    296.17444    2965.7462        24389    27.219969 0.0004984903 -0.0044983337 -0.0018957678 
  906000    294.04767    1800.7473        24389    27.183575 0.0060936734 0.0049078096 -0.0039903504 
  907000     289.5875    4708.3657        24389    27.271047 -0.0058485374 0.0080704036 -0.0029856134 
  908000    285.07952    5181.2852        24389    27.679407 0.0017892785 0.0087991645  0.013629268 
  909000    293.38509     7407.277        24389    28.425409  0.012617696 -0.0051982122 0.0038495591 
  910000    296.30503    4689.5443        24389    29.156088 0.0089132933 -0.006478187  0.004353478 
  911000    293.83123     2348.397        24389    29.298082 -0.006418852  0.011852108 -0.0036935585 
  912000    302.55975    2165.1358        24389     28.48373 -0.0093201876 -0.0097179748 -0.00085736496 
  913000    297.64027     4813.224        24389    28.147656 0.0013137066   0.01349933 -0.015121956 
  914000    302.56718     3823.025        24389    28.759024 0.0020086597  0.004396229 0.0081095318 
  915000    294.64372    1549.8024        24389    29.239159 -0.013327933 0.0038895369 -0.0036718589 
  916000     294.6013    3829.2094        24389    29.342961 -0.013143829 -0.0014760706  0.007747435 
  917000    294.22671    4588.3837        24389    28.991123 0.0012342693 -0.00088846427 -0.005273213 
  918000    294.48062    5443.8717        24389    28.491812 0.0056478029 -0.0058982802  0.010084953 
  919000    297.13555    4026.0192        24389    28.411421 -0.0090172117 0.0041888517  0.001794072 
  920000    287.54612    5044.1622        24389    27.663264 -0.0088070894 -0.004804078 -0.019020642 
  921000    295.26644    3728.5259        24389    26.792879 0.0078901988 -0.00060641317 0.0085574797 
  922000    293.40511    2122.8128        24389     25.99959 0.0056460725 0.0074289386 0.0075814063 
  923000     295.0494    4291.7904        24389    25.697861 0.0046560404 -0.0026050972 0.0064639087 
  924000    297.42579    4326.1381        24389      26.2086 -5.5474502e-05 -0.0065050421 0.0039846209 
  925000    298.19887    559.31535        24389    26.077198 0.0036178217 -0.0050770748  0.017894838 
  926000    296.90215    3789.5634        24389    26.386988 0.0013427729  0.018717283 0.0047608744 
  927000    296.57072    5182.0924        24389    26.553979 0.0057900216  0.009063808 -0.0023178867 
  928000    293.34488    4017.9936        24389    26.210278 -0.0063510789 0.0072952164 0.0034947396 
  929000    295.98419    4710.4055        24389    25.908077 0.0036260083 -0.012271562 0.0050735439 
  930000    288.76148    3298.5523        24389    25.723303 -0.0044594208 0.0037887489 -0.010275211 
  931000    293.82177    3377.6532        24389     25.66725  0.013746443 -0.0052077949 -0.0073916546 
  932000    294.80089    5072.8474        24389    26.063692 0.0058259653 0.0014718505 -0.018008014 
  933000    294.69299    2978.3348        24389    26.722199 0.0042740783 0.0013996264 0.0058662582 
  934000    292.25175    3366.7121        24389    27.298761 -0.013185158 -0.0025665995 0.0055152796 
  935000    298.39165    4638.0651        24389    27.419108 -0.0093760721 0.00077243823  0.012876586 
  936000    292.69431    4354.9689        24389    27.133534 -0.0012903016 0.0042665555 -0.00026930886 
  937000     294.0583    1777.4885        24389    27.001597 -0.0092905557 0.0041656352 -0.0018596776 
  938000    296.16998    4919.9391        24389    26.768558  0.012028694 -0.00073291535  0.013392302 
  939000    291.84736     7338.486        24389    26.791471 -0.0022350821 -0.0029319809 -0.0029731683 
  940000    292.17521    3634.3272        24389    26.734676 -0.0066197489 0.0088593836 0.0055821873 
  941000    292.43539    923.99018        24389    26.795002 -0.0060085393  0.009425473 -0.0021390088 
  942000    291.09394    2565.2932        24389    26.649584 -0.0029596505 0.0017838099 0.0057497356 
  943000    294.68719    5738.6563        24389    26.110804 -0.00025097556 0.0016405791 -0.0028488023 
  944000     293.0595    3728.9019        24389    25.729027 0.0016667344 -0.0097559448 0.0035378692 
  945000    294.91216    2227.2753        24389    25.548489 -0.00083434389 -0.012125407 -0.0039576688 
  946000    294.54075    4680.4341        24389    25.844973  0.011764517 0.0005787589 0.00084517993 
  947000    298.46417    5770.0588        24389    26.456632 0.0064553572 -0.0069504389 0.0093175742 
  948000    299.15958    6366.1074        24389    27.314293 0.0020043481 0.00079728239 -0.0096927346 
  949000    295.63328    2618.6239        24389    28.260405  0.010854982 -0.0064661138 -0.0049967279 
  950000    297.46624    3084.1935        24389    28.842833  0.016564238 -0.0068201371 -0.001754416 
  951000    293.75487    5843.5759        24389    29.153227 0.00023428899 0.0042729491 -0.00031122493 
  952000    298.03277    7290.2069        24389    29.281017 0.0056840667 -0.0026350308 -0.0091304994 
  953000    297.57592    2133.9989        24389    29.525884 -0.0099866723 -0.0041291623 0.0074675286 
  954000    296.30384    1328.7771        24389     29.97656  0.002885119 0.00037837938  0.005871679 
  955000     298.8829    3959.6008        24389    29.914054  0.012529969 -0.0052980533  0.016517127 
  956000    286.58345    5514.7082        24389    29.294965 0.0070534445 0.0055796316 0.0096750051 
  957000    293.88175    5782.5865        24389    29.164584 -0.0094602087  0.001429708 -0.0086004852 
  958000    290.44359    3754.9481        24389    29.285221 0.0015869355 -0.011531765 0.0012358948 
  959000    294.35586    767.15663        24389    29.784826  0.010661152 -0.0065299656 -0.0035996002 
  960000    299.03216    3382.6332        24389    30.038463  0.013880418 0.0040963594 -2.8961083e-05 
  961000    296.18793    7054.4687        24389    29.716566 0.0040922611 0.0033906767 0.00036911008 
  962000    293.98195    6333.5052        24389    29.922845 -0.014701497 -0.003531157 0.0079064918 
  963000    294.30779    6034.3433        24389    30.483166  0.007641448 0.0040846994 0.0047322308 
  964000    291.09353    2104.3665        24389    31.067831 -0.0023955029 0.0018463088 0.0029960799 
  965000    298.12158    1551.7269        24389    31.569245  0.019646905 -0.022977817 -0.0053797792 
  966000    299.72705    2561.2983        24389    31.629034 0.0076308046 -0.0035726783 -0.0082983682 
  967000    301.49745    5942.1384        24389    31.086982  0.018854756 0.0035070065 -0.018065514 
  968000    292.78555    5299.2351        24389    30.103995 -0.0052535154 -0.0091245415 -0.007389006 
  969000    289.49096    4003.1549        24389    28.996564 -0.010546022 -0.0096293285 -0.0035798519 
  970000    301.25247    3262.9793        24389     28.05608 0.0090939708 0.0016498982 -0.0040877625 
  971000    299.36152    2670.8877        24389    27.543587 -0.00016628959 -0.0026012257 0.0031304543 
  972000    304.09371    5489.9141        24389    27.320948 -0.0065107086  0.012000241 -0.0013793804 
  973000    305.23748    5233.6022        24389     27.20965 -0.016815208  0.013692255  0.011993899 
  974000    293.42822    3358.1408        24389    27.013185 -0.0032547644 0.0050028361 -0.00077274103 
  975000    297.15138    3533.8473        24389      27.0482 0.0021486444 -0.0021090913 -0.010331002 
  976000    297.95734    2312.1987        24389    27.301019 0.0020745988 0.0009541538 0.00028427939 
  977000    296.62572    5076.4798        24389    27.474406 -0.0093449643 0.0031781429  0.011604483 
  978000    290.50536    5379.8398        24389    27.652069 -0.011004804 -0.0023776013  0.006587276 
  979000    290.80127    7491.0337        24389    27.864616 0.0036721876 -0.015460904 -0.013959635 
  980000    296.85493    792.12041        24389    28.207057 0.0068182272  0.005041766 -0.0039587147 
  981000      298.012    979.33174        24389    28.555599 0.0049172603 0.0024979151  0.011954982 
  982000    297.66517    4712.1553        24389    28.809131 0.0082358141 -0.00060394233 -0.009213949 
  983000    297.96068    8156.5637        24389    29.016645 -0.0060949746 0.0025587906 0.00018777672 
  984000    294.80914    5008.3559        24389    28.658656 -0.00052336305 -0.0062910811  0.012880244 
  985000    299.47677     1963.415        24389    28.380079 -0.0034449761 -0.0010986984 0.0074686745 
  986000    293.50106    2151.6547        24389     27.97198  0.009792144 -0.0052199698  0.014984256 
  987000    292.52667      4200.21        24389    26.965796 0.0072227887 0.0065395568   0.01183688 
  988000      291.997    3532.7043        24389    26.121672 -0.0031909858 0.00037674347 -0.003826256 
  989000    297.01676    3486.6099        24389    26.260482 0.0016849337 0.0086209577  0.013948682 
  990000    292.95862    3813.2206        24389    26.776553 0.0053784683 -0.018760576 -0.005215317 
  991000    296.81303    2033.0312        24389    27.805291 -0.0023967972 -0.011208011  0.014573133 
  992000    290.14894      1219.06        24389    29.145627 -0.017951572 -0.0041721163 0.00040272591 
  993000    297.32138    4823.4221        24389    30.766035  0.006791456 -0.0009246563 -0.008285608 
  994000    298.17579    6602.3304        24389     31.90813   0.01288981 -0.0048871157 -0.0057068259 
  995000     287.7522    4026.8797        24389    31.928515  0.002113021 -0.0074649008 -0.010894301 
  996000    287.72765    2586.8416        24389    31.055372 0.0031285334  0.012084898 0.0014880961 
  997000      292.965    2711.5683        24389    29.773581 -0.0016662592 -0.00016359658 -0.0018638506 
  998000    295.68657    3331.6339        24389    28.396996 -0.00089386767 -0.0036017419 0.0051919209 
  999000    292.63708     2928.076        24389    27.569175 0.00028978049 0.0035341162 0.00088081544 
 1000000    289.68939    3943.6563        24389    27.211061 -0.0065208518 -0.0031187577 0.0044037871 
Loop time of 21529.2 on 16 procs for 1000000 steps with 1920 atoms

Pair  time (%) = 18880.3 (87.6962)
Bond  time (%) = 0.493696 (0.00229314)
Neigh time (%) = 44.3259 (0.205887)
Comm  time (%) = 2056.45 (9.55192)
Outpt time (%) = 2.81324 (0.0130671)
Other time (%) = 544.821 (2.53061)

Nlocal:    120 ave 125 max 113 min
Histogram: 1 0 1 1 2 2 3 3 2 1
Nghost:    4888.81 ave 4938 max 4833 min
Histogram: 2 0 1 1 4 0 4 1 1 2
Neighs:    51747.9 ave 53484 max 48665 min
Histogram: 1 0 1 1 2 2 2 1 1 5
FullNghs: 103496 ave 107977 max 97556 min
Histogram: 1 0 1 3 1 1 2 4 2 1

Total # of neighbors = 1655932
Ave neighs/atom = 862.465
Ave special neighs/atom = 0
Neighbor list builds = 5223
Dangerous builds = 0
#	run			10000
	unfix			1
	uncompute		myKE
	uncompute		myPE
	uncompute		myStress
	uncompute		flux
	uncompute		myDis
	unfix			JJ

	next seed
	next iseed
jump lmp.in.gk loop_seed
variable iseed loop 10
variable seed index 11111 22222 33333 44444 55555 66666 77777 88888 99999 11110
clear
###########################################################################
#x0
###########################################################################
units 			metal
atom_style		full
read_data		fort.26
  0 = max bonds/atom
  0 = max angles/atom
  0 = max dihedrals/atom
  triclinic box = (0 0 0) to (29 29 29) with tilt (0 0 0)
  2 by 2 by 4 processor grid
  1920 atoms
  0 bonds
  0 angles
  0 dihedrals
  0 = max # of 1-2 neighbors
  0 = max # of 1-3 neighbors
  0 = max # of 1-4 neighbors
  1 = max # of special neighbors
group         		C type = 1
60 atoms in group C
###########################################################################
#OLPS
###########################################################################

################################################################################
#### Pair potentials
################################################################################
pair_style hybrid/overlay tersoff lj/cut 12.0
pair_coeff * * tersoff C.temp.tersoff 1 2 3 4 5 6 7 8 9 10 11 12 13 14 15 16 17 18 19 20 21 22 23 24 25 26 27 28 29 30 31 32
pair_coeff 1 2 lj/cut 0.00070000000 3.5500000000
pair_coeff 1 3 lj/cut 0.00070000000 3.5500000000
pair_coeff 1 4 lj/cut 0.00070000000 3.5500000000
pair_coeff 1 5 lj/cut 0.00070000000 3.5500000000
pair_coeff 1 6 lj/cut 0.00070000000 3.5500000000
pair_coeff 1 7 lj/cut 0.00070000000 3.5500000000
pair_coeff 1 8 lj/cut 0.00070000000 3.5500000000
pair_coeff 1 9 lj/cut 0.00070000000 3.5500000000
pair_coeff 1 10 lj/cut 0.00070000000 3.5500000000
pair_coeff 1 11 lj/cut 0.00070000000 3.5500000000
pair_coeff 1 12 lj/cut 0.00070000000 3.5500000000
pair_coeff 1 13 lj/cut 0.00070000000 3.5500000000
pair_coeff 1 14 lj/cut 0.00070000000 3.5500000000
pair_coeff 1 15 lj/cut 0.00070000000 3.5500000000
pair_coeff 1 16 lj/cut 0.00070000000 3.5500000000
pair_coeff 1 17 lj/cut 0.00070000000 3.5500000000
pair_coeff 1 18 lj/cut 0.00070000000 3.5500000000
pair_coeff 1 19 lj/cut 0.00070000000 3.5500000000
pair_coeff 1 20 lj/cut 0.00070000000 3.5500000000
pair_coeff 1 21 lj/cut 0.00070000000 3.5500000000
pair_coeff 1 22 lj/cut 0.00070000000 3.5500000000
pair_coeff 1 23 lj/cut 0.00070000000 3.5500000000
pair_coeff 1 24 lj/cut 0.00070000000 3.5500000000
pair_coeff 1 25 lj/cut 0.00070000000 3.5500000000
pair_coeff 1 26 lj/cut 0.00070000000 3.5500000000
pair_coeff 1 27 lj/cut 0.00070000000 3.5500000000
pair_coeff 1 28 lj/cut 0.00070000000 3.5500000000
pair_coeff 1 29 lj/cut 0.00070000000 3.5500000000
pair_coeff 1 30 lj/cut 0.00070000000 3.5500000000
pair_coeff 1 31 lj/cut 0.00070000000 3.5500000000
pair_coeff 1 32 lj/cut 0.00070000000 3.5500000000

pair_coeff 2 3 lj/cut 0.00070000000 3.5500000000
pair_coeff 2 4 lj/cut 0.00070000000 3.5500000000
pair_coeff 2 5 lj/cut 0.00070000000 3.5500000000
pair_coeff 2 6 lj/cut 0.00070000000 3.5500000000
pair_coeff 2 7 lj/cut 0.00070000000 3.5500000000
pair_coeff 2 8 lj/cut 0.00070000000 3.5500000000
pair_coeff 2 9 lj/cut 0.00070000000 3.5500000000
pair_coeff 2 10 lj/cut 0.00070000000 3.5500000000
pair_coeff 2 11 lj/cut 0.00070000000 3.5500000000
pair_coeff 2 12 lj/cut 0.00070000000 3.5500000000
pair_coeff 2 13 lj/cut 0.00070000000 3.5500000000
pair_coeff 2 14 lj/cut 0.00070000000 3.5500000000
pair_coeff 2 15 lj/cut 0.00070000000 3.5500000000
pair_coeff 2 16 lj/cut 0.00070000000 3.5500000000
pair_coeff 2 17 lj/cut 0.00070000000 3.5500000000
pair_coeff 2 18 lj/cut 0.00070000000 3.5500000000
pair_coeff 2 19 lj/cut 0.00070000000 3.5500000000
pair_coeff 2 20 lj/cut 0.00070000000 3.5500000000
pair_coeff 2 21 lj/cut 0.00070000000 3.5500000000
pair_coeff 2 22 lj/cut 0.00070000000 3.5500000000
pair_coeff 2 23 lj/cut 0.00070000000 3.5500000000
pair_coeff 2 24 lj/cut 0.00070000000 3.5500000000
pair_coeff 2 25 lj/cut 0.00070000000 3.5500000000
pair_coeff 2 26 lj/cut 0.00070000000 3.5500000000
pair_coeff 2 27 lj/cut 0.00070000000 3.5500000000
pair_coeff 2 28 lj/cut 0.00070000000 3.5500000000
pair_coeff 2 29 lj/cut 0.00070000000 3.5500000000
pair_coeff 2 30 lj/cut 0.00070000000 3.5500000000
pair_coeff 2 31 lj/cut 0.00070000000 3.5500000000
pair_coeff 2 32 lj/cut 0.00070000000 3.5500000000

pair_coeff 3 4 lj/cut 0.00070000000 3.5500000000
pair_coeff 3 5 lj/cut 0.00070000000 3.5500000000
pair_coeff 3 6 lj/cut 0.00070000000 3.5500000000
pair_coeff 3 7 lj/cut 0.00070000000 3.5500000000
pair_coeff 3 8 lj/cut 0.00070000000 3.5500000000
pair_coeff 3 9 lj/cut 0.00070000000 3.5500000000
pair_coeff 3 10 lj/cut 0.00070000000 3.5500000000
pair_coeff 3 11 lj/cut 0.00070000000 3.5500000000
pair_coeff 3 12 lj/cut 0.00070000000 3.5500000000
pair_coeff 3 13 lj/cut 0.00070000000 3.5500000000
pair_coeff 3 14 lj/cut 0.00070000000 3.5500000000
pair_coeff 3 15 lj/cut 0.00070000000 3.5500000000
pair_coeff 3 16 lj/cut 0.00070000000 3.5500000000
pair_coeff 3 17 lj/cut 0.00070000000 3.5500000000
pair_coeff 3 18 lj/cut 0.00070000000 3.5500000000
pair_coeff 3 19 lj/cut 0.00070000000 3.5500000000
pair_coeff 3 20 lj/cut 0.00070000000 3.5500000000
pair_coeff 3 21 lj/cut 0.00070000000 3.5500000000
pair_coeff 3 22 lj/cut 0.00070000000 3.5500000000
pair_coeff 3 23 lj/cut 0.00070000000 3.5500000000
pair_coeff 3 24 lj/cut 0.00070000000 3.5500000000
pair_coeff 3 25 lj/cut 0.00070000000 3.5500000000
pair_coeff 3 26 lj/cut 0.00070000000 3.5500000000
pair_coeff 3 27 lj/cut 0.00070000000 3.5500000000
pair_coeff 3 28 lj/cut 0.00070000000 3.5500000000
pair_coeff 3 29 lj/cut 0.00070000000 3.5500000000
pair_coeff 3 30 lj/cut 0.00070000000 3.5500000000
pair_coeff 3 31 lj/cut 0.00070000000 3.5500000000
pair_coeff 3 32 lj/cut 0.00070000000 3.5500000000

pair_coeff 4 5 lj/cut 0.00070000000 3.5500000000
pair_coeff 4 6 lj/cut 0.00070000000 3.5500000000
pair_coeff 4 7 lj/cut 0.00070000000 3.5500000000
pair_coeff 4 8 lj/cut 0.00070000000 3.5500000000
pair_coeff 4 9 lj/cut 0.00070000000 3.5500000000
pair_coeff 4 10 lj/cut 0.00070000000 3.5500000000
pair_coeff 4 11 lj/cut 0.00070000000 3.5500000000
pair_coeff 4 12 lj/cut 0.00070000000 3.5500000000
pair_coeff 4 13 lj/cut 0.00070000000 3.5500000000
pair_coeff 4 14 lj/cut 0.00070000000 3.5500000000
pair_coeff 4 15 lj/cut 0.00070000000 3.5500000000
pair_coeff 4 16 lj/cut 0.00070000000 3.5500000000
pair_coeff 4 17 lj/cut 0.00070000000 3.5500000000
pair_coeff 4 18 lj/cut 0.00070000000 3.5500000000
pair_coeff 4 19 lj/cut 0.00070000000 3.5500000000
pair_coeff 4 20 lj/cut 0.00070000000 3.5500000000
pair_coeff 4 21 lj/cut 0.00070000000 3.5500000000
pair_coeff 4 22 lj/cut 0.00070000000 3.5500000000
pair_coeff 4 23 lj/cut 0.00070000000 3.5500000000
pair_coeff 4 24 lj/cut 0.00070000000 3.5500000000
pair_coeff 4 25 lj/cut 0.00070000000 3.5500000000
pair_coeff 4 26 lj/cut 0.00070000000 3.5500000000
pair_coeff 4 27 lj/cut 0.00070000000 3.5500000000
pair_coeff 4 28 lj/cut 0.00070000000 3.5500000000
pair_coeff 4 29 lj/cut 0.00070000000 3.5500000000
pair_coeff 4 30 lj/cut 0.00070000000 3.5500000000
pair_coeff 4 31 lj/cut 0.00070000000 3.5500000000
pair_coeff 4 32 lj/cut 0.00070000000 3.5500000000

pair_coeff 5 6 lj/cut 0.00070000000 3.5500000000
pair_coeff 5 7 lj/cut 0.00070000000 3.5500000000
pair_coeff 5 8 lj/cut 0.00070000000 3.5500000000
pair_coeff 5 9 lj/cut 0.00070000000 3.5500000000
pair_coeff 5 10 lj/cut 0.00070000000 3.5500000000
pair_coeff 5 11 lj/cut 0.00070000000 3.5500000000
pair_coeff 5 12 lj/cut 0.00070000000 3.5500000000
pair_coeff 5 13 lj/cut 0.00070000000 3.5500000000
pair_coeff 5 14 lj/cut 0.00070000000 3.5500000000
pair_coeff 5 15 lj/cut 0.00070000000 3.5500000000
pair_coeff 5 16 lj/cut 0.00070000000 3.5500000000
pair_coeff 5 17 lj/cut 0.00070000000 3.5500000000
pair_coeff 5 18 lj/cut 0.00070000000 3.5500000000
pair_coeff 5 19 lj/cut 0.00070000000 3.5500000000
pair_coeff 5 20 lj/cut 0.00070000000 3.5500000000
pair_coeff 5 21 lj/cut 0.00070000000 3.5500000000
pair_coeff 5 22 lj/cut 0.00070000000 3.5500000000
pair_coeff 5 23 lj/cut 0.00070000000 3.5500000000
pair_coeff 5 24 lj/cut 0.00070000000 3.5500000000
pair_coeff 5 25 lj/cut 0.00070000000 3.5500000000
pair_coeff 5 26 lj/cut 0.00070000000 3.5500000000
pair_coeff 5 27 lj/cut 0.00070000000 3.5500000000
pair_coeff 5 28 lj/cut 0.00070000000 3.5500000000
pair_coeff 5 29 lj/cut 0.00070000000 3.5500000000
pair_coeff 5 30 lj/cut 0.00070000000 3.5500000000
pair_coeff 5 31 lj/cut 0.00070000000 3.5500000000
pair_coeff 5 32 lj/cut 0.00070000000 3.5500000000

pair_coeff 6 7 lj/cut 0.00070000000 3.5500000000
pair_coeff 6 8 lj/cut 0.00070000000 3.5500000000
pair_coeff 6 9 lj/cut 0.00070000000 3.5500000000
pair_coeff 6 10 lj/cut 0.00070000000 3.5500000000
pair_coeff 6 11 lj/cut 0.00070000000 3.5500000000
pair_coeff 6 12 lj/cut 0.00070000000 3.5500000000
pair_coeff 6 13 lj/cut 0.00070000000 3.5500000000
pair_coeff 6 14 lj/cut 0.00070000000 3.5500000000
pair_coeff 6 15 lj/cut 0.00070000000 3.5500000000
pair_coeff 6 16 lj/cut 0.00070000000 3.5500000000
pair_coeff 6 17 lj/cut 0.00070000000 3.5500000000
pair_coeff 6 18 lj/cut 0.00070000000 3.5500000000
pair_coeff 6 19 lj/cut 0.00070000000 3.5500000000
pair_coeff 6 20 lj/cut 0.00070000000 3.5500000000
pair_coeff 6 21 lj/cut 0.00070000000 3.5500000000
pair_coeff 6 22 lj/cut 0.00070000000 3.5500000000
pair_coeff 6 23 lj/cut 0.00070000000 3.5500000000
pair_coeff 6 24 lj/cut 0.00070000000 3.5500000000
pair_coeff 6 25 lj/cut 0.00070000000 3.5500000000
pair_coeff 6 26 lj/cut 0.00070000000 3.5500000000
pair_coeff 6 27 lj/cut 0.00070000000 3.5500000000
pair_coeff 6 28 lj/cut 0.00070000000 3.5500000000
pair_coeff 6 29 lj/cut 0.00070000000 3.5500000000
pair_coeff 6 30 lj/cut 0.00070000000 3.5500000000
pair_coeff 6 31 lj/cut 0.00070000000 3.5500000000
pair_coeff 6 32 lj/cut 0.00070000000 3.5500000000

pair_coeff 7 8 lj/cut 0.00070000000 3.5500000000
pair_coeff 7 9 lj/cut 0.00070000000 3.5500000000
pair_coeff 7 10 lj/cut 0.00070000000 3.5500000000
pair_coeff 7 11 lj/cut 0.00070000000 3.5500000000
pair_coeff 7 12 lj/cut 0.00070000000 3.5500000000
pair_coeff 7 13 lj/cut 0.00070000000 3.5500000000
pair_coeff 7 14 lj/cut 0.00070000000 3.5500000000
pair_coeff 7 15 lj/cut 0.00070000000 3.5500000000
pair_coeff 7 16 lj/cut 0.00070000000 3.5500000000
pair_coeff 7 17 lj/cut 0.00070000000 3.5500000000
pair_coeff 7 18 lj/cut 0.00070000000 3.5500000000
pair_coeff 7 19 lj/cut 0.00070000000 3.5500000000
pair_coeff 7 20 lj/cut 0.00070000000 3.5500000000
pair_coeff 7 21 lj/cut 0.00070000000 3.5500000000
pair_coeff 7 22 lj/cut 0.00070000000 3.5500000000
pair_coeff 7 23 lj/cut 0.00070000000 3.5500000000
pair_coeff 7 24 lj/cut 0.00070000000 3.5500000000
pair_coeff 7 25 lj/cut 0.00070000000 3.5500000000
pair_coeff 7 26 lj/cut 0.00070000000 3.5500000000
pair_coeff 7 27 lj/cut 0.00070000000 3.5500000000
pair_coeff 7 28 lj/cut 0.00070000000 3.5500000000
pair_coeff 7 29 lj/cut 0.00070000000 3.5500000000
pair_coeff 7 30 lj/cut 0.00070000000 3.5500000000
pair_coeff 7 31 lj/cut 0.00070000000 3.5500000000
pair_coeff 7 32 lj/cut 0.00070000000 3.5500000000

pair_coeff 8 9 lj/cut 0.00070000000 3.5500000000
pair_coeff 8 10 lj/cut 0.00070000000 3.5500000000
pair_coeff 8 11 lj/cut 0.00070000000 3.5500000000
pair_coeff 8 12 lj/cut 0.00070000000 3.5500000000
pair_coeff 8 13 lj/cut 0.00070000000 3.5500000000
pair_coeff 8 14 lj/cut 0.00070000000 3.5500000000
pair_coeff 8 15 lj/cut 0.00070000000 3.5500000000
pair_coeff 8 16 lj/cut 0.00070000000 3.5500000000
pair_coeff 8 17 lj/cut 0.00070000000 3.5500000000
pair_coeff 8 18 lj/cut 0.00070000000 3.5500000000
pair_coeff 8 19 lj/cut 0.00070000000 3.5500000000
pair_coeff 8 20 lj/cut 0.00070000000 3.5500000000
pair_coeff 8 21 lj/cut 0.00070000000 3.5500000000
pair_coeff 8 22 lj/cut 0.00070000000 3.5500000000
pair_coeff 8 23 lj/cut 0.00070000000 3.5500000000
pair_coeff 8 24 lj/cut 0.00070000000 3.5500000000
pair_coeff 8 25 lj/cut 0.00070000000 3.5500000000
pair_coeff 8 26 lj/cut 0.00070000000 3.5500000000
pair_coeff 8 27 lj/cut 0.00070000000 3.5500000000
pair_coeff 8 28 lj/cut 0.00070000000 3.5500000000
pair_coeff 8 29 lj/cut 0.00070000000 3.5500000000
pair_coeff 8 30 lj/cut 0.00070000000 3.5500000000
pair_coeff 8 31 lj/cut 0.00070000000 3.5500000000
pair_coeff 8 32 lj/cut 0.00070000000 3.5500000000

pair_coeff 9 10 lj/cut 0.00070000000 3.5500000000
pair_coeff 9 11 lj/cut 0.00070000000 3.5500000000
pair_coeff 9 12 lj/cut 0.00070000000 3.5500000000
pair_coeff 9 13 lj/cut 0.00070000000 3.5500000000
pair_coeff 9 14 lj/cut 0.00070000000 3.5500000000
pair_coeff 9 15 lj/cut 0.00070000000 3.5500000000
pair_coeff 9 16 lj/cut 0.00070000000 3.5500000000
pair_coeff 9 17 lj/cut 0.00070000000 3.5500000000
pair_coeff 9 18 lj/cut 0.00070000000 3.5500000000
pair_coeff 9 19 lj/cut 0.00070000000 3.5500000000
pair_coeff 9 20 lj/cut 0.00070000000 3.5500000000
pair_coeff 9 21 lj/cut 0.00070000000 3.5500000000
pair_coeff 9 22 lj/cut 0.00070000000 3.5500000000
pair_coeff 9 23 lj/cut 0.00070000000 3.5500000000
pair_coeff 9 24 lj/cut 0.00070000000 3.5500000000
pair_coeff 9 25 lj/cut 0.00070000000 3.5500000000
pair_coeff 9 26 lj/cut 0.00070000000 3.5500000000
pair_coeff 9 27 lj/cut 0.00070000000 3.5500000000
pair_coeff 9 28 lj/cut 0.00070000000 3.5500000000
pair_coeff 9 29 lj/cut 0.00070000000 3.5500000000
pair_coeff 9 30 lj/cut 0.00070000000 3.5500000000
pair_coeff 9 31 lj/cut 0.00070000000 3.5500000000
pair_coeff 9 32 lj/cut 0.00070000000 3.5500000000

pair_coeff 10 11 lj/cut 0.00070000000 3.5500000000
pair_coeff 10 12 lj/cut 0.00070000000 3.5500000000
pair_coeff 10 13 lj/cut 0.00070000000 3.5500000000
pair_coeff 10 14 lj/cut 0.00070000000 3.5500000000
pair_coeff 10 15 lj/cut 0.00070000000 3.5500000000
pair_coeff 10 16 lj/cut 0.00070000000 3.5500000000
pair_coeff 10 17 lj/cut 0.00070000000 3.5500000000
pair_coeff 10 18 lj/cut 0.00070000000 3.5500000000
pair_coeff 10 19 lj/cut 0.00070000000 3.5500000000
pair_coeff 10 20 lj/cut 0.00070000000 3.5500000000
pair_coeff 10 21 lj/cut 0.00070000000 3.5500000000
pair_coeff 10 22 lj/cut 0.00070000000 3.5500000000
pair_coeff 10 23 lj/cut 0.00070000000 3.5500000000
pair_coeff 10 24 lj/cut 0.00070000000 3.5500000000
pair_coeff 10 25 lj/cut 0.00070000000 3.5500000000
pair_coeff 10 26 lj/cut 0.00070000000 3.5500000000
pair_coeff 10 27 lj/cut 0.00070000000 3.5500000000
pair_coeff 10 28 lj/cut 0.00070000000 3.5500000000
pair_coeff 10 29 lj/cut 0.00070000000 3.5500000000
pair_coeff 10 30 lj/cut 0.00070000000 3.5500000000
pair_coeff 10 31 lj/cut 0.00070000000 3.5500000000
pair_coeff 10 32 lj/cut 0.00070000000 3.5500000000

pair_coeff 11 12 lj/cut 0.00070000000 3.5500000000
pair_coeff 11 13 lj/cut 0.00070000000 3.5500000000
pair_coeff 11 14 lj/cut 0.00070000000 3.5500000000
pair_coeff 11 15 lj/cut 0.00070000000 3.5500000000
pair_coeff 11 16 lj/cut 0.00070000000 3.5500000000
pair_coeff 11 17 lj/cut 0.00070000000 3.5500000000
pair_coeff 11 18 lj/cut 0.00070000000 3.5500000000
pair_coeff 11 19 lj/cut 0.00070000000 3.5500000000
pair_coeff 11 20 lj/cut 0.00070000000 3.5500000000
pair_coeff 11 21 lj/cut 0.00070000000 3.5500000000
pair_coeff 11 22 lj/cut 0.00070000000 3.5500000000
pair_coeff 11 23 lj/cut 0.00070000000 3.5500000000
pair_coeff 11 24 lj/cut 0.00070000000 3.5500000000
pair_coeff 11 25 lj/cut 0.00070000000 3.5500000000
pair_coeff 11 26 lj/cut 0.00070000000 3.5500000000
pair_coeff 11 27 lj/cut 0.00070000000 3.5500000000
pair_coeff 11 28 lj/cut 0.00070000000 3.5500000000
pair_coeff 11 29 lj/cut 0.00070000000 3.5500000000
pair_coeff 11 30 lj/cut 0.00070000000 3.5500000000
pair_coeff 11 31 lj/cut 0.00070000000 3.5500000000
pair_coeff 11 32 lj/cut 0.00070000000 3.5500000000

pair_coeff 12 13 lj/cut 0.00070000000 3.5500000000
pair_coeff 12 14 lj/cut 0.00070000000 3.5500000000
pair_coeff 12 15 lj/cut 0.00070000000 3.5500000000
pair_coeff 12 16 lj/cut 0.00070000000 3.5500000000
pair_coeff 12 17 lj/cut 0.00070000000 3.5500000000
pair_coeff 12 18 lj/cut 0.00070000000 3.5500000000
pair_coeff 12 19 lj/cut 0.00070000000 3.5500000000
pair_coeff 12 20 lj/cut 0.00070000000 3.5500000000
pair_coeff 12 21 lj/cut 0.00070000000 3.5500000000
pair_coeff 12 22 lj/cut 0.00070000000 3.5500000000
pair_coeff 12 23 lj/cut 0.00070000000 3.5500000000
pair_coeff 12 24 lj/cut 0.00070000000 3.5500000000
pair_coeff 12 25 lj/cut 0.00070000000 3.5500000000
pair_coeff 12 26 lj/cut 0.00070000000 3.5500000000
pair_coeff 12 27 lj/cut 0.00070000000 3.5500000000
pair_coeff 12 28 lj/cut 0.00070000000 3.5500000000
pair_coeff 12 29 lj/cut 0.00070000000 3.5500000000
pair_coeff 12 30 lj/cut 0.00070000000 3.5500000000
pair_coeff 12 31 lj/cut 0.00070000000 3.5500000000
pair_coeff 12 32 lj/cut 0.00070000000 3.5500000000

pair_coeff 13 14 lj/cut 0.00070000000 3.5500000000
pair_coeff 13 15 lj/cut 0.00070000000 3.5500000000
pair_coeff 13 16 lj/cut 0.00070000000 3.5500000000
pair_coeff 13 17 lj/cut 0.00070000000 3.5500000000
pair_coeff 13 18 lj/cut 0.00070000000 3.5500000000
pair_coeff 13 19 lj/cut 0.00070000000 3.5500000000
pair_coeff 13 20 lj/cut 0.00070000000 3.5500000000
pair_coeff 13 21 lj/cut 0.00070000000 3.5500000000
pair_coeff 13 22 lj/cut 0.00070000000 3.5500000000
pair_coeff 13 23 lj/cut 0.00070000000 3.5500000000
pair_coeff 13 24 lj/cut 0.00070000000 3.5500000000
pair_coeff 13 25 lj/cut 0.00070000000 3.5500000000
pair_coeff 13 26 lj/cut 0.00070000000 3.5500000000
pair_coeff 13 27 lj/cut 0.00070000000 3.5500000000
pair_coeff 13 28 lj/cut 0.00070000000 3.5500000000
pair_coeff 13 29 lj/cut 0.00070000000 3.5500000000
pair_coeff 13 30 lj/cut 0.00070000000 3.5500000000
pair_coeff 13 31 lj/cut 0.00070000000 3.5500000000
pair_coeff 13 32 lj/cut 0.00070000000 3.5500000000

pair_coeff 14 15 lj/cut 0.00070000000 3.5500000000
pair_coeff 14 16 lj/cut 0.00070000000 3.5500000000
pair_coeff 14 17 lj/cut 0.00070000000 3.5500000000
pair_coeff 14 18 lj/cut 0.00070000000 3.5500000000
pair_coeff 14 19 lj/cut 0.00070000000 3.5500000000
pair_coeff 14 20 lj/cut 0.00070000000 3.5500000000
pair_coeff 14 21 lj/cut 0.00070000000 3.5500000000
pair_coeff 14 22 lj/cut 0.00070000000 3.5500000000
pair_coeff 14 23 lj/cut 0.00070000000 3.5500000000
pair_coeff 14 24 lj/cut 0.00070000000 3.5500000000
pair_coeff 14 25 lj/cut 0.00070000000 3.5500000000
pair_coeff 14 26 lj/cut 0.00070000000 3.5500000000
pair_coeff 14 27 lj/cut 0.00070000000 3.5500000000
pair_coeff 14 28 lj/cut 0.00070000000 3.5500000000
pair_coeff 14 29 lj/cut 0.00070000000 3.5500000000
pair_coeff 14 30 lj/cut 0.00070000000 3.5500000000
pair_coeff 14 31 lj/cut 0.00070000000 3.5500000000
pair_coeff 14 32 lj/cut 0.00070000000 3.5500000000

pair_coeff 15 16 lj/cut 0.00070000000 3.5500000000
pair_coeff 15 17 lj/cut 0.00070000000 3.5500000000
pair_coeff 15 18 lj/cut 0.00070000000 3.5500000000
pair_coeff 15 19 lj/cut 0.00070000000 3.5500000000
pair_coeff 15 20 lj/cut 0.00070000000 3.5500000000
pair_coeff 15 21 lj/cut 0.00070000000 3.5500000000
pair_coeff 15 22 lj/cut 0.00070000000 3.5500000000
pair_coeff 15 23 lj/cut 0.00070000000 3.5500000000
pair_coeff 15 24 lj/cut 0.00070000000 3.5500000000
pair_coeff 15 25 lj/cut 0.00070000000 3.5500000000
pair_coeff 15 26 lj/cut 0.00070000000 3.5500000000
pair_coeff 15 27 lj/cut 0.00070000000 3.5500000000
pair_coeff 15 28 lj/cut 0.00070000000 3.5500000000
pair_coeff 15 29 lj/cut 0.00070000000 3.5500000000
pair_coeff 15 30 lj/cut 0.00070000000 3.5500000000
pair_coeff 15 31 lj/cut 0.00070000000 3.5500000000
pair_coeff 15 32 lj/cut 0.00070000000 3.5500000000

pair_coeff 16 17 lj/cut 0.00070000000 3.5500000000
pair_coeff 16 18 lj/cut 0.00070000000 3.5500000000
pair_coeff 16 19 lj/cut 0.00070000000 3.5500000000
pair_coeff 16 20 lj/cut 0.00070000000 3.5500000000
pair_coeff 16 21 lj/cut 0.00070000000 3.5500000000
pair_coeff 16 22 lj/cut 0.00070000000 3.5500000000
pair_coeff 16 23 lj/cut 0.00070000000 3.5500000000
pair_coeff 16 24 lj/cut 0.00070000000 3.5500000000
pair_coeff 16 25 lj/cut 0.00070000000 3.5500000000
pair_coeff 16 26 lj/cut 0.00070000000 3.5500000000
pair_coeff 16 27 lj/cut 0.00070000000 3.5500000000
pair_coeff 16 28 lj/cut 0.00070000000 3.5500000000
pair_coeff 16 29 lj/cut 0.00070000000 3.5500000000
pair_coeff 16 30 lj/cut 0.00070000000 3.5500000000
pair_coeff 16 31 lj/cut 0.00070000000 3.5500000000
pair_coeff 16 32 lj/cut 0.00070000000 3.5500000000

pair_coeff 17 18 lj/cut 0.00070000000 3.5500000000
pair_coeff 17 19 lj/cut 0.00070000000 3.5500000000
pair_coeff 17 20 lj/cut 0.00070000000 3.5500000000
pair_coeff 17 21 lj/cut 0.00070000000 3.5500000000
pair_coeff 17 22 lj/cut 0.00070000000 3.5500000000
pair_coeff 17 23 lj/cut 0.00070000000 3.5500000000
pair_coeff 17 24 lj/cut 0.00070000000 3.5500000000
pair_coeff 17 25 lj/cut 0.00070000000 3.5500000000
pair_coeff 17 26 lj/cut 0.00070000000 3.5500000000
pair_coeff 17 27 lj/cut 0.00070000000 3.5500000000
pair_coeff 17 28 lj/cut 0.00070000000 3.5500000000
pair_coeff 17 29 lj/cut 0.00070000000 3.5500000000
pair_coeff 17 30 lj/cut 0.00070000000 3.5500000000
pair_coeff 17 31 lj/cut 0.00070000000 3.5500000000
pair_coeff 17 32 lj/cut 0.00070000000 3.5500000000

pair_coeff 18 19 lj/cut 0.00070000000 3.5500000000
pair_coeff 18 20 lj/cut 0.00070000000 3.5500000000
pair_coeff 18 21 lj/cut 0.00070000000 3.5500000000
pair_coeff 18 22 lj/cut 0.00070000000 3.5500000000
pair_coeff 18 23 lj/cut 0.00070000000 3.5500000000
pair_coeff 18 24 lj/cut 0.00070000000 3.5500000000
pair_coeff 18 25 lj/cut 0.00070000000 3.5500000000
pair_coeff 18 26 lj/cut 0.00070000000 3.5500000000
pair_coeff 18 27 lj/cut 0.00070000000 3.5500000000
pair_coeff 18 28 lj/cut 0.00070000000 3.5500000000
pair_coeff 18 29 lj/cut 0.00070000000 3.5500000000
pair_coeff 18 30 lj/cut 0.00070000000 3.5500000000
pair_coeff 18 31 lj/cut 0.00070000000 3.5500000000
pair_coeff 18 32 lj/cut 0.00070000000 3.5500000000

pair_coeff 19 20 lj/cut 0.00070000000 3.5500000000
pair_coeff 19 21 lj/cut 0.00070000000 3.5500000000
pair_coeff 19 22 lj/cut 0.00070000000 3.5500000000
pair_coeff 19 23 lj/cut 0.00070000000 3.5500000000
pair_coeff 19 24 lj/cut 0.00070000000 3.5500000000
pair_coeff 19 25 lj/cut 0.00070000000 3.5500000000
pair_coeff 19 26 lj/cut 0.00070000000 3.5500000000
pair_coeff 19 27 lj/cut 0.00070000000 3.5500000000
pair_coeff 19 28 lj/cut 0.00070000000 3.5500000000
pair_coeff 19 29 lj/cut 0.00070000000 3.5500000000
pair_coeff 19 30 lj/cut 0.00070000000 3.5500000000
pair_coeff 19 31 lj/cut 0.00070000000 3.5500000000
pair_coeff 19 32 lj/cut 0.00070000000 3.5500000000

pair_coeff 20 21 lj/cut 0.00070000000 3.5500000000
pair_coeff 20 22 lj/cut 0.00070000000 3.5500000000
pair_coeff 20 23 lj/cut 0.00070000000 3.5500000000
pair_coeff 20 24 lj/cut 0.00070000000 3.5500000000
pair_coeff 20 25 lj/cut 0.00070000000 3.5500000000
pair_coeff 20 26 lj/cut 0.00070000000 3.5500000000
pair_coeff 20 27 lj/cut 0.00070000000 3.5500000000
pair_coeff 20 28 lj/cut 0.00070000000 3.5500000000
pair_coeff 20 29 lj/cut 0.00070000000 3.5500000000
pair_coeff 20 30 lj/cut 0.00070000000 3.5500000000
pair_coeff 20 31 lj/cut 0.00070000000 3.5500000000
pair_coeff 20 32 lj/cut 0.00070000000 3.5500000000

pair_coeff 21 22 lj/cut 0.00070000000 3.5500000000
pair_coeff 21 23 lj/cut 0.00070000000 3.5500000000
pair_coeff 21 24 lj/cut 0.00070000000 3.5500000000
pair_coeff 21 25 lj/cut 0.00070000000 3.5500000000
pair_coeff 21 26 lj/cut 0.00070000000 3.5500000000
pair_coeff 21 27 lj/cut 0.00070000000 3.5500000000
pair_coeff 21 28 lj/cut 0.00070000000 3.5500000000
pair_coeff 21 29 lj/cut 0.00070000000 3.5500000000
pair_coeff 21 30 lj/cut 0.00070000000 3.5500000000
pair_coeff 21 31 lj/cut 0.00070000000 3.5500000000
pair_coeff 21 32 lj/cut 0.00070000000 3.5500000000

pair_coeff 22 23 lj/cut 0.00070000000 3.5500000000
pair_coeff 22 24 lj/cut 0.00070000000 3.5500000000
pair_coeff 22 25 lj/cut 0.00070000000 3.5500000000
pair_coeff 22 26 lj/cut 0.00070000000 3.5500000000
pair_coeff 22 27 lj/cut 0.00070000000 3.5500000000
pair_coeff 22 28 lj/cut 0.00070000000 3.5500000000
pair_coeff 22 29 lj/cut 0.00070000000 3.5500000000
pair_coeff 22 30 lj/cut 0.00070000000 3.5500000000
pair_coeff 22 31 lj/cut 0.00070000000 3.5500000000
pair_coeff 22 32 lj/cut 0.00070000000 3.5500000000

pair_coeff 23 24 lj/cut 0.00070000000 3.5500000000
pair_coeff 23 25 lj/cut 0.00070000000 3.5500000000
pair_coeff 23 26 lj/cut 0.00070000000 3.5500000000
pair_coeff 23 27 lj/cut 0.00070000000 3.5500000000
pair_coeff 23 28 lj/cut 0.00070000000 3.5500000000
pair_coeff 23 29 lj/cut 0.00070000000 3.5500000000
pair_coeff 23 30 lj/cut 0.00070000000 3.5500000000
pair_coeff 23 31 lj/cut 0.00070000000 3.5500000000
pair_coeff 23 32 lj/cut 0.00070000000 3.5500000000

pair_coeff 24 25 lj/cut 0.00070000000 3.5500000000
pair_coeff 24 26 lj/cut 0.00070000000 3.5500000000
pair_coeff 24 27 lj/cut 0.00070000000 3.5500000000
pair_coeff 24 28 lj/cut 0.00070000000 3.5500000000
pair_coeff 24 29 lj/cut 0.00070000000 3.5500000000
pair_coeff 24 30 lj/cut 0.00070000000 3.5500000000
pair_coeff 24 31 lj/cut 0.00070000000 3.5500000000
pair_coeff 24 32 lj/cut 0.00070000000 3.5500000000

pair_coeff 25 26 lj/cut 0.00070000000 3.5500000000
pair_coeff 25 27 lj/cut 0.00070000000 3.5500000000
pair_coeff 25 28 lj/cut 0.00070000000 3.5500000000
pair_coeff 25 29 lj/cut 0.00070000000 3.5500000000
pair_coeff 25 30 lj/cut 0.00070000000 3.5500000000
pair_coeff 25 31 lj/cut 0.00070000000 3.5500000000
pair_coeff 25 32 lj/cut 0.00070000000 3.5500000000

pair_coeff 26 27 lj/cut 0.00070000000 3.5500000000
pair_coeff 26 28 lj/cut 0.00070000000 3.5500000000
pair_coeff 26 29 lj/cut 0.00070000000 3.5500000000
pair_coeff 26 30 lj/cut 0.00070000000 3.5500000000
pair_coeff 26 31 lj/cut 0.00070000000 3.5500000000
pair_coeff 26 32 lj/cut 0.00070000000 3.5500000000

pair_coeff 27 28 lj/cut 0.00070000000 3.5500000000
pair_coeff 27 29 lj/cut 0.00070000000 3.5500000000
pair_coeff 27 30 lj/cut 0.00070000000 3.5500000000
pair_coeff 27 31 lj/cut 0.00070000000 3.5500000000
pair_coeff 27 32 lj/cut 0.00070000000 3.5500000000

pair_coeff 28 29 lj/cut 0.00070000000 3.5500000000
pair_coeff 28 30 lj/cut 0.00070000000 3.5500000000
pair_coeff 28 31 lj/cut 0.00070000000 3.5500000000
pair_coeff 28 32 lj/cut 0.00070000000 3.5500000000

pair_coeff 29 30 lj/cut 0.00070000000 3.5500000000
pair_coeff 29 31 lj/cut 0.00070000000 3.5500000000
pair_coeff 29 32 lj/cut 0.00070000000 3.5500000000

pair_coeff 30 31 lj/cut 0.00070000000 3.5500000000
pair_coeff 30 32 lj/cut 0.00070000000 3.5500000000

pair_coeff 31 32 lj/cut 0.00070000000 3.5500000000

special_bonds lj 0.0 0.0 0.0 coul 0.0 0.0 0.0

#pair_style tersoff 
#pair_coeff * * C.4.tersoff 1 2 3 4

#pair_style lj/cut 12.0
#pair_coeff 1 1 0.0700000000 3.5500000000
#special_bonds lj 0.0 0.0 0.0 coul 0.0 0.0 0.0
###########################################################################


#--------------------------------------------------------------------------
#variables
#--------------------------------------------------------------------------
variable   	dt 		equal 0.001
#--------------------------------------------------------------------------
#kappa parameters
#--------------------------------------------------------------------------
variable    	p 		equal 100000 	# correlation length
variable    	s 		equal 10  	# sample interval
variable    	d 		equal $p*$s 	# dump interval 
variable    	d 		equal 100000*$s 	variable    	d 		equal 100000*10 	
#--------------------------------------------------------------------------
variable 	T_run 		equal 300
#--------------------------------------------------------------------------

log 	log_heat_${iseed}.lammps
log 	log_heat_7.lammps
