	reset_timestep  	0
	fix 			1 all nve
	compute   		myKE all ke/atom
	compute   		myPE all pe/atom
	compute   		myStress all stress/atom virial
	compute   		flux all heat/flux myKE myPE myStress
	variable  		Jx equal c_flux[1]/vol
	variable  		Jy equal c_flux[2]/vol
	variable  		Jz equal c_flux[3]/vol
	fix       		JJ all ave/correlate $s $p $d c_flux[1] c_flux[2] c_flux[3] type auto file J0Jt_${iseed}.dat ave running
	fix       		JJ all ave/correlate 10 $p $d c_flux[1] c_flux[2] c_flux[3] type auto file J0Jt_${iseed}.dat ave running
	fix       		JJ all ave/correlate 10 100000 $d c_flux[1] c_flux[2] c_flux[3] type auto file J0Jt_${iseed}.dat ave running
	fix       		JJ all ave/correlate 10 100000 1000000 c_flux[1] c_flux[2] c_flux[3] type auto file J0Jt_${iseed}.dat ave running
	fix       		JJ all ave/correlate 10 100000 1000000 c_flux[1] c_flux[2] c_flux[3] type auto file J0Jt_4.dat ave running
	compute 		myDis all msd 
	thermo_style 		custom step temp press vol c_myDis[4] v_Jx v_Jy v_Jz 
	thermo			1000
	timestep		${dt}
	timestep		0.001
	run			1000000
Memory usage per processor = 6.2488 Mbytes
Step Temp Press Volume myDis[4] Jx Jy Jz 
       0    291.14059    6813.8754        24389 1.1787721e-30 -0.0029662774 -0.0073718121 0.0069650086 
    1000    293.90263    2267.3202        24389    3.3038391 0.0025261286 -0.013374053 0.0048214702 
    2000     302.3685    5509.3132        24389    10.470877  0.017388404 0.0029930831 0.0044928902 
    3000    300.64922    6243.2245        24389    18.079929 -0.0082300872 -0.0034035587 -0.0029493706 
    4000    299.65264    3406.3374        24389     23.42172  0.008774285 -0.010024429 -0.0025881279 
    5000    292.98846    3244.3955        24389    25.404727 -0.00029658236 0.0035129432 0.0015717087 
    6000    297.60227    7038.4294        24389    25.320037 -0.00075013699 -0.0022189015 0.00019728293 
    7000    299.04467    6801.4626        24389    24.748377 0.0018651207 0.0076474862 -0.012916928 
    8000    298.05334    2687.5648        24389    24.895037 0.0072017738 -0.0068635211 0.0037079854 
    9000     303.4754    2852.0166        24389    25.078444 -0.019315598 -0.016892311 0.0027494174 
   10000    298.92006    7870.9712        24389    25.169197 0.0005506097 -0.013498996 0.0013171788 
   11000    298.23494    8905.1302        24389    25.854223 0.0026534808 -0.0058641052 0.0083297797 
   12000    303.78734    2393.8395        24389    26.872167 0.0068245964 0.0019402951  0.013457152 
   13000    300.36453    2919.0793        24389    27.667052 0.0093963067  0.004113905 -0.012303816 
   14000    294.61605    7887.6553        24389    27.777361 0.0074074514 0.0072287524 0.0033311267 
   15000     298.6184    4905.2147        24389    27.433113  0.011955194 -0.00027646723  0.011589706 
   16000      303.043     2558.236        24389    26.885141 -0.0084497453  -0.01002911 -0.0070554602 
   17000     296.2433    3611.2381        24389    26.814295 -0.0021510816 -0.0079179336 -0.004290387 
   18000    295.70922    8301.8017        24389    27.186893  0.001035745 0.0087002646 -0.0024150978 
   19000     297.3413    5155.4223        24389    27.185803 -0.0004296839 0.0072195713 0.0048875504 
   20000    299.47952    3581.9228        24389    26.547621 -0.0087643611 0.0052349595 0.00037511655 
   21000     293.6288    5311.1914        24389    26.447607 -0.0054819209 0.0012934633  0.010089877 
   22000    298.06984    5319.9281        24389    27.169571 -0.0067226188 -0.0019316691  0.014501109 
   23000    299.26159    3243.1154        24389    28.013173 0.0064925657 0.0011344002 0.0037527135 
   24000    299.19729     6322.691        24389    27.858849 0.0046693228 0.0062891597  0.018923466 
   25000     301.9009    5485.3429        24389    27.413518 0.0010016942 -0.0055704076 0.0012028974 
   26000    302.12636    3744.3443        24389    27.725226 0.0039071197  0.010964903 0.0074227215 
   27000    299.46404    4494.4141        24389    28.988448 -0.0060137189  0.010243302 0.0015858794 
   28000    299.46893    6528.2728        24389    29.960623 -0.008092873 -0.0048539106  0.002404949 
   29000    305.06775    6263.0806        24389    29.849971 -0.0071906979 -0.0075773657 0.0046890798 
   30000    299.17525     2735.692        24389    29.412393  0.013534505  0.010412356 -0.0058663166 
   31000     303.8132    4233.3332        24389    28.587663 0.0075690336 -0.0044792278 -0.0010333705 
   32000      302.964    5081.9434        24389    27.500292 0.0068419962 -0.0074337221 0.0018595578 
   33000    296.14786    4532.1739        24389    26.836331 0.0074371427 0.0044557878 0.0089379987 
   34000    305.44797    3444.9916        24389    26.466366 0.0030638767 0.0075726393 0.0016979673 
   35000    305.03228    4922.5758        24389    26.638643 -0.012205528 0.00050858785 -0.0050125734 
   36000    299.05551    6891.9271        24389    27.975274 -0.0039266817  0.011653092 -0.0010916973 
   37000    297.18875     5046.072        24389    28.496634 -0.0033927006 -0.013116238   0.01179398 
   38000    298.09306    4545.8243        24389    27.535781 0.0061533267 0.0017577392 -0.0038646427 
   39000    299.30384    4596.2105        24389    25.829241 -0.0080785719 0.0041836625 -0.00079970244 
   40000    300.81146    4607.9054        24389     24.87797 0.0039850872 0.0026644018 -0.0078809357 
   41000     296.7292    4498.4948        24389    24.772089 0.0063792899 -0.0053571786 0.0027427317 
   42000    299.59705    7015.4717        24389    25.380587 0.0059594233 -0.0022941226 0.0079243224 
   43000    296.45109    5386.2781        24389    25.716849   0.01380319 -0.0081552641 0.0071730614 
   44000    296.60103    4485.9454        24389    25.803687 0.00079263483 -0.013959531 0.00069188023 
   45000    291.70548    6100.1145        24389    25.611467  0.005991615 -0.0089609776 0.0068907831 
   46000    293.62183    3519.9025        24389    26.255413 0.0062179053 -0.0099480471 0.0022766237 
   47000    298.45476    2847.6033        24389    27.214338  0.010667389  0.015601028  0.003285486 
   48000    292.91514    6501.3711        24389    28.229623 -0.0010284623 -0.0072654312  0.002681405 
   49000    297.30402    7710.7233        24389    28.914012 -0.0098951316 -0.0024999753 0.00099674616 
   50000    293.54713    3430.5726        24389    28.886644 -0.0010748057 0.0021738001 0.0023397824 
   51000    297.39428    1366.0901        24389     27.61137 -0.0044509258 -0.0023803745 0.0039498579 
   52000    296.10555    5624.8355        24389    25.924318 0.00074122436 -0.010548071 -0.0001042119 
   53000    293.58212    5377.5661        24389     25.49635 -0.00062692737 -0.0014110204   0.01759017 
   54000    300.48609    4489.9941        24389    25.819591 0.0032581192 0.00081154048 0.0051260529 
   55000    296.55276    3534.7685        24389    26.185543 -0.0053585696 0.0054578741 0.0034450153 
   56000    296.21346    4593.2103        24389    26.034827  0.003271077 -0.021809714 0.0087008969 
   57000    303.70925    6458.1742        24389    26.422877 -0.017071208 -0.0020776254 0.00018360581 
   58000    301.96788    4162.7901        24389    27.397381 -0.0012060607 -0.011370649 -0.0023775487 
   59000    302.90356    5060.4161        24389    28.028599 -0.0030784926 -0.0028528978 0.0048233805 
   60000    301.48459    5219.1208        24389    28.599664 -0.0052257048 0.0023258703 0.0096352322 
   61000    300.79025     3629.032        24389    28.795419 -0.003835007 -0.0016327081  0.016326597 
   62000    298.37108    4925.9253        24389    28.868665 0.0043472909 -0.00028212199 -0.0050663826 
   63000    297.24519    6744.5812        24389    29.496711 0.0049423641 0.0036996968 -0.012922919 
   64000     300.8973    6278.5155        24389     30.35555  0.001389862 0.0013060412  -0.01142858 
   65000    297.52869    3449.3192        24389    30.950907 -0.0059604598 -0.0048167989 0.0077620072 
   66000    303.84036    4352.8192        24389    30.378413  -0.01210372 0.00071171777 -0.0086607002 
   67000     302.0923    8203.2843        24389    29.237814 0.0053573608 -0.0025310796  0.018658036 
   68000     301.7575    5018.6673        24389    28.413097 0.0086828629 -0.0060482143 -0.006310886 
   69000    302.33489    3751.5629        24389    28.038241 -0.0033351596 0.0023262365  0.001426229 
   70000    301.42642    5824.8045        24389    28.098138 0.0035104523 0.0013227168 -0.012728741 
   71000    296.94237    5091.9308        24389    27.658954 -0.008363527 -0.0030236015 -0.0028590439 
   72000    305.49789    3524.8677        24389    26.597951 0.0090567143  0.016966973  0.013449591 
   73000     296.9689    5916.2747        24389     25.85922 0.0077997658  0.016061448 0.0015400115 
   74000     293.8159    5842.9828        24389     25.59328 0.0088819525 -0.0082270513 -0.0041309033 
   75000    303.16554    6502.7777        24389    25.919524 -0.0024826397 0.0045129268 -0.0023543979 
   76000    297.37234    8041.9277        24389    26.547422 0.0061071793 0.0038230152 -0.011907439 
   77000    303.93477    4342.7885        24389    27.225764 -0.0092583112 -0.0028491714 -0.0030312147 
   78000    287.89906    3937.5893        24389    27.702352 -0.0022886612 0.0030704115 -0.0055277406 
   79000     302.8646    6432.7799        24389    28.042489 -0.0088279046 0.0029162505  0.010393237 
   80000    301.62091    6874.0347        24389    28.925618  0.012228185  0.010733895 -0.0057839689 
   81000     300.4323    4061.9603        24389    30.047297 0.0030231171 -0.0036775425 0.00082336115 
   82000    305.12009    2100.0683        24389     29.94054 0.0092231404  0.014837486 -0.0071734183 
   83000    295.42003    4501.2381        24389    29.452266 0.0097871304  0.014364444 0.00020047115 
   84000    299.60695    6431.1178        24389    28.880754  0.016797983 0.0066372285 0.0011006637 
   85000     296.8759     5025.808        24389    28.262752 0.0084440613 0.0098761897  0.016070801 
   86000    297.48636    3512.6262        24389    28.293173 0.00055843774 0.0039463128 0.0051919155 
   87000    298.06095    5781.5887        24389    28.653625 -0.0018361522  0.012463836 -0.0013137223 
   88000    297.50812    4672.5955        24389    29.417812 -0.0081520917  0.011261741 -0.0034463635 
   89000    301.23129    5378.8382        24389    29.075403 -0.0011476529 0.0019804582 -0.013212415 
   90000     299.4241     4810.213        24389    28.115511 0.0044412136 -0.00040463364 -0.0083706334 
   91000    299.58692     3579.896        24389    26.802703 0.00069093456 -0.0017613331 -0.0069682379 
   92000     300.7456    7618.6251        24389     25.76853  0.010726385 -0.0048751995 -0.0018982838 
   93000    290.70455    5666.7683        24389    25.549557 0.0043637956 -0.0016303922 0.0024952693 
   94000    296.99224    2846.2397        24389    25.867802  0.019089143 -0.0060377624 0.0047129785 
   95000    298.44228    3530.3631        24389    26.076322 -0.004677632  0.001861875 -0.0014336146 
   96000    304.11567    5967.6105        24389    27.083882  0.015412768 -0.0060829179 -0.0086410596 
   97000    296.85464    6172.1254        24389    27.871974 -0.005547849 -0.0054483724 0.0031331147 
   98000    300.61573    4052.9387        24389    28.342562 -0.0018097798  0.011841115 0.00052584405 
   99000    303.80321    3423.3835        24389    27.864828 0.0011568669 -0.008728071 -0.013995434 
  100000    299.01445    4027.5954        24389    27.246545 -0.0083659718 -0.0021494833  0.014049191 
  101000     294.2894     6679.414        24389    26.565986 0.0028811854 -0.0039234061 0.0084574232 
  102000    307.12638    5132.6637        24389    26.078552 0.0088958564 -0.0034379755 0.0075645132 
  103000    299.23661    2420.1937        24389    26.829659 -0.0079521044  0.019460743 -0.0084454686 
  104000    299.57724    5298.3328        24389    27.834027 0.00018135779  0.016261003 -0.017290204 
  105000    300.45898    6543.7782        24389    28.448443 -0.016058375   0.01134659 -0.019384227 
  106000    305.08039     3158.405        24389    27.955102 -0.0012502073 -0.005541951 -0.0096698982 
  107000    296.97259    3670.2673        24389    27.282612 -0.0026925304 0.0029583957 -0.0082404012 
  108000    293.56714    5676.9437        24389    27.333672 -0.0039266104 0.0067280089 0.00053619501 
  109000    289.87686    4616.4648        24389    28.084905 0.0066784631 0.0051952693 -0.0074424277 
  110000    292.78181    8755.8325        24389    28.897381 0.00017148511 -0.0033894026 -0.0038678159 
  111000    294.59814    4551.2141        24389    29.051606 0.0049736793 -0.00094595789 -0.0008262738 
  112000    293.86049    3004.9383        24389    28.107945 -0.006228526 0.0086921561 -0.010595977 
  113000    300.89511    5277.5223        24389    26.749099 0.0084255327 -0.0010629775   0.01058818 
  114000    291.39707    4442.6829        24389    26.384959 0.0014493719 0.0046954845 -0.0035715835 
  115000    296.82055    4157.4211        24389    26.653006 0.0079158354 0.0023543688 0.0059098525 
  116000    301.74418     3445.618        24389    28.004244 -0.0028795984 0.0010781104 0.0066451003 
  117000    298.49978    4444.9071        24389    29.087672 -0.0061397151 5.7435019e-05 0.0014603412 
  118000    298.34933    4979.1409        24389    29.151214 -0.0018030553 0.0075303547 -0.0092046653 
  119000    291.18399    7431.3502        24389    29.427872 0.0037573399  0.014491999 -0.0049110826 
  120000    300.13977    4709.9539        24389    29.233729 -0.005932957  0.011050873  -0.01132959 
  121000     296.4737    1602.8973        24389    28.720684  0.011575744 0.0070690558 0.00058988612 
  122000    300.43481    6747.9509        24389    27.887282 -0.0093155909  0.018048043 0.0013442687 
  123000    293.31352    8299.1376        24389    26.847166 -0.001172104 -0.0072267006 0.00022126525 
  124000    301.49498    3202.3548        24389    26.716468 -0.0063105451 -0.0027303105 -0.001180659 
  125000    297.16856    6583.8425        24389    27.100858 0.0081836529 0.0068328154 -0.014590164 
  126000    299.63154    5785.8473        24389    27.582849  0.018418822  0.010702089 -0.0043539845 
  127000    302.03182    2569.5349        24389    28.029358 0.0041264449 -0.0012353557 -0.0080937372 
  128000     294.5034    5891.3926        24389    28.485103 0.0065827684  0.010219083 -0.0011205601 
  129000    301.17397    8684.3719        24389    29.052995  0.013096513 0.0027504514 0.0069500367 
  130000    301.54729    4583.1057        24389    28.934708 -0.0033974214 -0.0031661178 -0.0060829141 
  131000    291.78622    4137.4029        24389    28.669491  0.010654148  0.016818905  0.015122314 
  132000    294.72865    4725.0465        24389    27.750704  0.010504536 0.0069383597 -0.0086132677 
  133000    298.08602     5728.006        24389    27.172322 -0.0077905422 -0.0072122954 0.0089279652 
  134000    297.99184    6327.7584        24389    27.047297 0.0089587589 -0.016627644 -0.010773369 
  135000    299.56744    1287.3094        24389     26.91192 0.0038015579 -0.0048105433 -0.0073655737 
  136000    307.78706    6657.8615        24389    26.816143 0.0094032048  0.020294564 -0.0011181617 
  137000     301.3301      4824.74        24389    27.704266 0.0018390586 -0.0085770534 -0.0058003618 
  138000    299.88973    5105.9981        24389    28.658485 -0.011524804 9.3935097e-05   0.01148247 
  139000    295.13852    3903.7444        24389    28.898534  0.010093472 0.00022674546 0.0014066181 
  140000    298.47922    4915.7935        24389    28.800501 -0.009330484 -0.0027856185 0.0091504163 
  141000    298.53235    5858.1944        24389    27.873855 0.00033964391 -0.013894626 -0.0061050841 
  142000    298.75399    4530.8251        24389    26.500977 -0.0041876133 -0.0017158096 0.0044147271 
  143000     303.6581    2736.4431        24389    25.562218 -0.0062117902 0.0038805509 0.0068447823 
  144000     299.8005    6250.3135        24389     25.17247  0.017084068 -0.013753685 -0.010199886 
  145000    301.28555    5946.9439        24389    25.437727 -0.0018408691 0.0079267976 -0.00093249973 
  146000    293.73283    4941.4901        24389    26.524453 0.0048073021 0.0065373305 -0.0018330521 
  147000     298.3994    2753.9193        24389     27.70073 -0.0014442829 0.0082402731 -0.0027986817 
  148000    296.19536    6550.9857        24389    28.326223 -0.012707648  0.011647785 -0.0010049196 
  149000    300.71974    7161.6653        24389    28.477658 -0.0044987606 0.0022127303 0.0017739471 
  150000    298.36044    2425.2722        24389    28.287854 -0.010659153 0.0018600251 0.00022728461 
  151000    301.57988     4962.322        24389    28.251931 -0.008695828 -0.0082289851 -0.006016735 
  152000    305.71876     7695.352        24389    29.111029 -0.00060190075 -0.0057291587 0.0075845591 
  153000     296.3023    2836.6975        24389    30.152023 -0.0057560317 -0.002023275 -0.0047857648 
  154000    297.98991     2417.523        24389    30.650336 -0.0065862128 0.0074842104 0.0048223592 
  155000    290.26198    6747.7731        24389    30.179834 -0.010980783 0.0042339282 0.0001821794 
  156000    294.08047    5283.4643        24389    29.017451 0.00019436617 -0.0019913055 -0.018471203 
  157000    296.56419     4221.596        24389    28.470322 -0.0006474097 -0.006720326 -0.00010983152 
  158000    287.67739    7001.2425        24389     29.26165 0.0078115267 -0.0063120111 -0.003655586 
  159000    298.51556    3883.2229        24389    30.268153  -0.00389023 0.0035067708 0.0070047024 
  160000    301.46413    4846.7147        24389    30.848574  0.013598572 -0.0053461754 0.0015241398 
  161000    298.86658    6147.2476        24389    30.138923 0.00035915559  -0.01195548 -0.0053267017 
  162000    295.96408    5144.3919        24389    29.100575 -0.012302741 0.0076092044 -0.0068366206 
  163000    297.60516    5452.6345        24389    28.812137 -0.011098878 0.0009992373 0.0040855341 
  164000    293.60051     3999.717        24389    28.183024 0.0051348777 -0.00076995625 -0.0019585119 
  165000    297.61277    4641.4055        24389    27.258506 0.0033133481 -0.0036630026  0.011981038 
  166000    295.69387    4720.5185        24389    26.119565 0.0045159639 -0.0085008096 0.0038324186 
  167000    300.80724    6195.4909        24389    25.904784 0.0022497563  0.011834056  0.024744139 
  168000    306.76962    6310.7315        24389     26.75343 -0.0021622582 -0.0024275778 0.0087051646 
  169000    295.75989    7128.6929        24389    26.856303 -0.0099646457 0.0096127905 0.00040605269 
  170000    299.94688    3438.4526        24389    26.528004 -0.0023456945 0.00094762766  0.011985839 
  171000    298.27952    4161.5575        24389    26.381505 -0.0019166706 -0.00047072142 -0.0070353747 
  172000    299.79818    4744.0436        24389    26.947411 -0.00064124908 0.00094386411 -0.0094613309 
  173000    299.91775     5441.692        24389    27.317589 -0.00035353611 0.0046570191 -0.016558461 
  174000    300.29066    4600.2147        24389    27.430544 -0.011012995 -0.0025473832 -0.0078158226 
  175000    297.93534    5550.1429        24389    28.231018 0.0089195056 -0.0029642462 0.00019412826 
  176000    303.04917    6385.2117        24389    28.756212 -0.0058388151 0.0027051476 -0.0038433467 
  177000     298.8339    3642.6055        24389    29.145137 0.0053714067 -0.0045558912  0.013149859 
  178000    290.89825    4346.3048        24389    29.327473  0.013874161 -0.0098450062  0.010600091 
  179000    295.40437    4741.6213        24389    28.535925  0.014279902 0.00096599653  -0.01142801 
  180000    299.32554     5454.431        24389    27.185915 -0.0013435114 -0.013731185 -0.0026796288 
  181000    298.59882    2961.2435        24389     25.72856 0.0010418334 -0.0011060169 -0.0018485967 
  182000    295.28962      2919.84        24389     24.42853  0.011988764 -0.0072492206 0.0069589288 
  183000    299.05981    3955.7776        24389     23.83944 -0.012632551 0.00073564559 0.0096175902 
  184000    301.50186    5720.2814        24389    23.686954 -0.013873478 -0.0025202308 -0.0020044243 
  185000    306.80687    6258.9605        24389     24.11563  0.010128035 0.0078237163 0.00046702442 
  186000    300.94878    2619.0286        24389    24.459428 -0.0088991537  0.017343909  0.013975325 
  187000    296.20548    5368.4958        24389    24.895014 0.0040522531 -0.013113798 0.0097286686 
  188000     295.3283     6295.111        24389    25.759053 -0.011089928 0.0034901056 0.00096215639 
  189000    295.42979    2767.4918        24389    26.195517 0.0050873823 -0.0063740524 -0.0044313045 
  190000    301.03015    3016.2857        24389    27.042977 0.0025437434 0.0072433627 0.0058876024 
  191000    293.94368     4591.952        24389    27.990019 -0.0054997084 -0.015084224 -0.0069061346 
  192000    287.55684    5146.6323        24389    28.418818 0.0018284567 0.0040212504 -0.010972699 
  193000    292.86537    4000.7943        24389    28.627917 0.0023151749   0.01563523 -0.0066288352 
  194000    295.08685    5079.5177        24389    28.325095 0.0061720071 -0.012355119 0.0046952463 
  195000    305.50667    5473.8666        24389    28.236892 -0.010084602 -0.0096903098 0.0026947071 
  196000    298.77015    3914.2787        24389    28.316513 -0.0060169323 0.0086378231 -0.00069185427 
  197000    303.21385    4175.5597        24389    28.521691 -0.0068491462  0.009287917  0.013741595 
  198000    307.60829    4150.4524        24389     28.30081 -0.0031133973 -0.00012615083 -0.0074968631 
  199000    295.07018    6825.9369        24389    27.850231 -0.00014246232 -0.011993104 -0.0044667134 
  200000    299.85576    4851.9733        24389    27.329651 -0.0027010547 -0.011337445 -0.010419483 
  201000    290.59793    4768.9842        24389    27.000109 0.0061733372 0.0096596091 -0.015093746 
  202000    291.99585    5407.1751        24389    26.882495 0.0020393317 0.0059156228 -0.0086602006 
  203000    296.29641    6064.5388        24389    26.364912 -0.010378155  -0.00211286  0.014215481 
  204000    302.89935    4676.6213        24389    25.908666 -0.0042640056 0.00051813343  0.010244356 
  205000    296.28523    4893.6077        24389    25.733104 0.0075659101 -0.0018061036 -0.0044658549 
  206000    302.32303    2624.9556        24389    26.053057 -0.0023904559 0.0035320671 0.0046530018 
  207000    299.30985    4654.9909        24389    26.863336 -0.0025026658 -0.0035269268 0.0017435067 
  208000     304.5563    6423.4223        24389    27.585684 0.0040525969 -0.0087045819 0.0098721394 
  209000    298.97783    4371.3141        24389    27.982688 -0.0064509574 -0.0030159944  0.012985608 
  210000    296.96819    5496.6814        24389    28.088806 -0.0077185997 0.00018496691 8.1513359e-06 
  211000    304.08742    4676.6663        24389     27.51208 0.0074411673 0.0054546646 -0.0020930524 
  212000    292.45524    4246.6548        24389    26.714034 0.0091049503 0.0045214946 0.0047502042 
  213000     297.2257    5070.7565        24389    26.826063 -0.0075900116  0.010390595 0.00082964388 
  214000    299.91643    5523.3505        24389    27.701541 -0.011411737 -0.0038031568 0.0020057361 
  215000     292.9465    4051.1993        24389     29.17657 -0.0024933486 -0.0060729713   0.01270146 
  216000     293.5009    4003.7304        24389    30.254823 -0.0071761931 0.0043673196 -0.00079504736 
  217000    302.60283    5764.4618        24389    30.611101 -0.017363324 0.0056008564 0.0086783452 
  218000    302.28221    5111.1278        24389    29.365615 -0.010446364 0.0060183424 0.0014471941 
  219000    299.91713    3467.8544        24389    27.858884   0.00295472   0.00264597 -0.005100533 
  220000    295.74804      3461.94        24389    26.702336  0.025625108 -0.0036230053 -0.0014990019 
  221000     295.2574     5889.993        24389    26.255868  0.010020586 -0.0092654242     0.013272 
  222000    301.37398    3895.6447        24389    25.996131 0.00094547815 0.0038225517 -0.0077829821 
  223000    294.79887    3707.0305        24389     25.91579 -0.0096916309 0.0016932771 0.0039840135 
  224000    297.76238    7237.6256        24389    25.162522 -0.0011121622  0.012459146 -0.0016291644 
  225000    296.58516    3147.4905        24389    23.989198  0.011352366 0.0023317833   -0.0223083 
  226000    303.79091    1503.1935        24389    23.228244 0.00010615686 -0.0069104828 0.0051416379 
  227000    300.30182    5467.2926        24389    23.897919 -0.020164259 -0.011953413  0.018610989 
  228000    299.65023    4417.6196        24389    24.941513 -0.017962455 -0.0066348017 0.0067597494 
  229000    302.08793    5984.6009        24389    25.321792 -0.0097735385 0.0091807993  0.011589553 
  230000    296.80595    7276.7287        24389    25.485011 0.0077825393 -0.0027398254 -0.004544072 
  231000    287.83923    4843.2243        24389    25.978487 -0.00056573464 -0.0054202298 -0.0040044272 
  232000    300.53018    1163.4719        24389    26.030332 -0.0052141387 -0.0019961998 0.0043503072 
  233000    301.64034     5694.267        24389    25.326698 -0.015369826   0.01211117  0.014064692 
  234000    297.10235    8312.8719        24389    24.674021 0.0095932295 -0.0020268897 -0.0072836998 
  235000    300.50812    5288.8862        24389    25.522828  0.003470693  0.011306286  0.010916473 
  236000    304.30048     1881.154        24389    27.156194  0.002353953 -0.0086369535 0.0057694954 
  237000    298.70678    2285.0056        24389    28.021583  0.003747229 -0.0017821859 0.0090747991 
  238000    288.64592    7661.2223        24389    27.805944 0.0085441369 0.0077790486 -0.0070932294 
  239000    288.93954     9107.133        24389    27.316668 -0.009565648 -0.0028375463 -0.0035313268 
  240000    299.93379    4122.1505        24389    27.105341 -0.010666591 0.0090812379 -0.0092213876 
  241000    304.13128    2236.2048        24389    27.276918 0.0065493772 -0.0015305817 0.0051122482 
  242000    294.33096    3967.1963        24389    26.735857 0.0014617021  -0.01325354 0.0037579466 
  243000    295.39524    5105.2685        24389    26.049955 0.0010394873 -0.0031460089  0.002426966 
  244000    295.87999    6563.2801        24389    25.849897 0.0073931509 -0.0027797588 0.0049718091 
  245000    304.18822     4724.839        24389    25.721269  0.014960072 -0.0039034018 6.8439118e-05 
  246000    300.05222    3490.0937        24389    26.270615 -0.00063805709 0.0046554703 -0.011326546 
  247000    290.65838    4999.4159        24389    26.789656 0.0076435362 -0.0058195172 -0.00048851683 
  248000    298.61892    6273.1977        24389    27.888667 -0.0088601052 0.0032550968 -0.0090234362 
  249000    299.84393    4044.6931        24389    28.677192 -0.0002345354 -0.0033362751 0.0079940661 
  250000    299.62884    4736.9784        24389    28.403425 -0.0024368094 -0.0038831997  0.005731755 
  251000    295.83977    2758.9971        24389    28.018126 -0.0068919473 -0.0071907073 -0.0012162806 
  252000    299.06455    4658.1105        24389     28.02582  0.006395236 -0.0081683491 -0.0014307033 
  253000    300.34647      6946.28        24389    28.057745 -0.0014401681 0.0063991901  0.012939993 
  254000    300.01573    4243.5219        24389    28.410468 0.0017528396 -0.008045487  0.014225862 
  255000    296.39908    3477.6914        24389    28.955473 -0.0028665781 -0.0044318423  0.011781926 
  256000    302.61352    5971.4906        24389    29.011003 -0.0073063679 0.0075921278  0.011014357 
  257000     302.3408    3480.5376        24389    29.079419 -0.0060093782 -0.0006061788 -0.0035715779 
  258000    300.56984    5185.0849        24389    29.085734 -0.0034059125  0.023353103 -0.0077031997 
  259000    294.38338    4493.0823        24389    28.587127 0.0081240407 -0.0066951238 -0.0053419263 
  260000    296.56428    4599.1208        24389    28.173652 -0.0038735993 -0.0022541444 -0.006116531 
  261000    294.05083    5406.8747        24389    27.579396 -0.00036502355 0.0052407694 4.0849227e-05 
  262000    297.28979    3938.6647        24389    27.105342 -0.0041245257 0.0039219003  0.014327697 
  263000    302.32108    3361.0066        24389    27.242441 -0.0043210688  0.014095335 -0.0071973625 
  264000    294.36069    5256.9339        24389    27.553617 0.00056684108 -0.0033674112 0.0070502504 
  265000    298.51782    5952.6319        24389    27.476206  -0.00170417  0.017826686 -0.0062331631 
  266000    291.32147    7924.9979        24389    27.912055 -0.0024732654  0.011970342  -0.00612183 
  267000    294.08062    3388.3199        24389    28.293289 0.0044373104 0.0095670101 -0.0087567292 
  268000    293.30538    1707.0699        24389    28.150507 -0.0022254584 0.0091827983 -0.007087905 
  269000    295.00258    7045.1215        24389    28.659414 -0.0028112645 -0.0067907863 0.00092269987 
  270000    300.71701    7270.0292        24389    29.222238 -0.0078248261 0.0091987184 0.0019399428 
  271000    298.19459    4613.4666        24389    29.589285 -0.012018812 -0.025120224 -0.011806207 
  272000    291.52319    4374.8249        24389    29.383012 0.0041958055  0.010682929 -0.017960785 
  273000    294.11411    4031.7654        24389    28.559208 0.0030250156 -0.013165026 0.0050310589 
  274000    305.60472    4586.7212        24389    27.176317 0.0041995397 0.0014034619 -0.010592414 
  275000     306.3235    4597.8346        24389    25.630891  0.012459256 0.0020369851 -0.009964145 
  276000    287.63441    3121.6137        24389    25.032714 0.0067808491 -0.0054650122 -0.0048873382 
  277000    297.96603    5796.6493        24389    25.603249 -0.0045408468 -0.0043947597 -0.0050201103 
  278000     299.9706    7143.6356        24389    26.723937 0.0010888585 0.0011757136 -0.010346332 
  279000    296.45051    4317.5907        24389    27.988172 -0.005541996 0.0010841511 0.0044638622 
  280000     293.4299    6985.4669        24389     28.55382 0.0033125124 0.0069586908 -0.011603348 
  281000    299.52319    3233.7801        24389    28.828301 -0.00096299107 -0.0034882534 -0.0068793345 
  282000    297.70217    3315.1853        24389    28.901099 -0.0083932678 0.0061836295 -0.0062904179 
  283000    302.88231    3562.1692        24389    29.454402 -0.0027675736  0.004112003 -0.012895426 
  284000    300.56057     6380.211        24389    30.081756 0.0046959884 -0.001316915 0.0026129242 
  285000    299.54985    4560.7171        24389    29.700141 -0.00058072997 -0.00035859259 -0.00016042362 
  286000    300.75731    3819.9236        24389    29.055374 0.00010521558  0.021716564  0.009173288 
  287000    294.28867    3697.8082        24389    28.614565 0.0053912891 0.0096690698 0.00086893391 
  288000    298.06311    3814.3593        24389    28.236792  0.004675294 -0.0018137579 -0.00047645583 
  289000     296.6761     3679.477        24389    27.557227 0.0051938316 -0.0068483856 -0.0075519552 
  290000     295.9831    3326.6099        24389    27.242194 0.00091211677 -0.0078765767 0.0011447389 
  291000    298.27848    8098.0381        24389    27.878961 -0.0063871315 0.0032951299 -0.0051850775 
  292000    291.01783    1676.3914        24389    28.447411 -0.0010914049 0.0027452708 0.0053301132 
  293000    297.90274    221.54523        24389    28.436451 0.00067221762 0.0035676491 -0.0039620519 
  294000    298.16879    6440.3058        24389    27.917985 -0.0022156292 0.0083795515 0.0040196019 
  295000    293.34719    5486.7855        24389    27.760205  0.004418983 -0.0031280535 -0.00098849161 
  296000    294.02478    4374.3012        24389     28.25324   0.00947132 -0.0023216852 -0.0092396935 
  297000    299.27185    4408.9688        24389    28.264846 -0.00029890935 -0.0017137893   -0.0080922 
  298000    301.33246    5261.0281        24389     27.07954 0.0085505244 -0.0041017963 0.0064142932 
  299000    292.88422    4746.8049        24389    26.082709 -0.0065443862 -0.012953484 0.0059277223 
  300000    295.66822    4190.7894        24389    25.618831 0.0005437922 -0.0094172644 -0.0032016968 
  301000    297.73134    3203.0987        24389    25.263922 -0.011804976  0.001257002 -0.00051754473 
  302000    294.62213    5667.0594        24389    25.477927 0.0017123664 -0.015615723 -0.0082279061 
  303000    295.19034    5417.2864        24389    26.290141  -0.00881484 -0.0012428526 -0.010131209 
  304000    299.56806    4088.6315        24389    27.251542 -0.0077113916 -0.0059876909  0.011417529 
  305000    302.13772    3585.4381        24389    27.200183  0.023203156 -0.0030078952 0.0092411686 
  306000    294.29903    5820.7421        24389    26.351205 0.0079132173 0.0089791467  0.001689254 
  307000    300.53919    6609.0368        24389     25.49633 0.0079191658 0.0030028062 -0.0040442788 
  308000    295.21939    5029.7781        24389    25.663652 -0.0061012044 -0.0076663321 0.0023142888 
  309000    294.63858    3639.6538        24389     26.22236 -0.0082791754 -0.0031178975 -0.010212826 
  310000    300.95671    3996.1851        24389    27.023872  -0.01487632  0.004899567  0.004947106 
  311000    291.06673    4961.1709        24389    27.982193 -0.00062992817  0.004602547 -0.011361517 
  312000    288.41738    4444.9829        24389    29.026417 0.00043312384 -0.0028371838   0.00885363 
  313000    298.03309    5065.5024        24389    29.743126 -0.0085228201 -0.0018235988 0.00098651469 
  314000    300.04883    6147.4304        24389    29.227827 0.00088822769   0.01010956 0.0076630672 
  315000    297.16903    3898.7964        24389     28.63305  -0.01088842 -0.0065400743 0.0047692351 
  316000    298.92263    5451.6625        24389    27.738378  0.012628575 0.0035791086 -0.011313261 
  317000    296.52182    5395.2504        24389    26.962815  0.014604132 -0.0082903384 0.0065135325 
  318000    295.86149    3929.8043        24389    26.457767  0.011645399  -0.01791763  0.010669906 
  319000    296.51351    4233.5652        24389    26.054752 0.0084419917 -0.0044842717 -0.016972472 
  320000     284.1211    3363.9108        24389     27.02706 0.0092353428  0.015905329 0.0023697687 
  321000    296.11039    5672.8236        24389    27.840332 -0.012057848  0.007340834 -0.0084326134 
  322000    292.62156    5165.7119        24389     28.60177  0.006497822 0.0023256574 0.0062247427 
  323000    294.01905    3518.4728        24389    28.868839 -0.0049843654   0.01197533 -0.003472735 
  324000     290.7939    4628.4253        24389    28.570931 -0.011774248  -0.01241667 -0.013644702 
  325000    297.94484    5796.8537        24389    28.427461 -0.019286612 0.0056116237 -0.014129331 
  326000    303.73597     5710.854        24389    28.236585 0.0052225297 0.0092330713 0.0023306559 
  327000    294.93077    3743.6904        24389      28.3428 -0.0027476234 0.0050863887 -0.010349456 
  328000    296.69136    2605.7829        24389    27.622558 -0.0058529136 -0.010570466 0.0065725869 
  329000    293.67656    5078.2198        24389    26.842788 0.0087974631 -0.0007686168 0.00084666186 
  330000    294.26825    7360.5764        24389    26.166209 0.0076184698 0.0085137901 -0.012973225 
  331000    298.18488    5022.3701        24389    25.970283 0.0035228951 -0.010654106 -0.0045613906 
  332000    301.79003    2314.3016        24389    26.138674 0.0051770547 0.0063509602 0.0044985268 
  333000    291.99163    4806.6354        24389    26.806834 0.0038561802 -0.0064274857 -0.0099302752 
  334000    300.44043    3846.9417        24389    26.768976 -0.0058597188 0.0098599368 0.00053294615 
  335000    293.11831    4285.1722        24389    26.851304  0.004038215 -0.0060861632 -0.0040515994 
  336000    298.22689    6295.6854        24389    26.279471 -0.006439143  0.009920308 0.0066560146 
  337000    301.40769     1843.507        24389     25.93432    0.0117781 0.0097636826 -0.0025244264 
  338000    305.07298    4612.7446        24389    26.107423 -0.0028302059 -0.0022803763 0.0099747623 
  339000     294.4402    6981.6863        24389    26.832319 -0.0047096454 0.0053999364  0.001355715 
  340000    300.14844     5558.342        24389    27.733986   0.01240019 -0.0011626548 -0.0028248475 
  341000    300.85637    4723.3268        24389    29.078339 0.0042798211 -0.010432799  0.012570729 
  342000    292.37309    3832.1804        24389    30.130534 -0.0079733548 -0.0034219891 -0.014527602 
  343000    295.29078    3201.9079        24389    30.239284 -0.004986167 0.0074167473 -0.00039866719 
  344000    295.94307    5214.5791        24389    29.549907 -0.0076271649 0.0067591636 -0.0073819012 
  345000    298.65906    7062.1496        24389    28.423917 -0.0076023949 9.866509e-05 -0.0020297242 
  346000     295.9494    3430.3203        24389    27.621699 -0.0091978869 -0.0077281039 0.0066402288 
  347000    298.26139    4108.7824        24389     27.56214   0.01278116 0.0037170949 0.0057957736 
  348000    302.89829    5357.7374        24389    27.694724 0.0012285912  0.015325026 -0.0032800795 
  349000    296.90246    3866.3042        24389    27.811184  0.009084509 -0.0035757331 0.0068871272 
  350000     293.8996    2697.0607        24389    27.507221 -0.0055738884 -0.0032212141   0.00833955 
  351000    295.81296    4366.9534        24389    27.197895 -0.016853573   0.00585282 0.0069380308 
  352000    292.51479    5245.4082        24389    27.079555 0.0030113826 0.0034185252 -0.0063809282 
  353000    293.79985    4284.6028        24389    26.649452 -3.6726543e-05   0.01064511 0.0016524421 
  354000    300.04987    5905.4759        24389     26.04736 0.0035711177 0.0012355883  0.010129413 
  355000     303.9825    5714.1278        24389    26.654451  0.010763467 -0.0065461796 -0.0017168768 
  356000     301.7125    4621.2997        24389    27.453217 0.0053120531 0.0016511493 -0.014528246 
  357000    297.86712    3994.7974        24389    27.730124 0.0090446274 0.00069559359 -0.014297027 
  358000    302.86356    5283.6554        24389    27.104855 -0.0035838094 -0.0031713081 -0.0013161906 
  359000    293.81548    6758.1181        24389    26.076527 -0.00017787675 -0.0021101754  0.010170936 
  360000    290.62983     1980.408        24389    25.707674 0.0038683657 -0.0028616101 0.0042084358 
  361000    298.86617    5185.3962        24389    25.753598 -0.00028152745 -0.0051123885 -0.0067844493 
  362000    294.84411    5006.8086        24389    25.440223 0.0029492351 0.0095598181  -0.00136468 
  363000    298.24638    1285.3588        24389    24.965727 0.0051973439 -0.010335833 -9.1873651e-05 
  364000     293.1277    4195.8293        24389    25.056936 0.0065932346  0.012223992 -0.0010321591 
  365000    299.56657    7635.3523        24389    26.074724 0.0061225104  0.008314345 -0.0016518263 
  366000    296.41411    5854.2335        24389    27.131742  0.002595891  0.013943505 -0.0050184118 
  367000     298.7098    2744.3248        24389     27.49809 0.0032038924 0.0085841455 0.0031498752 
  368000    297.33804    3186.1696        24389    27.368086 -0.00024573091 0.0025796478 0.0032232321 
  369000    296.32531    3973.5956        24389    26.846178 -0.0013167844 0.0031567034 0.00086463853 
  370000    293.27966    5377.1325        24389    26.455205 0.0044740166 0.0095925185 -0.011172283 
  371000    294.78656    5157.3806        24389    27.474103 0.00064161225 0.0042691754 0.0097530963 
  372000    303.73113    4669.2642        24389    28.345814 0.0073935449 -0.00076592239 0.0060801442 
  373000    302.52166    3324.9587        24389    27.638573 -0.00091990724 0.0070396866 -0.0050751262 
  374000    298.87468     3760.396        24389    25.842245 -0.0032080624 0.0041433415 0.0047570505 
  375000    307.70013    2717.9421        24389    24.170503 0.00063041598  0.017645849  0.015288329 
  376000    304.61405    3372.5696        24389    23.876452 0.0055426883 -0.0056370142 -0.0053403805 
  377000    299.04633     5758.987        24389    24.652266 0.0066746954 -0.0006098521   0.01817794 
  378000    298.38147    4693.5331        24389    25.686848 0.0012736605 0.0078132282 -0.0014740376 
  379000    297.10497     3975.596        24389    26.209416 -0.015513479  0.014492504  0.014264267 
  380000    300.46955    2009.7037        24389    26.467306 -0.0021784845 0.0019928626  0.011271765 
  381000    300.19934    5321.4425        24389    27.359477 -0.0024060563 -0.007421648  0.014526401 
  382000    298.20401    5908.7293        24389    28.300033 -0.0023814194 -0.0014361652 0.0076587367 
  383000    294.38607    4142.1852        24389    29.062006 0.0021226647 -0.0076277618 0.0061178306 
  384000    301.36508    1207.1706        24389    29.041059  0.020073216 -0.011728868 -0.0020421883 
  385000    296.52165    3577.9449        24389    28.594779 -0.0050374135  0.016939465 -0.0049684161 
  386000    298.43551    5211.9489        24389    28.172248 0.0047446885 0.0011734887 -0.0061345657 
  387000    297.41913    5613.1682        24389    27.596759 -0.0017522454 -0.002627004 -0.0036509715 
  388000    295.24483    4052.2489        24389    27.343933 -0.002753144 0.0032807483 -0.0033325519 
  389000    291.09197    5426.1426        24389    26.985685 -0.0092148639 0.0014220224 -0.0024164424 
  390000    293.54151    5283.0594        24389    26.602959 0.0016045223 0.0010625714  0.016846461 
  391000     296.6399    4190.8406        24389    26.228647 -0.0030379477 -0.0086935642 -0.011956655 
  392000    302.70683    4597.2543        24389    25.338449  0.013283353 -0.0093995545 0.00041269449 
  393000    292.71433    5294.9422        24389    25.731938  0.011638936 0.0021259031 -6.7777747e-05 
  394000    293.86256     4127.946        24389    26.230341 0.0027154173  -0.01014165 -0.0011473649 
  395000    300.71876    3179.5944        24389    26.700467 -0.012731845 -0.0085479385 0.0064727965 
  396000    297.38476    4215.5873        24389    27.324232 0.0046501138  0.001426668 0.0023790803 
  397000    300.04429    5728.9696        24389    27.789682 -0.00069885155 0.0018640016 0.0045511112 
  398000    303.42706    2938.1887        24389    27.806174  0.011466898 0.0020017312 0.0010141087 
  399000      300.285    4278.9486        24389    27.761291  -0.01385616 0.0048211957 -0.0054654665 
  400000    299.84568    5533.3892        24389    27.471351 0.0046144217 0.00024877673 -0.013146069 
  401000    292.85311    6641.7784        24389     27.46644 0.0073583373 0.0081386501 -0.0080287828 
  402000    296.30418    4901.1355        24389    27.643232 -0.003371293 -0.00098322934 -0.0026947831 
  403000    298.89883    4936.3901        24389    28.184833 -0.0073907343 0.0018554684 -0.010358357 
  404000    291.76903    4580.9607        24389     29.00925 -0.015465423 -0.010466722 -0.0062190444 
  405000    297.96556    3439.4878        24389    29.379607 -0.0010400692 0.0020960791 -0.0076487713 
  406000    298.70911    5497.8199        24389    29.116105 -0.0099729899 -0.0014972555 0.0086558748 
  407000    295.30187    5270.1772        24389    28.651149 -0.0067542098 -0.0034275539 -0.0015220837 
  408000    297.68803    8339.2963        24389    28.033414 -0.003306441 0.0054248609 0.0071498382 
  409000    295.94009    4579.8692        24389    27.576845 -0.0033951886 -0.0020802505  0.018323725 
  410000    293.61147     3764.241        24389    26.787798 -0.0018476068 0.0096381587 0.00022688143 
  411000    298.97264      3890.31        24389    26.181057 0.0013026308  0.011253219 0.00051175542 
  412000    301.20358    4134.9599        24389    25.737735 0.0029285541 0.0096652311 0.0010151103 
  413000    293.88361    5436.2256        24389    25.186861 0.0040081852 -0.0075392406 0.0072089388 
  414000     295.0205    7319.9531        24389    25.035804 0.0055223963 0.0030011823 0.00026817917 
  415000    294.72401    4456.2603        24389    24.365126 -0.0077478048 -0.0028120374 -0.0054783608 
  416000    298.57575    2095.9695        24389    23.787282 0.0085147324 0.0078607748  0.016507948 
  417000    293.61424    2454.2719        24389    23.150224 0.0046741359 -0.0020967353 0.0019688983 
  418000    296.48294    6190.9651        24389    23.176449  0.003205878 0.0077744467 -0.0025612593 
  419000    294.53812    6069.4344        24389    23.681277 0.0075751007 0.0071371633 0.00098722299 
  420000     296.0943    2997.2445        24389    24.249173 -0.0056153565 0.0070732946 0.0074062505 
  421000    299.04203    2786.7621        24389    24.887123 -0.0010103893  0.000685558 0.0045996542 
  422000    298.09639    5779.6828        24389    25.723821 0.0086279641 0.0010567741 0.0041418208 
  423000    297.70487    4330.7009        24389     25.33588  0.016762149 0.0084788736 0.0090018946 
  424000    299.20099    6494.5153        24389    24.189479 -0.0060020863 -0.012253566  0.013583393 
  425000    303.91974    4204.5281        24389    23.165398 0.0040785501 -0.019737312 -0.0039073602 
  426000    294.97005    2225.3617        24389     23.74058 0.0088629993 -0.0046113472 -0.0045484803 
  427000     303.1269    4036.6436        24389    25.458335 0.0011457113 -0.0046192966  0.012246177 
  428000    299.16535    5905.5662        24389    26.918939 -0.0034043879 6.9307786e-05 0.0096586795 
  429000    297.51517    2284.1871        24389    27.982636 -0.011266372 -0.0033606789 0.0097850838 
  430000       296.39    3841.9722        24389    28.135676 -0.0039417936 -0.0023288074  -0.01921658 
  431000    299.72566    6817.4307        24389    27.761109 0.0045850288 -0.0093517454 -0.010878939 
  432000    303.10758    6415.7815        24389    27.541391 -0.0039606919 -0.0036641883 0.0045017991 
  433000    292.22128    3733.0809        24389    27.552907 -0.0055303038 0.0063732777 -0.012121371 
  434000     294.5223    2526.1098        24389    27.239124 -0.007794728 0.00066077073 -0.0027243527 
  435000    298.66023    4523.9141        24389    27.050946  0.021378691 -0.013411927 -0.002409191 
  436000    291.39918    5430.6071        24389    26.666179 9.2715896e-05 -0.0098934236 0.0024722309 
  437000    292.64939    4604.8517        24389    25.862208 0.00033945735 -0.019031888 -0.012476495 
  438000    295.19469     3693.096        24389    25.050059 -0.0075207341 0.0066904394 0.0088657687 
  439000     299.6981    3899.0827        24389    24.985836 -0.0009816687 0.0011596175 -0.0012523449 
  440000    296.66521    2162.5416        24389    25.180289 -0.0077557663 0.0093525412 0.0013523929 
  441000    299.72785    6631.1485        24389    25.509453 0.0040810632 -0.0023686203 -0.0007208449 
  442000    295.14527    4667.5203        24389      26.6501  -0.01178436  -0.01190683  0.005546614 
  443000    295.67049    620.18715        24389    27.828252 -0.021188839 0.0017214102 -0.006173868 
  444000    296.41947    4474.5224        24389    28.359023 0.0062986209   0.01962167 -0.0021887281 
  445000    296.89316    7476.5928        24389    28.788329 -0.012496691  0.011312318 -0.0036162006 
  446000     294.4406     7789.084        24389    29.173138 0.0016858347   0.01562799 -0.0039991569 
  447000    295.68964    4097.7935        24389    29.261653 -0.0085327956  -0.00418677 0.0045363685 
  448000     297.8799    2779.0466        24389    28.756499 -0.001740999 0.0063243081 -0.00084667738 
  449000    287.54335    5779.2757        24389    27.553927 0.0099310381  0.008281763 0.0028016195 
  450000    289.49449    6757.2176        24389    26.043905  0.016941809 -0.003726344 0.0013642599 
  451000    289.14825    4271.8412        24389    25.312937  0.011688776 -0.0082028494 0.0021597821 
  452000    295.90913    2003.0214        24389    25.562596 0.0043615798 -0.0055491944 -0.00032820108 
  453000    301.51485    6661.0974        24389    26.395609 -0.011703655 -0.012152231 0.0075400553 
  454000    299.75802    3808.5726        24389    26.669462 -0.0024224682 -0.0065217366 -0.0032855276 
  455000    300.81563    4021.0371        24389    26.143502  0.009965727 0.0056851703 -0.0076342182 
  456000    295.24631     5820.887        24389    25.766638 -0.0071667702 -0.0010054561 -0.0035661251 
  457000      292.786    2582.4824        24389    25.747557  0.001218387 -0.0033476148 -0.0071082348 
  458000    295.22922    4197.1587        24389    26.052164 0.0088508314  0.006548913 -0.009074157 
  459000     298.8147    5825.5895        24389    26.665613 -0.0076829263  0.012074882 0.0035380755 
  460000    298.84081    5366.9004        24389    26.556102 0.0050889868 -0.0034577433 -0.0011895662 
  461000    291.75967    2076.2055        24389    26.530639 -0.004576574 -0.0080877903  -0.00717073 
  462000    301.88548    2189.9184        24389    27.109388 -0.013092758 -0.016479709 0.0073790145 
  463000    303.94548    4499.3648        24389    27.994661  0.010751192 -0.016256888 -0.0024729374 
  464000     302.9395     7978.412        24389    28.552697 -0.00039295343 0.0024792936 -0.012361193 
  465000    299.30005    3509.2088        24389    28.202279 -0.010873666 -0.0058924406 0.0059606207 
  466000    303.89157    3790.2801        24389    27.535451  0.010237417 0.0051358775 0.00090533843 
  467000    306.30789     2186.541        24389    26.835067 -0.012193774 0.0050589593 -0.0055667742 
  468000    300.26056    5369.9656        24389    26.790495 -0.0052426204 0.0079543998 -0.0084655841 
  469000    299.12505    6664.5752        24389    26.975748 -0.0015428495 0.0029788715 0.0061333456 
  470000    303.25211     2861.216        24389    26.861644 0.00079365453 0.0021408618 0.0025699681 
  471000     294.8183    4063.2271        24389    26.617483 0.00069046149 -0.0028687415 -0.0044789653 
  472000    297.68269    5619.9918        24389    26.209631 0.0078177707 0.0077873199 0.0020472104 
  473000    297.36818    4967.3026        24389    26.061248 -0.018744411 0.0057602352 -0.010402899 
  474000    292.17803    4488.8569        24389    26.150804 -0.0076250638 -0.00040211283  0.003329825 
  475000    304.85945    5694.4405        24389    25.685006  0.010581453  0.013534755 0.0072322479 
  476000    293.91807    5595.7518        24389    24.923405 0.0040313804 0.0030221869 0.0072372985 
  477000    292.84112    4753.9918        24389    24.317787 0.0029623095 -0.0004858025 0.0054573412 
  478000    300.09817    3467.3462        24389    24.837491 2.1705692e-05 -0.0041032386 0.0026844596 
  479000    295.32237     2437.061        24389    25.868749 -0.0076780889 0.0017784197 -0.0026599041 
  480000    297.98497    5000.1866        24389     26.97544 -0.0056544291 -0.008667515 0.0022393031 
  481000    302.01948    2843.8724        24389    28.010979 -0.0066442745 0.0087446905 0.0097953138 
  482000    295.68391     4194.741        24389    28.508899 -0.00061063213 0.00042070456 -0.0023222695 
  483000    303.25094    4074.0991        24389    28.442168 -0.0032761958 0.0085397671 0.0064656957 
  484000    294.55944    2731.6332        24389    28.207741 0.0012037037  0.012127113 0.0079205496 
  485000    300.92971    4649.5782        24389    28.178513 0.0041855828  0.018179096  0.010139648 
  486000    302.14489    5174.7708        24389    28.448196 -0.014350339 -0.0077329264 0.0010473711 
  487000    299.80567    3776.1289        24389    28.793255 0.0055153273 0.0053138166 -0.0069568562 
  488000    293.12156     4407.571        24389    28.977353  0.011051835 0.0065990895 -0.018444032 
  489000     295.4104    4837.0714        24389    28.741379 -0.0052247742 0.0095274628 -0.0079939292 
  490000    298.05103    7979.1469        24389    28.285539  -0.02158314 -0.0065523052 0.0065979716 
  491000    295.56919    2432.9521        24389    27.801217 0.0061856312 0.0037367605   0.00088372 
  492000    293.22619    1638.0597        24389    26.746717 -0.0083178492 -0.0051410476 0.0011937996 
  493000    296.25268    6301.6567        24389    26.035481 -0.0036457171 -0.0090321629 0.0033451399 
  494000    300.17402    5967.8083        24389    25.699522 -0.0032321406 -0.0049120324 -0.0060035431 
  495000    297.42405    6613.1211        24389    26.058212  0.010379406 -0.012875854 -0.0044316926 
  496000    294.36674    2369.3356        24389    26.589095 -0.011521885 -0.00092486579 -0.00076534462 
  497000    298.15398    2290.7713        24389    26.615058 -0.0042496107 -0.0066372235 -0.0060599389 
  498000    294.92464    4998.2104        24389     26.82576 8.0035385e-05 -0.014221077 2.3988716e-05 
  499000    293.63176    5481.1623        24389    27.347406 -0.0051197845 -0.001465121 -0.015697139 
  500000    301.49532    4001.2164        24389    27.980316  0.001001112 -0.0076222332 0.0092147458 
  501000    300.44596    3259.2503        24389    28.026748 -0.0048122754 -0.0098145796 0.0042877211 
  502000    298.70588     5643.647        24389    27.937472 -0.0046624189 -0.0035058983 -0.0087851262 
  503000    303.10267    6232.7791        24389    27.981156 0.0058506886  0.010790976 -0.0086759238 
  504000    305.52586    3339.8774        24389    28.353535 0.0068505651 -0.011541847 -0.0027507509 
  505000    296.18785    3870.9484        24389    28.392829  0.010960641 0.0097106622 -0.0059476941 
  506000    298.52978    5469.6285        24389    28.323528 -0.002641494 0.0024821284 -0.00056439404 
  507000     290.4656     4961.805        24389    28.221821 -0.00043530738 0.00097605874 0.0010853119 
  508000     302.4967    4528.0608        24389    28.103882 0.0083011372 -0.0073025171 -0.00049433152 
  509000     304.8673    5576.8258        24389    27.947856 -0.0042632421 0.0021935554 -0.0089280146 
  510000    299.77707    5150.0783        24389    27.714432 -0.0085376255 -0.0071052948 0.0033738044 
  511000    297.54756    3400.1142        24389     27.99482 0.0022869352 0.0075630345 0.0053592731 
  512000    290.19258    2460.9007        24389    28.003358 -0.0025716847 0.0011177924 -0.0021638454 
  513000     304.9909    5309.2909        24389    27.993267 0.0070748318 -0.001729846 0.00092459095 
  514000    295.52047    7287.3777        24389    28.200736 0.0063081866 0.0039382581 -0.0040927468 
  515000    293.15562    3555.4414        24389    28.480755 -0.0053776399 0.0050648919 -0.0026473097 
  516000    295.25251    3965.7769        24389    28.176626 -0.0093442057 -0.0069659884 -0.0047775774 
  517000    304.11036    3348.6725        24389    27.619617 -0.0030973002 -0.0082640292 -0.0018040523 
  518000    297.08357    6103.4338        24389    26.747352 -0.013347472 -0.005952998  0.018395253 
  519000    296.77401    5311.6372        24389    26.043673  0.013467552 -0.0016078063 -0.0030017295 
  520000      295.239    4237.6554        24389    25.789987 -0.0046047564 0.0064924514 0.0033496418 
  521000    296.14628    4491.4188        24389    25.994428  0.007809132 0.00034779547 0.0040813304 
  522000    297.77922    6019.2933        24389    27.104138 0.0030824434 0.0072572036  0.001612371 
  523000    294.01625    2586.4982        24389    28.452954 -0.0060860016 -0.008637586 -0.0085369072 
  524000    291.30855    2333.1042        24389    28.699606 -0.00092865986  0.025265498 0.00064847361 
  525000    293.07771    2895.1419        24389    27.380032 0.00042606443  0.015328256 0.0053201484 
  526000    287.59227    3075.5734        24389    25.910791 0.0014106645   0.01222907 0.0095130009 
  527000    294.67974     4804.527        24389    25.288213 -0.0013661697  0.021550634 0.0051261324 
  528000    297.70977    6108.9464        24389    25.189498 0.0063238438 -0.0043539572  0.012019852 
  529000    291.95085     4697.567        24389    25.241295  0.014277856 -0.0017129206  0.010349603 
  530000    286.07695    1778.9114        24389    25.485807  0.010502911 -0.00099159808 0.0017889685 
  531000    301.37714    4515.2294        24389    25.564963 -0.0010388883 -0.012415736 0.0039672609 
  532000    298.32945    6423.7972        24389    25.522594 0.0064941933 -0.0011087272  0.010685226 
  533000    299.29385    2444.6306        24389    25.482448 -0.0052668391 0.0027904764 0.0043051979 
  534000    300.16789     3999.703        24389    25.991951 -0.0024105282 0.0090786102 0.0093459978 
  535000    297.53028    8806.7495        24389    26.814725 -0.0017981109  0.001756653 0.0023434632 
  536000    298.45856    4196.7694        24389    27.542107 0.0055576641 0.0021793851 -0.010780202 
  537000    291.07152    1769.3774        24389    27.639127 -0.0052078483 -0.0038991465 0.0021914897 
  538000    297.67577    3170.4738        24389    27.030109 -0.018151713 0.0036871847 -2.3769422e-05 
  539000    295.58989    6788.4479        24389    26.274047 -0.0061671606  0.010996499   0.00478398 
  540000      294.704    5741.1231        24389    25.780961  0.011618096 0.0036493115  0.012344522 
  541000     291.5287    3996.7707        24389    25.904907 0.0014760371 -0.0043559502  0.016738819 
  542000    295.12505    3871.3754        24389    25.626429 0.0019396058 0.0022271353 0.0096070007 
  543000    296.13125    3542.2884        24389    25.901972 -0.010677417 -0.024952986 -0.0006011114 
  544000    292.18344      4482.81        24389    27.178026 0.00052951994 -0.00085319134 -0.0085728137 
  545000    300.51299    5225.9416        24389    28.911083  0.010482586  0.013008422 -0.014365009 
  546000    296.97217    5056.3056        24389    30.446309 0.0011373865 -0.0072265547 0.0042503116 
  547000    297.08931    2812.3931        24389     31.04588  -0.01248689 -0.0063322384  -0.01668551 
  548000     297.8129    4395.2667        24389    30.746786 -0.008137555 -0.0013233865 0.00064321406 
  549000    291.79122    6298.0889        24389    30.380202 0.0031807982 -0.011386322 0.0002421454 
  550000    301.43975    5727.0379        24389    30.068005 0.0040377913 0.0013258135 -0.0039807439 
  551000    298.97447    2281.4939        24389    29.156642 0.0080791976 0.0019523097 -0.0050920094 
  552000    292.97297    2487.9549        24389    28.370593 3.811602e-05 -0.011918648 -0.0041978894 
  553000    304.45194    3607.6644        24389    28.354324 0.0037440211 -0.0058493876 -0.0064696847 
  554000    297.70382    7163.0233        24389    28.425436 -0.004362713 -0.011874006 0.0004557123 
  555000    295.72343    3932.1818        24389    28.955783 -0.0015964579 0.0048009138 -0.0041486056 
  556000    300.24337    1753.1075        24389    29.111253 0.0018242719 0.0043791471 0.0022126659 
  557000    297.52425    2757.4336        24389    28.722208 0.00015466161    0.0132728 -0.0024934402 
  558000    299.64489    7346.0005        24389    28.219453  0.025061763 0.0072170898 -0.0078660222 
  559000    290.89136     5700.896        24389    28.340989 -0.010519733 -0.0063548502 0.0012505789 
  560000    294.07971    4163.0588        24389    28.509215 -0.0073532991 0.0042401551  -0.01097681 
  561000    295.60453    2747.5842        24389    28.436197 -0.0018331012  0.012243383 -0.0094745591 
  562000    295.06672    4245.6201        24389    28.248687 0.0051104438 0.0047444986 0.0034755745 
  563000    293.60575    6011.1845        24389    27.925854 0.0038412149 -0.0021105894 -0.0087917901 
  564000     302.2169    5468.3352        24389    27.558818 0.0032083966 0.0079594712 -0.014324346 
  565000    295.27543    3457.5504        24389    27.435305 -0.011021711 0.0034317356 -0.0019459967 
  566000    299.86814    2261.9487        24389    27.154814 -0.0094547209 0.0084689392 -0.002631294 
  567000    291.75213    3606.0134        24389    27.279089 0.0067617807 -0.0018781623 -0.0044186737 
  568000    298.24689    5173.1543        24389    27.508953 -0.0017399818 -0.0072575749 -0.0083415837 
  569000    293.05477    4654.9923        24389    27.326167 0.0025136116 -0.0041432891 -0.0012197095 
  570000    300.63119     3129.851        24389    27.191182 0.0081065515   0.01202439 0.0083487654 
  571000    296.59643     4240.036        24389    26.924124 0.0022103091 -0.0050320405 -0.0008184935 
  572000    287.87208    4278.5229        24389    26.839776 0.00051670606 0.0061871688 0.0098025256 
  573000    292.42069     3654.805        24389    27.285752 0.0086790979 -0.0079765304 -0.0057099587 
  574000    301.62307    5598.9728        24389    27.618091 2.4349531e-05 -0.012096181 0.0038471641 
  575000    299.57564    4099.7383        24389    27.613132 -0.0021849498 -0.0015688126 -0.00035059071 
  576000    296.65917     4368.263        24389    27.507203 -0.0028159797 -0.0055395048 -0.013201219 
  577000    299.72419    4119.8313        24389    27.440458 0.0019914097 0.0088473037 0.0080749089 
  578000    296.17151    4119.3874        24389    27.383957 -0.0022020745 -0.0048143494 0.0013487229 
  579000    297.14692      5575.45        24389      27.3643  0.016917929 -0.0010104375 0.0015511704 
  580000    293.15082    3272.0303        24389    27.345135 -0.0072123294 -0.0093771632 -0.004669711 
  581000    298.84425    3820.1007        24389    27.372606 -0.0098370239    0.0105021 -0.0052117365 
  582000    293.84937    4356.3949        24389    27.646386 -0.0078794722 0.0053729832 -0.0043410065 
  583000    292.78713    6031.0141        24389    27.360728 -0.009318339 0.0020897244  0.014398485 
  584000    296.04694     2263.294        24389    27.644307 -0.0040338869 -0.000535902 -0.0011881814 
  585000    297.05057    2020.6865        24389    28.052833   0.00540153 0.0014094628 1.8830285e-07 
  586000    302.59724    5663.1625        24389    28.012167  0.011804954 0.0041365612 -0.012274339 
  587000    295.62024    8200.4204        24389    28.072282 0.00090991097 -0.006121992 0.00034564212 
  588000    295.83544    2989.9701        24389    27.743986  0.004715389 0.0035864492 -0.016625963 
  589000    300.48049    1395.8652        24389     27.09857 0.0054283483  0.013361457 0.0033032386 
  590000    301.17766    4373.2909        24389    26.933367 0.0022735724 0.0085819619 0.0019536439 
  591000    300.58836    5010.2488        24389     26.99894 0.00040155128 -0.0070865821 -0.0044591824 
  592000    300.72926    3008.2896        24389    27.165151  0.004125408 -0.0059403799 -0.0030822737 
  593000    295.43246    2315.3373        24389    27.575756 0.0047583284 -0.0013502096 -0.017822376 
  594000     297.4634    3232.8629        24389    28.168407 -0.0046236156 0.0054475799 0.0066054989 
  595000    298.82102    6245.4828        24389    28.334769  0.021507492 0.0070340698 0.0061653896 
  596000    292.87957    4123.7004        24389    28.406029  0.011555706 0.0047765735 -0.0051888993 
  597000    302.60707    4090.0808        24389    27.779841 0.0012180363 -0.0016577868 -0.0077466558 
  598000    298.88463    4346.1695        24389    27.056735 0.0059287218 -0.0017082317 0.0074030844 
  599000    298.39902    4337.8528        24389    25.976783 0.0094912375 0.0017039492 -0.014896875 
  600000    296.19771    4593.3783        24389    24.630821 0.0012804509  0.004088917 -0.010198887 
  601000    292.00197    4578.3547        24389    23.957355 0.0020316522 -0.005940704 -0.013315711 
  602000    297.25872    5692.8381        24389    23.304445 -0.0013905505 -0.010997974 -0.0093038229 
  603000    295.13829    4454.6289        24389    23.410288 0.0014882782 -0.0083956824 -0.0078081287 
  604000    296.15628    5056.7419        24389    24.383687 0.0031967148 -0.011511025 -0.012052868 
  605000    292.26108    5185.7934        24389    25.578168 0.0038330302 -0.0086904561 -0.016326939 
  606000    297.93049    6668.9524        24389    27.151646 -0.0089316201 -0.0038023838 -0.0011862736 
  607000    290.97044    2333.5123        24389    28.397662 0.0038724338 -0.003382779 -0.0061206141 
  608000    300.90076    4056.9358        24389    29.137908  0.012549392 -0.0065715414 -0.0075911721 
  609000    298.02237     2642.847        24389    29.563529 -0.0053736016 -0.0052492661 -0.010073546 
  610000    289.10378    6428.4856        24389    29.539211 -0.008007269  0.018256629 0.0071893715 
  611000    298.32611    5861.8955        24389     28.47146 -0.0053042308 -0.0041591233  0.003965456 
  612000     297.7602    6495.1959        24389    27.456623 0.0049749529 -0.0061479348 0.0025728977 
  613000    293.28991     2438.352        24389    26.917946 -0.00080285352 -0.0079659693 0.0030895371 
  614000    294.18451    1988.6155        24389    27.135064 -0.0039245613 -0.021887111 -0.0015131581 
  615000    298.70131    2450.2068        24389    27.665806 0.0078118708 -0.0089501521    0.0072037 
  616000    298.44253    4947.5842        24389    27.349357 -0.00033508316 0.00030503536 0.0042695911 
  617000    288.79971    6526.7041        24389    26.420977 0.0059720074  0.010804565 0.0040274492 
  618000    298.06603    3768.6871        24389    25.796183 -0.0079146649 -0.010883849 0.0083787253 
  619000    285.48331    3425.3449        24389    26.207426 -0.0031897817 -0.00085247459  0.016256174 
  620000    289.14024    3915.6387        24389    26.662122 0.0087396073 -0.0086019135 0.0014738451 
  621000    296.94159    5572.0917        24389    27.194107  0.004278211 0.00040940077 0.0075902989 
  622000    297.89686    3852.2543        24389    27.724539 0.0095135302 -0.0086308099 -0.0065268011 
  623000    292.90377    3642.6729        24389    27.742037  0.012504505 -0.0056141964 -0.0022067262 
  624000    298.50728    4374.6006        24389    26.779526 -0.0067596744 -0.0044893387 0.0004340899 
  625000    298.85625    2585.7526        24389    24.995831  0.011009407 -0.0064096777 -0.001753796 
  626000    295.58829    5791.6021        24389     23.13807 0.0030907969 0.0064570681 -0.014415376 
  627000     294.6799    6732.5596        24389    22.290064 -0.0060687127  0.010576238 -0.0092610471 
  628000    298.96067    3352.4493        24389    22.156689 -0.0061918163 -0.0057960801 -0.014924444 
  629000    299.43687    1163.6825        24389    22.946581 0.0040708937 -0.007555006 0.0044735431 
  630000    289.45039    4962.2948        24389    23.957505 0.0088950414 -0.013378942  0.007220603 
  631000    299.02719     5886.419        24389    25.411255 0.00061385336 -0.00074216556  -0.01341922 
  632000    294.10621    2907.5942        24389    27.051536  0.011069272 -0.0013724563 0.0014615997 
  633000    298.48736    273.94886        24389    28.492644 0.0068272478 -0.0018407408 -0.015005413 
  634000    295.24154    6288.6261        24389    29.265658 -0.0016012485 -0.0055281281 0.0019463659 
  635000    303.11455    6214.4238        24389     29.43213 -0.0011979478  0.005055678 -0.00075905424 
  636000    295.94275    4741.2928        24389    28.788103 -0.0056753043  0.011674886 0.0029445052 
  637000     299.2844    3047.7777        24389    28.207652 -0.0049039713 0.0022317759 0.0048916603 
  638000     299.2609    2768.3459        24389    27.603628 -0.014118148  0.002337249 -0.0043911626 
  639000    291.27903    5133.5221        24389    27.050822 -0.0060624516 -0.0071723805 -0.0025137527 
  640000    294.02206    7141.6124        24389     26.80889 -0.0044441461 0.0045368455 0.0058253212 
  641000    296.97293    2801.9882        24389    27.192967 -0.0013187926  0.017775719 -0.001885951 
  642000    288.26457    2418.1767        24389    27.138502 -0.010531813 0.0068654762 3.1765906e-05 
  643000    293.81565    4211.2705        24389    26.752046 -0.011018423 -0.0045184813 0.0040496456 
  644000    299.83258    7761.5313        24389     26.31867  -0.01284762 0.00086825547 0.0083848204 
  645000    296.00004    4474.1426        24389    26.019286 -0.0059700703 0.0070134589 0.00064376029 
  646000    295.74381    1807.0316        24389    26.079885 0.0081497747 4.5135068e-05 0.0006918678 
  647000    293.26234    2922.4859        24389    26.615114 0.0085705114 -0.0034696815 0.0052840733 
  648000    296.43243    4663.0031        24389    26.375749   0.01173898 0.0058429778 -0.0067443953 
  649000    295.34898    4865.9486        24389    25.894246 -0.0018741571  0.007593236 -0.0037000106 
  650000    290.95528    3780.1032        24389    25.402189 -0.0022040636 0.0010254214 -0.0066233634 
  651000    299.37153    3688.2238        24389     25.23727 -0.0061337842 0.0016573971 -0.0027557398 
  652000    295.58722    2195.2216        24389    25.731792 0.0044549365 0.0086470372 0.0076891785 
  653000    297.19438    5392.7771        24389    26.532899 0.0023893433 -0.0078609675  0.011155881 
  654000     304.0769    4363.2625        24389    26.556526 -0.00089795953 0.0032320082 0.0058551831 
  655000     294.7956    2857.4166        24389    26.230613 0.0006810743 -0.0026819452 -0.0024784323 
  656000    295.13776    5456.7522        24389    26.254191 0.0019182831 -0.002054565 0.0011928512 
  657000    299.55645    4290.2417        24389    25.713729 -0.012815496  0.011362414 -0.0068696035 
  658000    292.69963    4647.1066        24389    25.072504 0.00058068246 0.0043936848 0.0060963074 
  659000    293.88568     5231.573        24389    24.040823  0.004145904 0.0074360802 -0.0018044707 
  660000    295.98097    4070.5874        24389    23.904624 -0.0025387001 -0.0029818767  0.010780793 
  661000    290.13861    2968.2679        24389    24.703345 -0.0042201828 0.0019389481 0.0025988251 
  662000    300.17609     5236.185        24389    25.693116  0.010612301 -0.009383612 0.0054696441 
  663000    301.66267    5203.5203        24389    26.665912 0.0031079132 -0.0062037333 -0.0041727451 
  664000    302.79129    2802.9406        24389    27.379158 -0.010141671 0.0013393618 -0.00070016494 
  665000    296.98339    4182.1634        24389    28.807678 0.0016053501 0.0065781203 -0.010106854 
  666000    300.40765     2145.133        24389    29.801727 0.00028594738    0.0157015 -0.0085539942 
  667000    305.07294    6600.5328        24389    29.931098 0.0042313738 0.0016573607 -0.015477153 
  668000    299.40425    6319.3779        24389    28.825702 -0.0074762548  0.003922898 0.0011958827 
  669000    302.38474    3715.9467        24389    27.317069 -0.0094289028 -0.0015678863 -0.0040669308 
  670000    286.30758      2232.74        24389    26.622547   0.01262512 0.0032389616  -0.01342573 
  671000    288.19355    3822.9444        24389      26.2833 -0.0015394562 -0.011199983 -0.0072968047 
  672000    293.58537    7258.7025        24389    26.180035 -0.00081382865 0.00029263068 0.0057142885 
  673000    293.95074    3815.3078        24389    26.327576 -0.010062117 -0.0018289436 0.0040850787 
  674000     297.2117    3263.6096        24389    26.481189 -0.014138874  0.024582364 0.00026985756 
  675000    291.77862    3572.9355        24389    26.621907 -0.018406909 0.0089365047 -0.0048883639 
  676000    298.16458    2828.3266        24389    26.985885 -0.014627832 0.0026679388 0.0092492185 
  677000    303.84069    5505.5364        24389    27.408481 0.0085787349 -0.017333428 0.0025532422 
  678000    300.16526    5453.7616        24389    27.838419 -0.002209888 -0.0098480202  0.001772741 
  679000    295.66602    3001.0621        24389    28.027566  0.014376489 -0.013045214 -0.0048451724 
  680000     294.6494    3006.5429        24389    28.302805 0.0010094946 0.0045011486  0.013576689 
  681000    301.04202    2976.2374        24389    28.597281  0.014511216 0.0042855462 0.0056259683 
  682000    303.72377     4271.124        24389    28.693765 -0.0026404888 -0.00044577268 -0.00031835252 
  683000    299.70104    7428.5197        24389    28.696668 -0.0049889193 -0.011504096  0.013399587 
  684000    291.60998    5467.1237        24389    28.230102 0.0017296297 -0.0073454326  0.013193055 
  685000    289.41674    1536.2972        24389     27.47184 -0.0058987219 0.0058714135 0.0099747559 
  686000    295.10374    3915.9435        24389    27.098674 -0.012843501 0.0061625991 -0.021828889 
  687000    291.00004    5633.2427        24389    26.856529 0.00014216132   0.01964806 -0.009161342 
  688000    296.82412    4586.7898        24389    26.768954  0.005508871 0.0013455649  0.010473834 
  689000    295.80761    2285.8107        24389    26.995861 -0.0049331112 0.0031939157 -0.00037450725 
  690000    286.35608    4513.9299        24389    27.247881 0.0014975388  0.012328127 0.0022941618 
  691000    301.35854    4688.5229        24389    27.063088 -0.0022139245 0.0070686834  0.002147354 
  692000    291.58593    5277.2544        24389    26.892955 0.0021684705 0.0067864173 0.0021960956 
  693000    292.42024    4400.8952        24389    26.653248 -0.011896098 -0.010736904 -0.0019861396 
  694000    297.95155    1473.6985        24389    26.038859 -0.017517133 0.0037726623 0.0011682022 
  695000    290.35521     3698.862        24389    26.166428 -0.0027177545 -0.0072709141 -0.0012502454 
  696000    290.23192    6710.8933        24389    25.872536 0.0094752535 -0.0034143585 0.0094483313 
  697000    292.70265    5967.1347        24389    25.766441 -0.0072886967 0.0038951124 -0.0079310736 
  698000    294.06772     3493.868        24389    25.484592 -0.0023192418  -0.00419825 -0.00053681703 
  699000    301.14096    3539.4334        24389    25.336154 -0.0068625907 -0.0031493949  0.010704081 
  700000    292.90193    8069.1279        24389    25.020529 -0.0044220036 0.0018538228 -0.011404972 
  701000    288.96838    7405.3174        24389     24.45916 0.0044067944 0.0042868367 0.0005671888 
  702000    293.78562   -190.32146        24389    24.317627 0.0076022626  0.007783939 -0.0084136463 
  703000    299.20981   -105.04425        24389    24.839306 -0.0036076743 -0.018650014 -0.0082247438 
  704000    301.24731    5905.5534        24389    26.224759 -0.014948868 0.0025937278 0.0016165727 
  705000    294.04647    7776.7302        24389    28.191502 0.00071787608 0.0083136292 -0.008713263 
  706000    299.13518    531.17887        24389    29.689206 -0.00090414924 0.0027420797 0.0062214236 
  707000    295.71519    2092.4153        24389    30.207916 -0.0077072297 0.0054213266 -0.0085378193 
  708000    297.66311    4654.1974        24389    29.482075 -0.010331398 -0.011917178 0.0064145345 
  709000    294.78475    6927.4096        24389    28.170208 0.0068959469 0.0042291839 0.00041356171 
  710000      298.677    7255.3791        24389     27.08507 -0.0029132145 0.0062125466  0.011487329 
  711000    298.67063    2005.5671        24389    26.616718 -0.0013848332 0.0029976452 0.0064937768 
  712000    286.03926    2991.2017        24389    26.417475 0.0014299453 -0.00047038234 -0.010726654 
  713000    295.32915    2821.2585        24389    26.325701 0.0028151547 0.0034769183 -0.017153653 
  714000    291.58216    6477.0085        24389    26.375355 -0.0012150056 -0.0069467052  0.011150001 
  715000    302.60944    5175.1862        24389    26.537181 0.0028960416 0.0071932877 -0.0014832345 
  716000     295.7064    1825.6585        24389    27.375958 0.00040358262  0.015988877 -0.013568306 
  717000    293.46538    4577.6467        24389    28.132248 -0.005459677  0.003790967  0.012596164 
  718000    290.48017    7704.3529        24389    28.379792 0.00084912009 -0.0063413028 -0.0091128831 
  719000    289.12772    3593.8882        24389    28.900868 0.00082119099  -0.01181317 -0.0014442462 
  720000    299.19808    2522.6212        24389    29.039881 -0.0088970699 -0.0067905873  0.011508445 
  721000    290.58587    2931.5093        24389    29.426323 0.0095962012 0.0018430433 0.0049823565 
  722000    304.36144    6087.9977        24389    29.713572 0.0038427821 -0.0081243183   0.01162269 
  723000    293.38548    5867.3797        24389    30.290889 -0.010522612 0.0066387811 0.0029007835 
  724000    297.70757    3005.1487        24389    30.332355 -0.0087619374 -0.00092564662 -0.0019489629 
  725000    298.57641    3089.9647        24389    30.339202  -0.00578824 -0.00041961274 0.0083815886 
  726000    296.27098    4198.3908        24389    30.702162 -0.0029083672 -0.0099714444  0.021776897 
  727000    295.58691    6562.6108        24389    31.274788 -0.0027038095 0.0070587179 -0.0057849387 
  728000    302.98162    4901.2362        24389    31.276869  0.012520438 0.0015188075 0.0051082473 
  729000     296.2934    4171.3412        24389    30.091617 0.0070204369 0.0060366391  0.018433935 
  730000    287.58318    3151.7553        24389    29.185893 0.0094764428 -0.002475139  0.003939858 
  731000    297.90799    5426.7326        24389     28.64313  0.014913287  0.010491337 -0.0058410791 
  732000    298.09109    6545.9654        24389    28.630518 -0.0033656098 -0.019174817 0.0078277636 
  733000    296.49833    2672.7328        24389    28.766449 0.0029094253 -0.00099703585 -0.0025184021 
  734000    298.03961    1620.6808        24389    29.199878  0.010056088 -0.0012745983 -0.0049161797 
  735000     296.0908    5583.6629        24389    29.374706  0.001242363 0.0021289569 -0.0056040524 
  736000    302.14709     5136.844        24389    29.290464 0.0067846041 0.0033407492 0.0022162133 
  737000     293.1743    2158.6856        24389    28.773382 0.0067238317  0.010663127 0.0063366463 
  738000    296.58395      2267.61        24389    27.490562 -0.011449759 0.0063733935 -0.00074046874 
  739000    300.71133    4725.6145        24389    26.583913 -0.0091490054  0.011641465 -0.014475614 
  740000    296.06396    8608.9527        24389     26.32304 -0.007252705 -0.005325303 -0.010196218 
  741000    293.51822    5005.3571        24389    26.394987 0.0054943142 0.0071383284 0.00097155986 
  742000    287.34897     50.73399        24389    27.243356 -0.0047792797 0.0025859271 -0.0019990941 
  743000    291.07368     3174.583        24389     27.67312 0.0013045766 0.0022448939 -0.0042054018 
  744000    293.14322    3942.8955        24389    28.390883 -0.0040525899  0.016481135 0.0086061914 
  745000    296.69455    4568.0356        24389    28.552393 -0.0097453853 0.0034845448 0.0040138539 
  746000    293.21003     4780.604        24389    29.020784 -0.0044708324 -0.0007653296 0.0058857698 
  747000    298.82475    6915.7899        24389    29.630805 0.0039605028 -0.00022735622 0.00037935663 
  748000    304.08064    4108.5735        24389    29.970013 -0.0054425837 -1.3275693e-05  0.008498164 
  749000    291.20446     561.7901        24389     29.32798 -0.0063651487 -0.0035753124 -0.0074412335 
  750000    299.20902    3306.6727        24389    27.895263 -7.7743999e-05 -0.0031993095 0.0052109025 
  751000    300.23283    7830.1843        24389    26.819746 -0.0013900875  0.012936286 -0.0052610302 
  752000    292.49062    3290.0619        24389    25.881799 -0.0034122657  0.008256827  0.014740622 
  753000    296.82971    2064.3205        24389     26.28248  0.012524267 0.0080799314 -0.0077102144 
  754000    296.79291    4525.6953        24389     27.15906 -0.0078943575 -0.005614654 0.0096155638 
  755000    293.73212    4992.2575        24389    27.375206  0.013858988 -0.0020543476 -0.0092685767 
  756000     294.4858    4311.6029        24389    26.666425 0.0095567158 -0.0043529908 -0.015862275 
  757000    289.49265    2205.8997        24389    25.792529 -0.0018213981 -0.0010649412 -0.0043666025 
  758000    295.45809    1882.1973        24389    25.995024 -0.012739078 0.0017183084 0.0028214617 
  759000    306.21122    3352.0873        24389    26.731958 -0.0049320542 0.0024378018  0.014435653 
  760000    296.63669    5658.1789        24389    27.200564 0.0045119704 -0.0096080112 0.0025279007 
  761000      304.496    3154.3688        24389    26.790291 0.0062184421  0.015222869 -0.0019496453 
  762000     298.3943    4661.6139        24389    25.902163 -0.0048556509 0.0090590168 -0.0027398479 
  763000    294.28653    4489.8288        24389    25.256818 -0.0020325104 0.0064079848 -0.0066219198 
  764000    290.22869     4144.991        24389    24.438516 -0.0013605382 0.0098360138 0.0093128527 
  765000    300.97644    4086.8478        24389    24.058356 -0.0075290669 0.0014528388 0.0056629747 
  766000    296.94187    7074.7753        24389    24.410271  0.001780859 0.0051996748  0.009784239 
  767000    294.33486    4481.5148        24389    25.170281 0.0054372082 0.0039322593 -0.0023438606 
  768000    292.52764    4212.3482        24389    25.979647 0.00053376058 -0.0016015567 0.00073685079 
  769000    299.90121    5109.9763        24389    25.987945 -0.0027531767 0.0048594255  0.014306588 
  770000    296.81811    2517.3239        24389     26.06499 0.0082110456 0.00093901237 -0.011077259 
  771000    289.11394    4236.9465        24389    26.313503 0.0022974195 -0.012361398 0.0060199722 
  772000    297.15761    7279.5449        24389    26.268433  0.012830322 0.0069667121 -0.0065919267 
  773000    296.62333    5478.0104        24389    25.988296 0.0037055793 -0.0021574483 -0.012663213 
  774000    296.67202    2885.9128        24389    25.249008 -0.009156756 -0.0083132401 -0.0019971947 
  775000     296.7006     2350.862        24389    24.472422  0.011307084 0.0020451675 0.0042560119 
  776000    293.91984    3928.0778        24389    24.263526 0.0034818566 -0.0024668243 7.4742581e-05 
  777000    293.66638    4585.4079        24389    24.978094 -0.0050649691 -0.013334992 -0.016786095 
  778000    294.45337    1974.5849        24389    25.773614 -0.0034757736 -0.0038607539  -0.01000584 
  779000    296.77129      3419.28        24389     25.93083 0.0022735172 -0.003760256 0.0022119417 
  780000    284.90695    4120.7657        24389    25.396499 -0.00055227512  0.017485166 -0.014006496 
  781000    291.39087    6221.1194        24389    24.576713 0.0039594158  0.002102472 0.0063220944 
  782000    298.42281    3735.6952        24389     24.49279 0.0057358178 -0.001127735  0.010217928 
  783000    293.19744    2513.0579        24389    24.965207 0.0082938181 0.0059599033 -0.0030799766 
  784000    293.33553    5271.3802        24389    26.270929 0.0052748522 -0.00016389448 -0.0071680703 
  785000    297.35793    4987.6564        24389     27.56043 0.0020264919 -0.0031530647 0.0062266637 
  786000    296.12397    3121.7226        24389    28.561768 0.0044085232  0.005629032 -0.0028990688 
  787000    292.28804    2473.4922        24389    28.546912 -0.012697061 -0.0015089383 0.0064784203 
  788000    294.57846    5005.4505        24389    27.444491 -0.0031966866 0.0094115848 0.0074002341 
  789000    300.24598    4354.2705        24389    27.018494 0.0075593348 -0.0046453211 0.0018967963 
  790000    300.33609     2868.472        24389    27.124281  0.010671118 -0.013489425 0.0096444297 
  791000    293.94306    4379.7537        24389    27.900488 0.0095604238 0.0026441354 -0.0042292543 
  792000    295.71957    5905.6635        24389    28.668636 0.0083979572 -0.0050717261 -0.0044057421 
  793000    295.88526    4101.5061        24389    29.394919 6.4535626e-05 -0.00064730895 -0.0016100169 
  794000    297.71855    3244.3154        24389    29.628442 -0.017020977 -0.0082409053 -0.0064212916 
  795000    299.62769    4640.8904        24389    29.152046 0.0039010186  0.011598924  0.014864896 
  796000    299.68095    2916.6357        24389    28.239762 0.0047152089 0.0051273335 0.0029344343 
  797000    293.29705    3862.5906        24389    26.927381 0.0051061102 -0.0047856465 0.00024912043 
  798000    298.10478    5762.1626        24389    25.779526 -0.0094354753 -0.0039590927 -0.016804834 
  799000    298.42446    1316.0109        24389    24.861351  -0.01134856 0.0050688548 0.0036143865 
  800000    293.18239    194.19191        24389    24.755291 -0.0057944411 0.0048552765 0.0015391906 
  801000    292.87725    5794.8467        24389    24.766901  0.010830939 0.0081767051 -0.0041848488 
  802000    296.93479    6236.1905        24389     24.89442 0.0020768191 -0.0045440738 -0.008591539 
  803000    302.80112     4020.603        24389    25.214507 -0.0043971884 0.00054234891 -0.011195155 
  804000    298.03532    3469.9865        24389    24.778469 0.0036442109 0.0038944331 -0.010007198 
  805000    294.93921    4923.6093        24389    24.377286 0.0064469245 0.00045361566 -0.010033942 
  806000    298.30607    2755.4011        24389    24.461563 -0.0044347939 0.0047526903 0.0013278604 
  807000     298.5813    3205.7898        24389    24.192576 0.0029162044  0.004759544 -0.00044268799 
  808000    291.53019    4058.1026        24389    23.546608 -0.014112853 0.0054622298 0.0056024056 
  809000    297.85463    6913.6663        24389    23.274303 -0.0018078523  0.010845078 0.0010210739 
  810000    299.76902    4349.8337        24389    23.429668 0.0059877395 0.0048279937 -0.0016140163 
  811000    302.18775   -1078.2726        24389    23.670253  0.007909636 -0.0080483871 -0.011108534 
  812000    294.61973    1830.4757        24389    24.059867 0.0071816438 0.0080245801 0.0076432037 
  813000    292.09979    8197.2038        24389    24.563579  0.015351772 0.0048445685 0.00039661976 
  814000    291.62935    7708.2145        24389    25.228816  0.016966892 -5.9210407e-05 0.0037995441 
  815000    286.81093    3999.0575        24389    25.403245 0.0090739568 -1.7045259e-05 -0.0063030546 
  816000    293.03784    1177.9551        24389    24.893521  0.010534042 -0.004523239 -0.0097698637 
  817000    295.65326    4951.5737        24389    24.418719 0.0039995436 -0.0085315768 -0.0066239887 
  818000    291.41677    7173.8966        24389    24.270635  0.010335163 -0.016383786 0.0083287912 
  819000    292.03943     2376.416        24389    24.331598 -0.0060145971 -0.0034890357 0.0020005256 
  820000    298.12998    709.94022        24389     25.19477 0.0071044381  0.006213889 -0.0017895817 
  821000    302.66648    4220.9079        24389    26.323042 0.0029603856 -0.0081811532 -0.013094586 
  822000    301.21751    6132.2257        24389     27.84883 -0.00080132708 -0.0071567537 -0.0032523162 
  823000     294.3579    2680.8677        24389    28.857082  0.002536385 -0.0042047204  0.020328588 
  824000    302.84431     2478.405        24389    29.031425 -0.0042111539 0.0040291057 -0.0039880825 
  825000    298.72703    5012.8745        24389    28.526509 0.0060472047 0.0081959241 0.00070392106 
  826000    300.24697    4702.2261        24389    27.144367 -0.00081141066  0.009866754 -0.018245995 
  827000    295.19027    2690.7777        24389    25.392584 -0.00022447866  0.011746687 8.8365486e-05 
  828000    300.01764    5637.5524        24389    23.843412 -0.0019251542 -0.0031429022 0.0051963854 
  829000    301.32267    4802.6662        24389    23.466088 0.0064824866 0.0044803324 -0.0058159592 
  830000    295.28432    851.30518        24389     24.38536 0.0089467983  0.014732237  0.006268947 
  831000    291.93348    723.49408        24389    25.315743  0.012656758  0.004787554  -0.01760442 
  832000     294.6425    6456.9696        24389    25.678012 0.0094495403 0.0055482799 8.6441172e-06 
  833000    295.45836    4910.4888        24389    25.751902 -0.011923131 0.00083381244 0.0025412817 
  834000    293.99381    2241.5052        24389    26.204625 0.0039833421  0.014253396  0.001398587 
  835000    296.62715    4373.7729        24389    27.503262 0.0075043686 -0.0063466029 -0.0035093644 
  836000    297.84529    4786.2618        24389    28.917926 -0.0081760238 -0.010549292  -0.01035843 
  837000    302.97161    3610.9039        24389    29.790911 -0.0061315576 0.0085377195 -0.028337535 
  838000    295.76504    3004.7653        24389    29.846325 -0.0021956926 0.0027386575 -0.0055039993 
  839000    297.33681    7366.4372        24389    29.222092 0.0080234489 -0.011357463 -0.0088298203 
  840000    298.99709    4269.6029        24389    28.039524 0.0020665157 -0.00024109847 0.0014889413 
  841000      292.687    1568.1979        24389    27.082566 0.0074586985 -0.019799443  0.011302641 
  842000    298.66594    3355.4558        24389    26.824361 0.0059064644 0.0077840098 -0.0065776314 
  843000     297.9061    4962.8626        24389    27.064882  0.012139245 0.0053703112 -0.0073896389 
  844000    295.60808    4567.0949        24389    26.870736 -0.0089078741 0.0028213759 -0.001632295 
  845000     294.2384    3641.2907        24389    26.400343 -0.0039846026 -0.0038046132 -0.0013651912 
  846000    294.90872    3590.2971        24389    26.272037 -0.0032909627 -0.0023262466 0.0048951106 
  847000    304.08138     2849.911        24389    26.698721 0.0029231512  0.011574009 -0.0053040717 
  848000    296.45222    2971.8753        24389    27.323231 -0.017250609  0.011064009  0.015475319 
  849000    292.87428    3988.5168        24389    27.586707 -0.0098599601 0.0019074214 0.0084683525 
  850000    296.00277    3280.6784        24389    27.170478 0.0012878382 0.00021436624  0.014236132 
  851000    291.54644    4740.3157        24389    26.923978 -0.0050864175  0.012251518 0.00096373528 
  852000    299.33304    3145.8554        24389    26.451278 0.0095762884 0.0026943698 -0.0068576513 
  853000    298.06965    3155.3687        24389    26.574946 -0.0028302774  0.016456583 -0.0038336871 
  854000    308.51308    4039.2212        24389    26.599227 0.0072401232  0.013904853  0.011026737 
  855000    301.29108    4344.8058        24389    26.311394 0.0064577601 -0.0063052646 0.0036017721 
  856000    299.03817    3320.3171        24389    25.577806 0.0043614979   0.00199847 0.0096758383 
  857000     297.0846    4504.7794        24389    25.542708 0.0010106325 -0.0029509976   0.00905087 
  858000    295.43703    2752.0538        24389    25.700491 -0.008337131 -0.0018560778  0.002208954 
  859000    298.49572     4151.439        24389    26.500926 -0.0097964508 -0.0037331499 0.0041997468 
  860000    297.99534    5118.0903        24389    27.651985 -0.0054376415 0.0054017725 -0.0012710288 
  861000    294.67151    3885.6169        24389    28.933476 0.0085825519 -0.0064052724 -0.0018378709 
  862000     301.4284    5936.5012        24389    30.098389  0.014472027 -0.0096139131 -0.0027451307 
  863000    299.81854    3909.4283        24389    30.810078  0.010490101 -0.0014009148 0.0070502406 
  864000    296.26851    1678.2885        24389    30.639748   0.01655304  0.012374686 0.0027196862 
  865000    297.17151    3699.8002        24389    29.490499 0.0033170098 -0.0031300914  0.001324563 
  866000    297.03947    4597.8457        24389    28.019294  0.004403427  0.011923999 -0.0014132072 
  867000    295.49747    5800.6768        24389    26.617402 -0.009921947 0.0037335998 0.0033754855 
  868000    292.67041    1554.1731        24389    25.727288 -0.003250359  0.004658624 0.0017001844 
  869000    293.96328    2811.2348        24389    25.240219 -0.0063457511   0.00609452 -0.0036242772 
  870000    296.09706    4830.0101        24389    25.196109  0.002041399 0.00024067478 -0.0032199123 
  871000    295.63553    4541.6605        24389     25.16996 0.0036647662 -0.0026355043 0.0059391157 
  872000    295.05943    2871.2057        24389    25.436742 0.0086893252   -0.0108834 0.0053322885 
  873000    287.34155    4917.8549        24389    25.872123 -0.0065508732 -0.0092223005 -0.002377714 
  874000    291.95869    2284.5599        24389    26.384688 0.0054182899 -0.0028766327 0.0022172423 
  875000     297.5155    3916.8662        24389    26.758492 0.0078986159 -0.002620406 0.00062903684 
  876000    301.49066    4883.6361        24389    27.350045 0.00085283471 -0.0090546008 -0.0059865077 
  877000    290.31223    4838.0086        24389    27.465307 -0.0071292263 0.0045851811 -0.003956034 
  878000      298.331    2005.4841        24389    27.079828 -0.0010279381 -0.0019318714  0.010417881 
  879000    294.61352    3300.6223        24389    26.811409 0.0019736791 0.0023636735 0.0072477345 
  880000    295.67082    3999.2834        24389    26.739727 -0.0036171802 -0.007848918  0.016390033 
  881000    295.60362    4661.7432        24389    26.341952 -0.00066592566 0.0081464618 0.0067443032 
  882000    291.51614    6412.2606        24389    25.651899 0.0017777891 0.0055671858 0.0035478054 
  883000    293.69167    2964.6336        24389    24.930214 -0.0066195072 -0.015825789  0.009999721 
  884000    290.42367     1052.178        24389    24.725565  0.019977328  0.008251795 0.0023312401 
  885000    289.96443    4858.9869        24389    25.102775 0.0084401623 -0.0026871968 0.0063684939 
  886000    303.65784    5909.0843        24389    25.977062 0.0065859894 -0.0033838509 -0.016444579 
  887000    304.63705    4681.6966        24389     26.53761 0.0027791447 0.0046978114 -0.017837775 
  888000    304.88565   -51.386589        24389    26.448117  0.010408712 -0.00031518493 -0.0012392416 
  889000    298.78441     4188.733        24389    26.401067 -0.011577986 -0.0078789518 0.0045739919 
  890000    293.98687    5551.6124        24389      26.9981 0.0046234817 -0.012868925 -0.00092772316 
  891000    300.88359    4498.0834        24389    27.234005  0.010565879 -0.0038190257 0.0031386272 
  892000    292.72371    1795.0833        24389    27.901686 0.0081032003 -0.0078574961 0.00025042596 
  893000    292.94967    2168.6405        24389    28.087005 -0.013985334 -0.0064195664 0.0093168729 
  894000    293.19287    5078.7237        24389    27.776011 0.0047421007 -0.006700146 0.0098520879 
  895000    303.62449    4611.5215        24389    27.354047 0.0070027375 0.0074683027 -0.0037592824 
  896000    297.20803    2832.5868        24389    27.227859 0.0070950965 -0.0045234579 -0.010437144 
  897000    301.46758     3425.726        24389    27.538986 0.0064151755  0.017667512 -0.0072859725 
  898000    293.43611    5054.3333        24389    27.828109 0.00039289324 0.0063931601 0.00026404293 
  899000    298.75603    3948.2073        24389    28.605027 -0.0047370505 0.0035752456 -0.0013593628 
  900000    298.46709    4604.0264        24389    29.072241 0.0098797886  0.015236958 -0.006763693 
  901000     298.2695    3637.8441        24389    29.064158 -0.0070912967 0.00017925681 -0.0018413567 
  902000    288.93334    4538.5551        24389    28.753409 0.0094867212  0.012730675 -0.0091836245 
  903000    295.66012    1755.0537        24389    27.995434  0.011796445 -0.0016725979 0.0060702708 
  904000     298.3491    3783.9735        24389    27.774783 0.0014197566 -0.00039488193 -0.011706179 
  905000    299.59238    4484.3594        24389      28.0481  0.013023635  0.017243291 -0.0051818375 
  906000     300.7079    6072.9851        24389    28.186431 0.0022692965 0.0023416918 -0.0010554855 
  907000    298.75034    4175.7958        24389    28.470267  0.014284032 0.0042240053  0.011894563 
  908000    296.19555    2063.9614        24389    29.043274  0.014099303 0.0077653075 0.0083491012 
  909000    297.52148    5060.6251        24389    29.203709 0.00036229649 0.0021449515 -0.0055429193 
  910000    286.18136    4034.1137        24389    28.842041 -0.0036437622 0.0079509621 0.0029486055 
  911000    291.04648    4012.3716        24389     28.28928 0.0092492211 0.0099178451 -0.002277092 
  912000    293.24936    4591.2178        24389    27.779347 -0.0031241303 0.0037365848 -0.0031535063 
  913000    292.62775    6458.1816        24389    27.471588 -0.0050927463 -0.0025445293 -0.0060806736 
  914000    289.35253    3969.9088        24389    27.103785 -0.0019226472 9.7750357e-05 -0.0024266986 
  915000    296.47513    2695.1744        24389    27.138802 -0.010567162 0.0074537933 -0.0029367516 
  916000    287.11459    3514.7353        24389    27.348881 -0.0046565973  0.019128382  0.004862331 
  917000    291.97172    5544.5856        24389    27.666397 -0.013620752 -0.0025571854  0.010241384 
  918000    284.31156    3739.0567        24389    28.040286  0.004868369 -0.0049235621 -0.0049122616 
  919000    298.56268    3780.3891        24389    28.818874 -0.018097777 0.0054758297 0.0017608458 
  920000    296.99899    3688.6963        24389    29.833594  0.018051764 -0.0080534094 -0.0026048045 
  921000    296.84548    4095.7248        24389    30.094228 0.0069605924  0.019193517 -0.0056478764 
  922000    296.11124    2560.6406        24389    29.741551  0.002091915 -0.0035888177  0.011250268 
  923000    299.91137    5210.0317        24389    29.032237 0.0020836434 -3.4564088e-05 -0.0059107698 
  924000    293.62021    5146.6297        24389    28.404784 -0.0087888724  0.012973323 -0.001036226 
  925000    291.31102    2444.2071        24389    28.299736 -0.0087360591 0.0061334755 -0.006844623 
  926000    287.50976    2148.8904        24389    28.484183 -0.0038527303  0.011389652 -0.013442064 
  927000    296.29502    3981.5493        24389    28.789986 0.0086377832 -0.0063562304 0.0079758647 
  928000    300.46483    6237.9616        24389    28.463002 -0.00044510599  0.002961237 -0.0078707086 
  929000    295.43867    3153.6427        24389     27.76781 0.0041450813 -0.0029884921 -0.014936417 
  930000     297.0037    2068.0285        24389    26.985741 0.0081445746 -0.018700882 -0.011666706 
  931000    305.81663     3707.018        24389    27.021611 0.0045460487 -0.0019094858 -0.010509833 
  932000    306.97277    4534.5734        24389    27.553568 0.0063956472  0.010431217 -0.0074196734 
  933000    297.82073    4686.5497        24389    27.604641 0.0038113481  0.014493437 -1.6342346e-05 
  934000    297.70946    5838.5811        24389    28.293488 0.0068853285 0.0059247752 0.00096899201 
  935000    296.85495     2371.295        24389    28.942504 -0.014952197 0.0013586107 -0.0032045443 
  936000     300.5391    3917.6616        24389    29.691967 -0.010048571  0.015744855  0.007743808 
  937000    292.58123    3804.4465        24389    29.669788 0.0060432268  0.005777989 0.0018931446 
  938000    295.19911    4074.3654        24389    29.319806 -0.0032657365 -0.0019197669 0.00020519771 
  939000    299.46084     3002.365        24389    28.999412  0.014173791 -0.00043009633 0.00031453167 
  940000    296.41491    5276.7399        24389    28.839551 0.0065322583 0.0063011589 0.0095012346 
  941000    299.58526    1098.8834        24389    28.724121 -0.022744469 -0.0032731688 0.00089763715 
  942000    298.03033    3968.5092        24389     28.39282 -0.0052546778 0.0067454258 -0.010883972 
  943000    292.83324    6048.0147        24389    28.006569 -0.010566613 -0.012643579 -0.0086965821 
  944000    296.29243    5189.2055        24389    27.848544 0.0013890617 0.0081467321 -0.0041963104 
  945000    295.48064    2672.2532        24389    27.875047   0.00558308 -0.0086465307 -0.0092371279 
  946000    295.57456     2748.918        24389    27.701477 0.0044260915 -0.00025404261 0.0028189035 
  947000    292.53263    3734.3259        24389    27.468238 -0.011219782 -0.0015353824  0.008540034 
  948000    295.80748     5393.491        24389    27.126708 -0.013128795 -0.0057480208 0.0060255794 
  949000    292.61773    5169.3718        24389     26.60244 -0.005392422 0.0019677439 0.0034427208 
  950000    299.67046    1667.0324        24389    26.086512 0.0018983048  0.013528892 -0.0038557262 
  951000       296.66    176.90749        24389    25.874221  -0.01103648 0.0094998465 0.0049201527 
  952000    296.31905    4632.3507        24389    25.696581 0.0031796726  0.013865037 -1.2513215e-05 
  953000    293.93426    6165.1081        24389     25.76244 0.0069437096 0.0088491349 -0.0026617655 
  954000    294.52757    3796.0207        24389    26.307613 -0.0025839082 -0.0098216129 0.0047449094 
  955000    299.31664    1623.0295        24389    26.901004 0.0093357515 -0.0020757433 0.0019253909 
  956000    296.69237    2044.7726        24389    27.165702 -5.8251545e-05 0.0065479454 -0.006850152 
  957000    301.70714    7303.7321        24389    27.075152 0.0037167757 -0.0053840012 -0.0036734948 
  958000    297.91688    6726.9338        24389    26.940771 -0.0015377672 0.0022258297 -0.00082319424 
  959000    293.65519    2099.5334        24389    26.492527 -0.0079105509 -0.0061770601 0.0029259453 
  960000    290.68773    1454.2906        24389    26.387622 0.0062756402 -0.0090569984  0.012142383 
  961000    294.43369    3522.4857        24389    26.219105 0.0023722587 -0.0069361886 0.0086066805 
  962000     295.8324     6811.139        24389      26.5054 0.0026476469 -0.0029849452 0.0049712754 
  963000    295.36674    4709.5173        24389    27.536152 -0.0029028717 -0.0067658605 -0.0016834891 
  964000    293.81859    1889.9975        24389    28.481339 0.0050251227 0.0068266112 0.0040370914 
  965000    293.05361    4227.0347        24389    29.159714 -0.0014513667 -0.0060579868  0.016551911 
  966000    296.58815    5659.0175        24389    29.086655  0.010182145 0.0034651265  0.005684454 
  967000    296.55328    4449.8316        24389    28.399844 0.0015765068 -0.011763704 -0.005024817 
  968000    292.18103    4117.9606        24389    27.926326 -0.0087923059 -0.0078987162  0.004486965 
  969000    298.14165    2771.1718        24389    27.247796 0.0061978263  0.011598999 -0.015852961 
  970000    293.75029    4240.7943        24389    27.062859  0.012408619  0.015561583  0.001251025 
  971000    299.26351    5190.3715        24389    26.771474 -0.0050057004 -0.0013964832 -0.011694826 
  972000    294.42363    5077.3953        24389    26.542164 -0.00035815274 -0.0064980304  0.016222481 
  973000    289.94201    2528.4248        24389     27.03454 0.0023030877 -0.00055804992 -0.008097525 
  974000    301.05404    3669.0525        24389    27.638471 -0.018221745 0.0041199253 -0.00069280036 
  975000    305.72888    5432.5862        24389    27.971366 -0.011340036 0.0018585668 -0.0014088447 
  976000    294.78796    4398.5447        24389    27.952984 -0.0023071658  0.010737892  0.012015942 
  977000    297.39483   -97.207545        24389    27.638465 0.0078051887 -0.0031576884 0.00027585475 
  978000    293.08251     2665.954        24389    27.184108 0.0021688556 -0.0027085879 0.0068173203 
  979000    293.79528    4799.5091        24389    26.892743 0.0046045791 -0.0011897277 0.0081030406 
  980000    291.11661    5231.5247        24389    27.344523 -0.0054205652 -0.0006326304 0.0062265038 
  981000    296.96024    2724.4491        24389    28.063144 0.0045848137 -0.008921718  0.011211156 
  982000    294.30173    5578.7247        24389    28.400052  0.010921778 -0.0016915521 -0.0071658803 
  983000    304.99178    2992.1794        24389    28.595805 -0.006141804  0.002562939   0.01384316 
  984000    289.08842    3656.0552        24389    28.991082 -0.000427342 0.0065076413 -0.0022741949 
  985000    299.38665    3112.8536        24389    29.291412 -0.0010970975  0.013294753 -0.0084842408 
  986000    300.28812    3906.3415        24389    29.125964 -0.00023871168 -0.0062022948 -0.015309321 
  987000    288.91343    4558.8314        24389    28.868788 -0.0052281856 -0.0060436244  -0.01532971 
  988000    287.24453    4561.7477        24389    28.292681 0.0071197945 0.00040179978 -0.0061747556 
  989000    297.74632    1345.8178        24389    28.070495 0.0082454924 0.0027476415 -0.000349019 
  990000    296.14429    2665.6682        24389    27.963546 0.0076903887 0.0028604714 -0.00042966883 
  991000    300.11569    4545.0119        24389    27.674847 0.0011667229  0.015973339 0.0049268415 
  992000    299.26993     4316.223        24389    27.347404 0.0027876564 -0.0014795059 0.0010663573 
  993000    296.16142    3480.8603        24389    26.828888 -0.00055097659 0.0018071111 0.0055196864 
  994000    294.69446    4552.1764        24389    26.401192 -0.0036792715 -0.0014620274 -0.010799987 
  995000    295.72254    1390.8384        24389    25.895963 0.0056605099 -0.0074181015 -0.0051149847 
  996000    302.74122    4760.3052        24389    25.241628 -0.00030914412 0.0099537204 -0.0016474602 
  997000    293.40453    5128.3775        24389    24.611888 0.0042501577 -0.016913663 0.00070444517 
  998000    298.54209    4173.1863        24389    24.349159 -0.003340838 -0.0089019286 0.0061374083 
  999000     291.6083    4728.3289        24389    24.465676 -0.0088615978 -0.0093789024 0.0008434571 
 1000000    294.29916    6087.1128        24389    24.794798 -0.0015251268 -0.011224936 0.0063256039 
Loop time of 21372.6 on 16 procs for 1000000 steps with 1920 atoms

Pair  time (%) = 18845.1 (88.174)
Bond  time (%) = 0.475466 (0.00222465)
Neigh time (%) = 43.8528 (0.205182)
Comm  time (%) = 1964.87 (9.19338)
Outpt time (%) = 2.76692 (0.0129461)
Other time (%) = 515.556 (2.41223)

Nlocal:    120 ave 126 max 109 min
Histogram: 1 0 0 0 2 5 1 1 3 3
Nghost:    4896.06 ave 4923 max 4867 min
Histogram: 1 1 2 2 2 3 1 0 3 1
Neighs:    51718.2 ave 54089 max 46776 min
Histogram: 1 0 0 0 1 3 4 1 3 3
FullNghs: 103436 ave 108521 max 93672 min
Histogram: 1 0 0 0 2 4 3 0 3 3

Total # of neighbors = 1654982
Ave neighs/atom = 861.97
Ave special neighs/atom = 0
Neighbor list builds = 5184
Dangerous builds = 0
#	run			10000
	unfix			1
	uncompute		myKE
	uncompute		myPE
	uncompute		myStress
	uncompute		flux
	uncompute		myDis
	unfix			JJ

	next seed
	next iseed
jump lmp.in.gk loop_seed
variable iseed loop 10
variable seed index 11111 22222 33333 44444 55555 66666 77777 88888 99999 11110
clear
###########################################################################
#x0
###########################################################################
units 			metal
atom_style		full
read_data		fort.26
  0 = max bonds/atom
  0 = max angles/atom
  0 = max dihedrals/atom
  triclinic box = (0 0 0) to (29 29 29) with tilt (0 0 0)
  2 by 2 by 4 processor grid
  1920 atoms
  0 bonds
  0 angles
  0 dihedrals
  0 = max # of 1-2 neighbors
  0 = max # of 1-3 neighbors
  0 = max # of 1-4 neighbors
  1 = max # of special neighbors
group         		C type = 1
60 atoms in group C
###########################################################################
#OLPS
###########################################################################

################################################################################
#### Pair potentials
################################################################################
pair_style hybrid/overlay tersoff lj/cut 12.0
pair_coeff * * tersoff C.temp.tersoff 1 2 3 4 5 6 7 8 9 10 11 12 13 14 15 16 17 18 19 20 21 22 23 24 25 26 27 28 29 30 31 32
pair_coeff 1 2 lj/cut 0.00070000000 3.5500000000
pair_coeff 1 3 lj/cut 0.00070000000 3.5500000000
pair_coeff 1 4 lj/cut 0.00070000000 3.5500000000
pair_coeff 1 5 lj/cut 0.00070000000 3.5500000000
pair_coeff 1 6 lj/cut 0.00070000000 3.5500000000
pair_coeff 1 7 lj/cut 0.00070000000 3.5500000000
pair_coeff 1 8 lj/cut 0.00070000000 3.5500000000
pair_coeff 1 9 lj/cut 0.00070000000 3.5500000000
pair_coeff 1 10 lj/cut 0.00070000000 3.5500000000
pair_coeff 1 11 lj/cut 0.00070000000 3.5500000000
pair_coeff 1 12 lj/cut 0.00070000000 3.5500000000
pair_coeff 1 13 lj/cut 0.00070000000 3.5500000000
pair_coeff 1 14 lj/cut 0.00070000000 3.5500000000
pair_coeff 1 15 lj/cut 0.00070000000 3.5500000000
pair_coeff 1 16 lj/cut 0.00070000000 3.5500000000
pair_coeff 1 17 lj/cut 0.00070000000 3.5500000000
pair_coeff 1 18 lj/cut 0.00070000000 3.5500000000
pair_coeff 1 19 lj/cut 0.00070000000 3.5500000000
pair_coeff 1 20 lj/cut 0.00070000000 3.5500000000
pair_coeff 1 21 lj/cut 0.00070000000 3.5500000000
pair_coeff 1 22 lj/cut 0.00070000000 3.5500000000
pair_coeff 1 23 lj/cut 0.00070000000 3.5500000000
pair_coeff 1 24 lj/cut 0.00070000000 3.5500000000
pair_coeff 1 25 lj/cut 0.00070000000 3.5500000000
pair_coeff 1 26 lj/cut 0.00070000000 3.5500000000
pair_coeff 1 27 lj/cut 0.00070000000 3.5500000000
pair_coeff 1 28 lj/cut 0.00070000000 3.5500000000
pair_coeff 1 29 lj/cut 0.00070000000 3.5500000000
pair_coeff 1 30 lj/cut 0.00070000000 3.5500000000
pair_coeff 1 31 lj/cut 0.00070000000 3.5500000000
pair_coeff 1 32 lj/cut 0.00070000000 3.5500000000

pair_coeff 2 3 lj/cut 0.00070000000 3.5500000000
pair_coeff 2 4 lj/cut 0.00070000000 3.5500000000
pair_coeff 2 5 lj/cut 0.00070000000 3.5500000000
pair_coeff 2 6 lj/cut 0.00070000000 3.5500000000
pair_coeff 2 7 lj/cut 0.00070000000 3.5500000000
pair_coeff 2 8 lj/cut 0.00070000000 3.5500000000
pair_coeff 2 9 lj/cut 0.00070000000 3.5500000000
pair_coeff 2 10 lj/cut 0.00070000000 3.5500000000
pair_coeff 2 11 lj/cut 0.00070000000 3.5500000000
pair_coeff 2 12 lj/cut 0.00070000000 3.5500000000
pair_coeff 2 13 lj/cut 0.00070000000 3.5500000000
pair_coeff 2 14 lj/cut 0.00070000000 3.5500000000
pair_coeff 2 15 lj/cut 0.00070000000 3.5500000000
pair_coeff 2 16 lj/cut 0.00070000000 3.5500000000
pair_coeff 2 17 lj/cut 0.00070000000 3.5500000000
pair_coeff 2 18 lj/cut 0.00070000000 3.5500000000
pair_coeff 2 19 lj/cut 0.00070000000 3.5500000000
pair_coeff 2 20 lj/cut 0.00070000000 3.5500000000
pair_coeff 2 21 lj/cut 0.00070000000 3.5500000000
pair_coeff 2 22 lj/cut 0.00070000000 3.5500000000
pair_coeff 2 23 lj/cut 0.00070000000 3.5500000000
pair_coeff 2 24 lj/cut 0.00070000000 3.5500000000
pair_coeff 2 25 lj/cut 0.00070000000 3.5500000000
pair_coeff 2 26 lj/cut 0.00070000000 3.5500000000
pair_coeff 2 27 lj/cut 0.00070000000 3.5500000000
pair_coeff 2 28 lj/cut 0.00070000000 3.5500000000
pair_coeff 2 29 lj/cut 0.00070000000 3.5500000000
pair_coeff 2 30 lj/cut 0.00070000000 3.5500000000
pair_coeff 2 31 lj/cut 0.00070000000 3.5500000000
pair_coeff 2 32 lj/cut 0.00070000000 3.5500000000

pair_coeff 3 4 lj/cut 0.00070000000 3.5500000000
pair_coeff 3 5 lj/cut 0.00070000000 3.5500000000
pair_coeff 3 6 lj/cut 0.00070000000 3.5500000000
pair_coeff 3 7 lj/cut 0.00070000000 3.5500000000
pair_coeff 3 8 lj/cut 0.00070000000 3.5500000000
pair_coeff 3 9 lj/cut 0.00070000000 3.5500000000
pair_coeff 3 10 lj/cut 0.00070000000 3.5500000000
pair_coeff 3 11 lj/cut 0.00070000000 3.5500000000
pair_coeff 3 12 lj/cut 0.00070000000 3.5500000000
pair_coeff 3 13 lj/cut 0.00070000000 3.5500000000
pair_coeff 3 14 lj/cut 0.00070000000 3.5500000000
pair_coeff 3 15 lj/cut 0.00070000000 3.5500000000
pair_coeff 3 16 lj/cut 0.00070000000 3.5500000000
pair_coeff 3 17 lj/cut 0.00070000000 3.5500000000
pair_coeff 3 18 lj/cut 0.00070000000 3.5500000000
pair_coeff 3 19 lj/cut 0.00070000000 3.5500000000
pair_coeff 3 20 lj/cut 0.00070000000 3.5500000000
pair_coeff 3 21 lj/cut 0.00070000000 3.5500000000
pair_coeff 3 22 lj/cut 0.00070000000 3.5500000000
pair_coeff 3 23 lj/cut 0.00070000000 3.5500000000
pair_coeff 3 24 lj/cut 0.00070000000 3.5500000000
pair_coeff 3 25 lj/cut 0.00070000000 3.5500000000
pair_coeff 3 26 lj/cut 0.00070000000 3.5500000000
pair_coeff 3 27 lj/cut 0.00070000000 3.5500000000
pair_coeff 3 28 lj/cut 0.00070000000 3.5500000000
pair_coeff 3 29 lj/cut 0.00070000000 3.5500000000
pair_coeff 3 30 lj/cut 0.00070000000 3.5500000000
pair_coeff 3 31 lj/cut 0.00070000000 3.5500000000
pair_coeff 3 32 lj/cut 0.00070000000 3.5500000000

pair_coeff 4 5 lj/cut 0.00070000000 3.5500000000
pair_coeff 4 6 lj/cut 0.00070000000 3.5500000000
pair_coeff 4 7 lj/cut 0.00070000000 3.5500000000
pair_coeff 4 8 lj/cut 0.00070000000 3.5500000000
pair_coeff 4 9 lj/cut 0.00070000000 3.5500000000
pair_coeff 4 10 lj/cut 0.00070000000 3.5500000000
pair_coeff 4 11 lj/cut 0.00070000000 3.5500000000
pair_coeff 4 12 lj/cut 0.00070000000 3.5500000000
pair_coeff 4 13 lj/cut 0.00070000000 3.5500000000
pair_coeff 4 14 lj/cut 0.00070000000 3.5500000000
pair_coeff 4 15 lj/cut 0.00070000000 3.5500000000
pair_coeff 4 16 lj/cut 0.00070000000 3.5500000000
pair_coeff 4 17 lj/cut 0.00070000000 3.5500000000
pair_coeff 4 18 lj/cut 0.00070000000 3.5500000000
pair_coeff 4 19 lj/cut 0.00070000000 3.5500000000
pair_coeff 4 20 lj/cut 0.00070000000 3.5500000000
pair_coeff 4 21 lj/cut 0.00070000000 3.5500000000
pair_coeff 4 22 lj/cut 0.00070000000 3.5500000000
pair_coeff 4 23 lj/cut 0.00070000000 3.5500000000
pair_coeff 4 24 lj/cut 0.00070000000 3.5500000000
pair_coeff 4 25 lj/cut 0.00070000000 3.5500000000
pair_coeff 4 26 lj/cut 0.00070000000 3.5500000000
pair_coeff 4 27 lj/cut 0.00070000000 3.5500000000
pair_coeff 4 28 lj/cut 0.00070000000 3.5500000000
pair_coeff 4 29 lj/cut 0.00070000000 3.5500000000
pair_coeff 4 30 lj/cut 0.00070000000 3.5500000000
pair_coeff 4 31 lj/cut 0.00070000000 3.5500000000
pair_coeff 4 32 lj/cut 0.00070000000 3.5500000000

pair_coeff 5 6 lj/cut 0.00070000000 3.5500000000
pair_coeff 5 7 lj/cut 0.00070000000 3.5500000000
pair_coeff 5 8 lj/cut 0.00070000000 3.5500000000
pair_coeff 5 9 lj/cut 0.00070000000 3.5500000000
pair_coeff 5 10 lj/cut 0.00070000000 3.5500000000
pair_coeff 5 11 lj/cut 0.00070000000 3.5500000000
pair_coeff 5 12 lj/cut 0.00070000000 3.5500000000
pair_coeff 5 13 lj/cut 0.00070000000 3.5500000000
pair_coeff 5 14 lj/cut 0.00070000000 3.5500000000
pair_coeff 5 15 lj/cut 0.00070000000 3.5500000000
pair_coeff 5 16 lj/cut 0.00070000000 3.5500000000
pair_coeff 5 17 lj/cut 0.00070000000 3.5500000000
pair_coeff 5 18 lj/cut 0.00070000000 3.5500000000
pair_coeff 5 19 lj/cut 0.00070000000 3.5500000000
pair_coeff 5 20 lj/cut 0.00070000000 3.5500000000
pair_coeff 5 21 lj/cut 0.00070000000 3.5500000000
pair_coeff 5 22 lj/cut 0.00070000000 3.5500000000
pair_coeff 5 23 lj/cut 0.00070000000 3.5500000000
pair_coeff 5 24 lj/cut 0.00070000000 3.5500000000
pair_coeff 5 25 lj/cut 0.00070000000 3.5500000000
pair_coeff 5 26 lj/cut 0.00070000000 3.5500000000
pair_coeff 5 27 lj/cut 0.00070000000 3.5500000000
pair_coeff 5 28 lj/cut 0.00070000000 3.5500000000
pair_coeff 5 29 lj/cut 0.00070000000 3.5500000000
pair_coeff 5 30 lj/cut 0.00070000000 3.5500000000
pair_coeff 5 31 lj/cut 0.00070000000 3.5500000000
pair_coeff 5 32 lj/cut 0.00070000000 3.5500000000

pair_coeff 6 7 lj/cut 0.00070000000 3.5500000000
pair_coeff 6 8 lj/cut 0.00070000000 3.5500000000
pair_coeff 6 9 lj/cut 0.00070000000 3.5500000000
pair_coeff 6 10 lj/cut 0.00070000000 3.5500000000
pair_coeff 6 11 lj/cut 0.00070000000 3.5500000000
pair_coeff 6 12 lj/cut 0.00070000000 3.5500000000
pair_coeff 6 13 lj/cut 0.00070000000 3.5500000000
pair_coeff 6 14 lj/cut 0.00070000000 3.5500000000
pair_coeff 6 15 lj/cut 0.00070000000 3.5500000000
pair_coeff 6 16 lj/cut 0.00070000000 3.5500000000
pair_coeff 6 17 lj/cut 0.00070000000 3.5500000000
pair_coeff 6 18 lj/cut 0.00070000000 3.5500000000
pair_coeff 6 19 lj/cut 0.00070000000 3.5500000000
pair_coeff 6 20 lj/cut 0.00070000000 3.5500000000
pair_coeff 6 21 lj/cut 0.00070000000 3.5500000000
pair_coeff 6 22 lj/cut 0.00070000000 3.5500000000
pair_coeff 6 23 lj/cut 0.00070000000 3.5500000000
pair_coeff 6 24 lj/cut 0.00070000000 3.5500000000
pair_coeff 6 25 lj/cut 0.00070000000 3.5500000000
pair_coeff 6 26 lj/cut 0.00070000000 3.5500000000
pair_coeff 6 27 lj/cut 0.00070000000 3.5500000000
pair_coeff 6 28 lj/cut 0.00070000000 3.5500000000
pair_coeff 6 29 lj/cut 0.00070000000 3.5500000000
pair_coeff 6 30 lj/cut 0.00070000000 3.5500000000
pair_coeff 6 31 lj/cut 0.00070000000 3.5500000000
pair_coeff 6 32 lj/cut 0.00070000000 3.5500000000

pair_coeff 7 8 lj/cut 0.00070000000 3.5500000000
pair_coeff 7 9 lj/cut 0.00070000000 3.5500000000
pair_coeff 7 10 lj/cut 0.00070000000 3.5500000000
pair_coeff 7 11 lj/cut 0.00070000000 3.5500000000
pair_coeff 7 12 lj/cut 0.00070000000 3.5500000000
pair_coeff 7 13 lj/cut 0.00070000000 3.5500000000
pair_coeff 7 14 lj/cut 0.00070000000 3.5500000000
pair_coeff 7 15 lj/cut 0.00070000000 3.5500000000
pair_coeff 7 16 lj/cut 0.00070000000 3.5500000000
pair_coeff 7 17 lj/cut 0.00070000000 3.5500000000
pair_coeff 7 18 lj/cut 0.00070000000 3.5500000000
pair_coeff 7 19 lj/cut 0.00070000000 3.5500000000
pair_coeff 7 20 lj/cut 0.00070000000 3.5500000000
pair_coeff 7 21 lj/cut 0.00070000000 3.5500000000
pair_coeff 7 22 lj/cut 0.00070000000 3.5500000000
pair_coeff 7 23 lj/cut 0.00070000000 3.5500000000
pair_coeff 7 24 lj/cut 0.00070000000 3.5500000000
pair_coeff 7 25 lj/cut 0.00070000000 3.5500000000
pair_coeff 7 26 lj/cut 0.00070000000 3.5500000000
pair_coeff 7 27 lj/cut 0.00070000000 3.5500000000
pair_coeff 7 28 lj/cut 0.00070000000 3.5500000000
pair_coeff 7 29 lj/cut 0.00070000000 3.5500000000
pair_coeff 7 30 lj/cut 0.00070000000 3.5500000000
pair_coeff 7 31 lj/cut 0.00070000000 3.5500000000
pair_coeff 7 32 lj/cut 0.00070000000 3.5500000000

pair_coeff 8 9 lj/cut 0.00070000000 3.5500000000
pair_coeff 8 10 lj/cut 0.00070000000 3.5500000000
pair_coeff 8 11 lj/cut 0.00070000000 3.5500000000
pair_coeff 8 12 lj/cut 0.00070000000 3.5500000000
pair_coeff 8 13 lj/cut 0.00070000000 3.5500000000
pair_coeff 8 14 lj/cut 0.00070000000 3.5500000000
pair_coeff 8 15 lj/cut 0.00070000000 3.5500000000
pair_coeff 8 16 lj/cut 0.00070000000 3.5500000000
pair_coeff 8 17 lj/cut 0.00070000000 3.5500000000
pair_coeff 8 18 lj/cut 0.00070000000 3.5500000000
pair_coeff 8 19 lj/cut 0.00070000000 3.5500000000
pair_coeff 8 20 lj/cut 0.00070000000 3.5500000000
pair_coeff 8 21 lj/cut 0.00070000000 3.5500000000
pair_coeff 8 22 lj/cut 0.00070000000 3.5500000000
pair_coeff 8 23 lj/cut 0.00070000000 3.5500000000
pair_coeff 8 24 lj/cut 0.00070000000 3.5500000000
pair_coeff 8 25 lj/cut 0.00070000000 3.5500000000
pair_coeff 8 26 lj/cut 0.00070000000 3.5500000000
pair_coeff 8 27 lj/cut 0.00070000000 3.5500000000
pair_coeff 8 28 lj/cut 0.00070000000 3.5500000000
pair_coeff 8 29 lj/cut 0.00070000000 3.5500000000
pair_coeff 8 30 lj/cut 0.00070000000 3.5500000000
pair_coeff 8 31 lj/cut 0.00070000000 3.5500000000
pair_coeff 8 32 lj/cut 0.00070000000 3.5500000000

pair_coeff 9 10 lj/cut 0.00070000000 3.5500000000
pair_coeff 9 11 lj/cut 0.00070000000 3.5500000000
pair_coeff 9 12 lj/cut 0.00070000000 3.5500000000
pair_coeff 9 13 lj/cut 0.00070000000 3.5500000000
pair_coeff 9 14 lj/cut 0.00070000000 3.5500000000
pair_coeff 9 15 lj/cut 0.00070000000 3.5500000000
pair_coeff 9 16 lj/cut 0.00070000000 3.5500000000
pair_coeff 9 17 lj/cut 0.00070000000 3.5500000000
pair_coeff 9 18 lj/cut 0.00070000000 3.5500000000
pair_coeff 9 19 lj/cut 0.00070000000 3.5500000000
pair_coeff 9 20 lj/cut 0.00070000000 3.5500000000
pair_coeff 9 21 lj/cut 0.00070000000 3.5500000000
pair_coeff 9 22 lj/cut 0.00070000000 3.5500000000
pair_coeff 9 23 lj/cut 0.00070000000 3.5500000000
pair_coeff 9 24 lj/cut 0.00070000000 3.5500000000
pair_coeff 9 25 lj/cut 0.00070000000 3.5500000000
pair_coeff 9 26 lj/cut 0.00070000000 3.5500000000
pair_coeff 9 27 lj/cut 0.00070000000 3.5500000000
pair_coeff 9 28 lj/cut 0.00070000000 3.5500000000
pair_coeff 9 29 lj/cut 0.00070000000 3.5500000000
pair_coeff 9 30 lj/cut 0.00070000000 3.5500000000
pair_coeff 9 31 lj/cut 0.00070000000 3.5500000000
pair_coeff 9 32 lj/cut 0.00070000000 3.5500000000

pair_coeff 10 11 lj/cut 0.00070000000 3.5500000000
pair_coeff 10 12 lj/cut 0.00070000000 3.5500000000
pair_coeff 10 13 lj/cut 0.00070000000 3.5500000000
pair_coeff 10 14 lj/cut 0.00070000000 3.5500000000
pair_coeff 10 15 lj/cut 0.00070000000 3.5500000000
pair_coeff 10 16 lj/cut 0.00070000000 3.5500000000
pair_coeff 10 17 lj/cut 0.00070000000 3.5500000000
pair_coeff 10 18 lj/cut 0.00070000000 3.5500000000
pair_coeff 10 19 lj/cut 0.00070000000 3.5500000000
pair_coeff 10 20 lj/cut 0.00070000000 3.5500000000
pair_coeff 10 21 lj/cut 0.00070000000 3.5500000000
pair_coeff 10 22 lj/cut 0.00070000000 3.5500000000
pair_coeff 10 23 lj/cut 0.00070000000 3.5500000000
pair_coeff 10 24 lj/cut 0.00070000000 3.5500000000
pair_coeff 10 25 lj/cut 0.00070000000 3.5500000000
pair_coeff 10 26 lj/cut 0.00070000000 3.5500000000
pair_coeff 10 27 lj/cut 0.00070000000 3.5500000000
pair_coeff 10 28 lj/cut 0.00070000000 3.5500000000
pair_coeff 10 29 lj/cut 0.00070000000 3.5500000000
pair_coeff 10 30 lj/cut 0.00070000000 3.5500000000
pair_coeff 10 31 lj/cut 0.00070000000 3.5500000000
pair_coeff 10 32 lj/cut 0.00070000000 3.5500000000

pair_coeff 11 12 lj/cut 0.00070000000 3.5500000000
pair_coeff 11 13 lj/cut 0.00070000000 3.5500000000
pair_coeff 11 14 lj/cut 0.00070000000 3.5500000000
pair_coeff 11 15 lj/cut 0.00070000000 3.5500000000
pair_coeff 11 16 lj/cut 0.00070000000 3.5500000000
pair_coeff 11 17 lj/cut 0.00070000000 3.5500000000
pair_coeff 11 18 lj/cut 0.00070000000 3.5500000000
pair_coeff 11 19 lj/cut 0.00070000000 3.5500000000
pair_coeff 11 20 lj/cut 0.00070000000 3.5500000000
pair_coeff 11 21 lj/cut 0.00070000000 3.5500000000
pair_coeff 11 22 lj/cut 0.00070000000 3.5500000000
pair_coeff 11 23 lj/cut 0.00070000000 3.5500000000
pair_coeff 11 24 lj/cut 0.00070000000 3.5500000000
pair_coeff 11 25 lj/cut 0.00070000000 3.5500000000
pair_coeff 11 26 lj/cut 0.00070000000 3.5500000000
pair_coeff 11 27 lj/cut 0.00070000000 3.5500000000
pair_coeff 11 28 lj/cut 0.00070000000 3.5500000000
pair_coeff 11 29 lj/cut 0.00070000000 3.5500000000
pair_coeff 11 30 lj/cut 0.00070000000 3.5500000000
pair_coeff 11 31 lj/cut 0.00070000000 3.5500000000
pair_coeff 11 32 lj/cut 0.00070000000 3.5500000000

pair_coeff 12 13 lj/cut 0.00070000000 3.5500000000
pair_coeff 12 14 lj/cut 0.00070000000 3.5500000000
pair_coeff 12 15 lj/cut 0.00070000000 3.5500000000
pair_coeff 12 16 lj/cut 0.00070000000 3.5500000000
pair_coeff 12 17 lj/cut 0.00070000000 3.5500000000
pair_coeff 12 18 lj/cut 0.00070000000 3.5500000000
pair_coeff 12 19 lj/cut 0.00070000000 3.5500000000
pair_coeff 12 20 lj/cut 0.00070000000 3.5500000000
pair_coeff 12 21 lj/cut 0.00070000000 3.5500000000
pair_coeff 12 22 lj/cut 0.00070000000 3.5500000000
pair_coeff 12 23 lj/cut 0.00070000000 3.5500000000
pair_coeff 12 24 lj/cut 0.00070000000 3.5500000000
pair_coeff 12 25 lj/cut 0.00070000000 3.5500000000
pair_coeff 12 26 lj/cut 0.00070000000 3.5500000000
pair_coeff 12 27 lj/cut 0.00070000000 3.5500000000
pair_coeff 12 28 lj/cut 0.00070000000 3.5500000000
pair_coeff 12 29 lj/cut 0.00070000000 3.5500000000
pair_coeff 12 30 lj/cut 0.00070000000 3.5500000000
pair_coeff 12 31 lj/cut 0.00070000000 3.5500000000
pair_coeff 12 32 lj/cut 0.00070000000 3.5500000000

pair_coeff 13 14 lj/cut 0.00070000000 3.5500000000
pair_coeff 13 15 lj/cut 0.00070000000 3.5500000000
pair_coeff 13 16 lj/cut 0.00070000000 3.5500000000
pair_coeff 13 17 lj/cut 0.00070000000 3.5500000000
pair_coeff 13 18 lj/cut 0.00070000000 3.5500000000
pair_coeff 13 19 lj/cut 0.00070000000 3.5500000000
pair_coeff 13 20 lj/cut 0.00070000000 3.5500000000
pair_coeff 13 21 lj/cut 0.00070000000 3.5500000000
pair_coeff 13 22 lj/cut 0.00070000000 3.5500000000
pair_coeff 13 23 lj/cut 0.00070000000 3.5500000000
pair_coeff 13 24 lj/cut 0.00070000000 3.5500000000
pair_coeff 13 25 lj/cut 0.00070000000 3.5500000000
pair_coeff 13 26 lj/cut 0.00070000000 3.5500000000
pair_coeff 13 27 lj/cut 0.00070000000 3.5500000000
pair_coeff 13 28 lj/cut 0.00070000000 3.5500000000
pair_coeff 13 29 lj/cut 0.00070000000 3.5500000000
pair_coeff 13 30 lj/cut 0.00070000000 3.5500000000
pair_coeff 13 31 lj/cut 0.00070000000 3.5500000000
pair_coeff 13 32 lj/cut 0.00070000000 3.5500000000

pair_coeff 14 15 lj/cut 0.00070000000 3.5500000000
pair_coeff 14 16 lj/cut 0.00070000000 3.5500000000
pair_coeff 14 17 lj/cut 0.00070000000 3.5500000000
pair_coeff 14 18 lj/cut 0.00070000000 3.5500000000
pair_coeff 14 19 lj/cut 0.00070000000 3.5500000000
pair_coeff 14 20 lj/cut 0.00070000000 3.5500000000
pair_coeff 14 21 lj/cut 0.00070000000 3.5500000000
pair_coeff 14 22 lj/cut 0.00070000000 3.5500000000
pair_coeff 14 23 lj/cut 0.00070000000 3.5500000000
pair_coeff 14 24 lj/cut 0.00070000000 3.5500000000
pair_coeff 14 25 lj/cut 0.00070000000 3.5500000000
pair_coeff 14 26 lj/cut 0.00070000000 3.5500000000
pair_coeff 14 27 lj/cut 0.00070000000 3.5500000000
pair_coeff 14 28 lj/cut 0.00070000000 3.5500000000
pair_coeff 14 29 lj/cut 0.00070000000 3.5500000000
pair_coeff 14 30 lj/cut 0.00070000000 3.5500000000
pair_coeff 14 31 lj/cut 0.00070000000 3.5500000000
pair_coeff 14 32 lj/cut 0.00070000000 3.5500000000

pair_coeff 15 16 lj/cut 0.00070000000 3.5500000000
pair_coeff 15 17 lj/cut 0.00070000000 3.5500000000
pair_coeff 15 18 lj/cut 0.00070000000 3.5500000000
pair_coeff 15 19 lj/cut 0.00070000000 3.5500000000
pair_coeff 15 20 lj/cut 0.00070000000 3.5500000000
pair_coeff 15 21 lj/cut 0.00070000000 3.5500000000
pair_coeff 15 22 lj/cut 0.00070000000 3.5500000000
pair_coeff 15 23 lj/cut 0.00070000000 3.5500000000
pair_coeff 15 24 lj/cut 0.00070000000 3.5500000000
pair_coeff 15 25 lj/cut 0.00070000000 3.5500000000
pair_coeff 15 26 lj/cut 0.00070000000 3.5500000000
pair_coeff 15 27 lj/cut 0.00070000000 3.5500000000
pair_coeff 15 28 lj/cut 0.00070000000 3.5500000000
pair_coeff 15 29 lj/cut 0.00070000000 3.5500000000
pair_coeff 15 30 lj/cut 0.00070000000 3.5500000000
pair_coeff 15 31 lj/cut 0.00070000000 3.5500000000
pair_coeff 15 32 lj/cut 0.00070000000 3.5500000000

pair_coeff 16 17 lj/cut 0.00070000000 3.5500000000
pair_coeff 16 18 lj/cut 0.00070000000 3.5500000000
pair_coeff 16 19 lj/cut 0.00070000000 3.5500000000
pair_coeff 16 20 lj/cut 0.00070000000 3.5500000000
pair_coeff 16 21 lj/cut 0.00070000000 3.5500000000
pair_coeff 16 22 lj/cut 0.00070000000 3.5500000000
pair_coeff 16 23 lj/cut 0.00070000000 3.5500000000
pair_coeff 16 24 lj/cut 0.00070000000 3.5500000000
pair_coeff 16 25 lj/cut 0.00070000000 3.5500000000
pair_coeff 16 26 lj/cut 0.00070000000 3.5500000000
pair_coeff 16 27 lj/cut 0.00070000000 3.5500000000
pair_coeff 16 28 lj/cut 0.00070000000 3.5500000000
pair_coeff 16 29 lj/cut 0.00070000000 3.5500000000
pair_coeff 16 30 lj/cut 0.00070000000 3.5500000000
pair_coeff 16 31 lj/cut 0.00070000000 3.5500000000
pair_coeff 16 32 lj/cut 0.00070000000 3.5500000000

pair_coeff 17 18 lj/cut 0.00070000000 3.5500000000
pair_coeff 17 19 lj/cut 0.00070000000 3.5500000000
pair_coeff 17 20 lj/cut 0.00070000000 3.5500000000
pair_coeff 17 21 lj/cut 0.00070000000 3.5500000000
pair_coeff 17 22 lj/cut 0.00070000000 3.5500000000
pair_coeff 17 23 lj/cut 0.00070000000 3.5500000000
pair_coeff 17 24 lj/cut 0.00070000000 3.5500000000
pair_coeff 17 25 lj/cut 0.00070000000 3.5500000000
pair_coeff 17 26 lj/cut 0.00070000000 3.5500000000
pair_coeff 17 27 lj/cut 0.00070000000 3.5500000000
pair_coeff 17 28 lj/cut 0.00070000000 3.5500000000
pair_coeff 17 29 lj/cut 0.00070000000 3.5500000000
pair_coeff 17 30 lj/cut 0.00070000000 3.5500000000
pair_coeff 17 31 lj/cut 0.00070000000 3.5500000000
pair_coeff 17 32 lj/cut 0.00070000000 3.5500000000

pair_coeff 18 19 lj/cut 0.00070000000 3.5500000000
pair_coeff 18 20 lj/cut 0.00070000000 3.5500000000
pair_coeff 18 21 lj/cut 0.00070000000 3.5500000000
pair_coeff 18 22 lj/cut 0.00070000000 3.5500000000
pair_coeff 18 23 lj/cut 0.00070000000 3.5500000000
pair_coeff 18 24 lj/cut 0.00070000000 3.5500000000
pair_coeff 18 25 lj/cut 0.00070000000 3.5500000000
pair_coeff 18 26 lj/cut 0.00070000000 3.5500000000
pair_coeff 18 27 lj/cut 0.00070000000 3.5500000000
pair_coeff 18 28 lj/cut 0.00070000000 3.5500000000
pair_coeff 18 29 lj/cut 0.00070000000 3.5500000000
pair_coeff 18 30 lj/cut 0.00070000000 3.5500000000
pair_coeff 18 31 lj/cut 0.00070000000 3.5500000000
pair_coeff 18 32 lj/cut 0.00070000000 3.5500000000

pair_coeff 19 20 lj/cut 0.00070000000 3.5500000000
pair_coeff 19 21 lj/cut 0.00070000000 3.5500000000
pair_coeff 19 22 lj/cut 0.00070000000 3.5500000000
pair_coeff 19 23 lj/cut 0.00070000000 3.5500000000
pair_coeff 19 24 lj/cut 0.00070000000 3.5500000000
pair_coeff 19 25 lj/cut 0.00070000000 3.5500000000
pair_coeff 19 26 lj/cut 0.00070000000 3.5500000000
pair_coeff 19 27 lj/cut 0.00070000000 3.5500000000
pair_coeff 19 28 lj/cut 0.00070000000 3.5500000000
pair_coeff 19 29 lj/cut 0.00070000000 3.5500000000
pair_coeff 19 30 lj/cut 0.00070000000 3.5500000000
pair_coeff 19 31 lj/cut 0.00070000000 3.5500000000
pair_coeff 19 32 lj/cut 0.00070000000 3.5500000000

pair_coeff 20 21 lj/cut 0.00070000000 3.5500000000
pair_coeff 20 22 lj/cut 0.00070000000 3.5500000000
pair_coeff 20 23 lj/cut 0.00070000000 3.5500000000
pair_coeff 20 24 lj/cut 0.00070000000 3.5500000000
pair_coeff 20 25 lj/cut 0.00070000000 3.5500000000
pair_coeff 20 26 lj/cut 0.00070000000 3.5500000000
pair_coeff 20 27 lj/cut 0.00070000000 3.5500000000
pair_coeff 20 28 lj/cut 0.00070000000 3.5500000000
pair_coeff 20 29 lj/cut 0.00070000000 3.5500000000
pair_coeff 20 30 lj/cut 0.00070000000 3.5500000000
pair_coeff 20 31 lj/cut 0.00070000000 3.5500000000
pair_coeff 20 32 lj/cut 0.00070000000 3.5500000000

pair_coeff 21 22 lj/cut 0.00070000000 3.5500000000
pair_coeff 21 23 lj/cut 0.00070000000 3.5500000000
pair_coeff 21 24 lj/cut 0.00070000000 3.5500000000
pair_coeff 21 25 lj/cut 0.00070000000 3.5500000000
pair_coeff 21 26 lj/cut 0.00070000000 3.5500000000
pair_coeff 21 27 lj/cut 0.00070000000 3.5500000000
pair_coeff 21 28 lj/cut 0.00070000000 3.5500000000
pair_coeff 21 29 lj/cut 0.00070000000 3.5500000000
pair_coeff 21 30 lj/cut 0.00070000000 3.5500000000
pair_coeff 21 31 lj/cut 0.00070000000 3.5500000000
pair_coeff 21 32 lj/cut 0.00070000000 3.5500000000

pair_coeff 22 23 lj/cut 0.00070000000 3.5500000000
pair_coeff 22 24 lj/cut 0.00070000000 3.5500000000
pair_coeff 22 25 lj/cut 0.00070000000 3.5500000000
pair_coeff 22 26 lj/cut 0.00070000000 3.5500000000
pair_coeff 22 27 lj/cut 0.00070000000 3.5500000000
pair_coeff 22 28 lj/cut 0.00070000000 3.5500000000
pair_coeff 22 29 lj/cut 0.00070000000 3.5500000000
pair_coeff 22 30 lj/cut 0.00070000000 3.5500000000
pair_coeff 22 31 lj/cut 0.00070000000 3.5500000000
pair_coeff 22 32 lj/cut 0.00070000000 3.5500000000

pair_coeff 23 24 lj/cut 0.00070000000 3.5500000000
pair_coeff 23 25 lj/cut 0.00070000000 3.5500000000
pair_coeff 23 26 lj/cut 0.00070000000 3.5500000000
pair_coeff 23 27 lj/cut 0.00070000000 3.5500000000
pair_coeff 23 28 lj/cut 0.00070000000 3.5500000000
pair_coeff 23 29 lj/cut 0.00070000000 3.5500000000
pair_coeff 23 30 lj/cut 0.00070000000 3.5500000000
pair_coeff 23 31 lj/cut 0.00070000000 3.5500000000
pair_coeff 23 32 lj/cut 0.00070000000 3.5500000000

pair_coeff 24 25 lj/cut 0.00070000000 3.5500000000
pair_coeff 24 26 lj/cut 0.00070000000 3.5500000000
pair_coeff 24 27 lj/cut 0.00070000000 3.5500000000
pair_coeff 24 28 lj/cut 0.00070000000 3.5500000000
pair_coeff 24 29 lj/cut 0.00070000000 3.5500000000
pair_coeff 24 30 lj/cut 0.00070000000 3.5500000000
pair_coeff 24 31 lj/cut 0.00070000000 3.5500000000
pair_coeff 24 32 lj/cut 0.00070000000 3.5500000000

pair_coeff 25 26 lj/cut 0.00070000000 3.5500000000
pair_coeff 25 27 lj/cut 0.00070000000 3.5500000000
pair_coeff 25 28 lj/cut 0.00070000000 3.5500000000
pair_coeff 25 29 lj/cut 0.00070000000 3.5500000000
pair_coeff 25 30 lj/cut 0.00070000000 3.5500000000
pair_coeff 25 31 lj/cut 0.00070000000 3.5500000000
pair_coeff 25 32 lj/cut 0.00070000000 3.5500000000

pair_coeff 26 27 lj/cut 0.00070000000 3.5500000000
pair_coeff 26 28 lj/cut 0.00070000000 3.5500000000
pair_coeff 26 29 lj/cut 0.00070000000 3.5500000000
pair_coeff 26 30 lj/cut 0.00070000000 3.5500000000
pair_coeff 26 31 lj/cut 0.00070000000 3.5500000000
pair_coeff 26 32 lj/cut 0.00070000000 3.5500000000

pair_coeff 27 28 lj/cut 0.00070000000 3.5500000000
pair_coeff 27 29 lj/cut 0.00070000000 3.5500000000
pair_coeff 27 30 lj/cut 0.00070000000 3.5500000000
pair_coeff 27 31 lj/cut 0.00070000000 3.5500000000
pair_coeff 27 32 lj/cut 0.00070000000 3.5500000000

pair_coeff 28 29 lj/cut 0.00070000000 3.5500000000
pair_coeff 28 30 lj/cut 0.00070000000 3.5500000000
pair_coeff 28 31 lj/cut 0.00070000000 3.5500000000
pair_coeff 28 32 lj/cut 0.00070000000 3.5500000000

pair_coeff 29 30 lj/cut 0.00070000000 3.5500000000
pair_coeff 29 31 lj/cut 0.00070000000 3.5500000000
pair_coeff 29 32 lj/cut 0.00070000000 3.5500000000

pair_coeff 30 31 lj/cut 0.00070000000 3.5500000000
pair_coeff 30 32 lj/cut 0.00070000000 3.5500000000

pair_coeff 31 32 lj/cut 0.00070000000 3.5500000000

special_bonds lj 0.0 0.0 0.0 coul 0.0 0.0 0.0

#pair_style tersoff 
#pair_coeff * * C.4.tersoff 1 2 3 4

#pair_style lj/cut 12.0
#pair_coeff 1 1 0.0700000000 3.5500000000
#special_bonds lj 0.0 0.0 0.0 coul 0.0 0.0 0.0
###########################################################################


#--------------------------------------------------------------------------
#variables
#--------------------------------------------------------------------------
variable   	dt 		equal 0.001
#--------------------------------------------------------------------------
#kappa parameters
#--------------------------------------------------------------------------
variable    	p 		equal 100000 	# correlation length
variable    	s 		equal 10  	# sample interval
variable    	d 		equal $p*$s 	# dump interval 
variable    	d 		equal 100000*$s 	variable    	d 		equal 100000*10 	
#--------------------------------------------------------------------------
variable 	T_run 		equal 300
#--------------------------------------------------------------------------

log 	log_heat_${iseed}.lammps
log 	log_heat_5.lammps
