	reset_timestep  	0
	fix 			1 all nve
	compute   		myKE all ke/atom
	compute   		myPE all pe/atom
	compute   		myStress all stress/atom virial
	compute   		flux all heat/flux myKE myPE myStress
	variable  		Jx equal c_flux[1]/vol
	variable  		Jy equal c_flux[2]/vol
	variable  		Jz equal c_flux[3]/vol
	fix       		JJ all ave/correlate $s $p $d c_flux[1] c_flux[2] c_flux[3] type auto file J0Jt_${iseed}.dat ave running
	fix       		JJ all ave/correlate 10 $p $d c_flux[1] c_flux[2] c_flux[3] type auto file J0Jt_${iseed}.dat ave running
	fix       		JJ all ave/correlate 10 100000 $d c_flux[1] c_flux[2] c_flux[3] type auto file J0Jt_${iseed}.dat ave running
	fix       		JJ all ave/correlate 10 100000 1000000 c_flux[1] c_flux[2] c_flux[3] type auto file J0Jt_${iseed}.dat ave running
	fix       		JJ all ave/correlate 10 100000 1000000 c_flux[1] c_flux[2] c_flux[3] type auto file J0Jt_1.dat ave running
	compute 		myDis all msd 
	thermo_style 		custom step temp press vol c_myDis[4] v_Jx v_Jy v_Jz 
	thermo			1000
	timestep		${dt}
	timestep		0.001
	run			1000000
Memory usage per processor = 6.2488 Mbytes
Step Temp Press Volume myDis[4] Jx Jy Jz 
       0    298.10807    3695.4542        24389 1.1730411e-30 -0.0050307319   0.01417735 -0.015455709 
    1000    299.57398    4661.5578        24389    3.4970571 -0.0017356535 -0.016753833 0.0011580113 
    2000    302.53284    4973.8512        24389    11.004138 0.0037739695 0.00099166012 0.0091637586 
    3000    300.40504    4333.7514        24389    19.006749 -0.0083672819 0.0031980559 -0.0086554039 
    4000    297.39074      7515.02        24389    24.800218 -0.0023707306  -0.01485542 -0.0001760388 
    5000    292.93799    5184.4588        24389    27.545328 0.0028566329 -0.011666944 0.0026151975 
    6000    301.92138    3330.4048        24389    27.475805 -0.00038635337 0.0040048758 0.0098204926 
    7000    298.35065    5739.6827        24389    27.227924 0.0039965759 -0.0025612687 0.0058524569 
    8000    302.11309     6046.642        24389    27.394804 -0.010548739  0.010354999 0.0021176323 
    9000    303.45326    6052.1745        24389     27.86543 0.0028413583 -0.0011317581 0.0096150799 
   10000    296.41585    2631.9337        24389    27.969074  0.011073759 -0.010603546 -0.012085519 
   11000    294.37046    3236.1935        24389    27.171439 -0.010078103  0.013135876 -0.009402879 
   12000     302.4386    6156.2468        24389    26.999095 0.0059199681 -0.013334499 -0.016151725 
   13000    294.07099    5821.7459        24389    27.815637 0.0063856166 0.0059018172 -0.017685405 
   14000    295.97641    3915.2061        24389    29.108139 -0.015696227 0.0076894939  -0.01124241 
   15000    298.15745    4766.5248        24389    29.628978 0.0071324844 -0.00040677141 0.00079544066 
   16000    295.19689    4799.4084        24389    29.099547 0.0020894288 0.0046143887 0.0020037776 
   17000    297.11899    6278.6911        24389    28.010754 -0.0052690152 -0.0044336038 -0.0039697015 
   18000    299.84841     4394.153        24389    27.145257 0.0030822614 0.0068119342   0.01281149 
   19000     296.6315    3930.2871        24389    26.800475 0.00090335224 0.0067664781 0.0005815963 
   20000    295.18806    3481.9913        24389    26.450997  0.011007456 -0.00070318991 -0.0019002429 
   21000     294.8453    8095.8427        24389    25.400344 0.0011301416 -0.0071815157 -0.0024840672 
   22000     298.7471    4942.1782        24389    24.402029 -0.0002921546 -0.0031661083  0.016912445 
   23000    300.14867    1852.5033        24389    23.702991 0.0033743613  0.015978072 0.0033512787 
   24000    294.70635    5374.2718        24389    24.219382 -0.0009552947 0.0060902403 -0.00033854152 
   25000    294.87725    6538.1669        24389    26.335525 -0.011884185 -0.0054421729 -0.013834009 
   26000    304.85131    6543.1397        24389    28.713962 -0.0071904086 -0.003498645 -0.0032807283 
   27000    296.50996    6590.3328        24389    30.241216 -0.0062849657 -0.013486829 -0.0013751252 
   28000    301.41663    3260.1676        24389    29.870691 0.0091161014 0.0074479381 -0.0048041092 
   29000    298.11617    6418.2669        24389    28.819357 -0.0019789904 0.0043847565 -0.012683714 
   30000    301.56529    6877.3233        24389    27.745304 -0.0022310586 0.0015837182 0.0028022879 
   31000    294.98554    5676.3553        24389    27.120882 0.0017182162 -0.0031532037 -0.0017483592 
   32000    299.77287     1957.756        24389     27.57048 -0.0023579799 -0.014321512 0.0028254081 
   33000    298.12477    5188.6428        24389    27.307474 -0.011953426 0.0008515095 0.0061349539 
   34000    300.71127    6796.0296        24389    26.903241 0.0094666185 -0.010142129 0.0096054078 
   35000    302.34499    5608.5414        24389    27.222462 -0.0059458856  0.010080405 0.0084173059 
   36000    294.21967    1606.4522        24389    27.846447 -0.0057277769 -0.0063258344 -0.0010354776 
   37000    297.16722    4501.3289        24389    27.727331 -0.0063317082  0.016783923  0.007500467 
   38000     299.4721    6573.7164        24389    26.594365 0.0033718464 -0.011529809 0.0067876469 
   39000    297.54734    4715.8001        24389    25.620924 0.0066088991 -0.0017099916 -0.016465216 
   40000    303.04913      3996.98        24389    25.518797 0.0016650063 -0.0027863194 -0.0092429383 
   41000    292.97314    8554.2734        24389    26.523716 0.0074165974 -0.0076529979 -0.006035146 
   42000    295.41018    5341.2712        24389    27.987302  0.008756722 0.00030874377 0.0080606941 
   43000    294.47207    3248.6325        24389    28.695479 0.00086103232 0.0020196503 -0.0055484478 
   44000    290.45832    5251.3807        24389    28.498056 -0.0017061919 0.0032030996 -0.017877676 
   45000    298.73135    4937.6696        24389     27.18239 0.0060337537 0.0051521373 0.0013655695 
   46000     292.2058    6820.0136        24389    26.174838 -0.0027736418  0.011089561 -0.019141869 
   47000    301.18967    4878.6583        24389     26.15528  0.002147073 0.0080777801 -0.010636366 
   48000    288.93444    4827.3261        24389    26.796208 0.0086107976 0.0053142771 -0.007631716 
   49000    300.21416    3700.9504        24389     27.51882 0.0030031037 -0.0054643688 -0.0055431848 
   50000    286.93077    4482.7208        24389    28.272531 0.0048739191  0.008036742 -0.002585698 
   51000    300.28549    5408.9836        24389    28.923431 0.0033617744 -0.0010524337  0.013760823 
   52000    297.25428    5506.1035        24389     29.55999 -0.0053807862 -0.010245015 0.0063142692 
   53000    293.56576    4561.2696        24389    29.884358 0.0045680447 0.0086981484 -0.003352517 
   54000    291.90646    6261.3429        24389    29.756107 -0.00093927509 -0.013767594 0.0039832338 
   55000    295.09563    4805.8413        24389    29.255005 -0.020278185 0.0022542034 0.0010524922 
   56000    294.60161    4590.7054        24389    28.941938 -0.00086498506 -0.0047814523 0.0049382364 
   57000    294.24445    5087.1672        24389    27.953236 0.0047123826 0.0026572467 -0.00037855254 
   58000    301.86199    7404.1829        24389    26.844276  0.011977324  0.014461925  0.007835688 
   59000     302.1033    2858.1759        24389    26.183084 -0.0094154428 -0.0031756396  -0.01186823 
   60000    297.31684    4341.2857        24389     25.86701 0.0070091526 0.0048986059 -0.0023929112 
   61000    299.15588    4742.8495        24389    26.027474 0.0044745247 0.0071791846 -0.00037640344 
   62000    297.52855    6746.2637        24389    26.409158 -0.0043321604  0.010242507 0.0030564893 
   63000    293.85827    6247.3846        24389    26.225506 0.0064556285 -0.011131568  0.001535498 
   64000     295.9778    2424.0409        24389    26.001264 -0.00011702862  0.004103287 -0.0072636045 
   65000    292.41782    1637.4263        24389    25.977603 -0.0054928197 -0.005309271  0.010543352 
   66000    305.30235    4628.6506        24389    26.595489 0.0046015202 -0.0027452849 0.0021824602 
   67000    302.83151     8720.409        24389    28.514228 -0.0098071733 -0.0079284638 -0.0039189243 
   68000    292.82266    4491.0155        24389    30.944986 0.0024777383 -0.002251944 -0.0081401882 
   69000    295.94625    2868.9027        24389    32.314422 0.0042165991 -0.011310513 -0.010363397 
   70000     296.7807    5240.3638        24389    31.987743 -2.0120928e-05  0.014942452 -0.0046506033 
   71000    301.97481    5282.2892        24389    30.433182 0.0030995192 -0.0065510165 -0.0052297733 
   72000    290.55242    3753.0063        24389    28.777823 -0.0059009944 -0.0020943503 0.0016308743 
   73000    301.44544    3477.9652        24389    27.541732 -0.004332122 0.0029702908 0.0033101343 
   74000    293.67582    3846.9793        24389    26.509576 0.0026465512 0.0017204995 -0.00028664042 
   75000    293.68375     4988.661        24389    25.027158 -0.0077968601 0.00078803428 0.0034133298 
   76000    297.13781    4934.4132        24389    23.922121  0.024908441 -0.0080408925  0.016599953 
   77000    291.97079    4264.5276        24389    23.981475  0.017129942 0.00024052844 -0.00082223485 
   78000    291.86652    5542.3818        24389    24.748642 -0.012749061 -0.00042815085 -0.0064324454 
   79000    297.27399     6083.187        24389    25.634397 -0.0072920687 -0.004565243 -0.0013000755 
   80000    304.68203    5605.7405        24389    25.516985 -0.0056335995 -0.0048411964 0.0010211676 
   81000    298.20339    2378.4673        24389    24.612228 -0.0030537574 0.0042323884 -0.012474567 
   82000    296.04612    2547.1823        24389     24.04788 -0.004153607  0.015384899 -0.011626809 
   83000     304.4353     6842.099        24389    24.620438 0.0055980393 0.0031292522 0.00088242555 
   84000    300.82824    4196.3632        24389    25.856595 -0.013371405 0.0089513833 -1.1186761e-05 
   85000    299.71169    4631.2041        24389    27.385311 -0.003175161 -0.0085488863 -0.0032120874 
   86000    294.66927    2720.4471        24389    28.115677 0.00010686767  0.002794916 0.0032226548 
   87000    296.57355    2995.0645        24389    27.751091 -0.006190928 0.0074627373 -0.0047897468 
   88000    292.95671    6178.8224        24389    27.581629 0.0058265598 0.0034228831 -0.0061139221 
   89000    297.82504    4295.2263        24389     27.40814 -0.0063052073 0.0039224787 -0.0080682542 
   90000    288.64883    3662.4654        24389    26.750825 -0.0053823005 -0.0057144488 0.0048229721 
   91000     293.0688     6497.626        24389    25.768563 6.1123786e-05 -0.0090736604 0.0037552352 
   92000    298.46251    5699.0361        24389    25.352792 0.0075338359 0.0066872261 0.0038647122 
   93000    293.34643      3837.28        24389    25.252022 0.0080548257 0.0011090004 0.0038169787 
   94000    292.41197    2859.2267        24389    25.737141 -0.0018601889 -0.0032526806  0.002310345 
   95000    289.15444    8151.2351        24389    26.680756  0.010922869  0.018587153  0.012408751 
   96000    294.45254    5609.2963        24389     26.95355  0.011278364 -0.0025997353  0.010381905 
   97000    296.22468    3589.8989        24389    27.187585 -0.021498622 -0.0052933855 0.00013045362 
   98000    295.82393      7315.47        24389    28.019876 -0.0034450939 -0.0075291035 -0.00071161475 
   99000    296.29662    9717.6537        24389    28.549008 -0.0072325511 -0.00026639312 -0.0026866694 
  100000    287.89342    5459.0316        24389    28.569087 -0.0046981072 -0.0051863972 -0.0043636503 
  101000    296.64556    3870.3621        24389    28.380443 0.00081227167 0.0065701567 -0.0086669154 
  102000    296.29855    4180.7829        24389    27.804107 0.0010411252 -0.0039848409 -0.0026998068 
  103000    289.29225    8023.3435        24389    27.587451 -0.005803859 0.0020752279 -0.0085399308 
  104000    297.26157    6346.5356        24389    27.343052 0.0088435365 -0.0025698825 -0.016586183 
  105000    293.28017    3888.0681        24389    27.745289 -0.00088628583 -0.0046289906 -0.0021000611 
  106000    293.86601    5669.4076        24389    28.381097 -0.0056645655 -0.011490896 -0.013003584 
  107000    293.25229     4960.204        24389    28.332759 0.0020135803 0.0027891364 -0.011326609 
  108000    291.74394    3004.3856        24389    27.884148 -0.0042831248 -0.0049541067 0.00024235256 
  109000    293.57573    6922.2429        24389     27.56808 -0.0091139441 0.0055471308 -0.0050693959 
  110000    300.81463    5217.9597        24389    27.021178 -0.007470642 0.0086887446 4.0761088e-05 
  111000    299.69748    4759.9823        24389     26.17124 0.0038098107 0.00018227986   0.01255759 
  112000    296.54161    5499.8961        24389    26.143804  -0.01163551 -0.0016718905  0.006022593 
  113000    296.22727    7045.9044        24389     25.81636 -0.0047466286 -0.0048375736 -0.007381158 
  114000    295.64686    2248.0672        24389    25.499963  0.016758149 -0.0011695819 -0.0033496386 
  115000    295.30328    5561.4055        24389    25.112033 -0.0077653053 -0.0056907518 0.0024142634 
  116000    296.76377      3751.42        24389    24.197386 0.0075533115 -0.016472642 -0.012890067 
  117000    297.99659    2520.9808        24389    23.582466 0.0042647039 -0.0073182727 0.0010431128 
  118000    296.69153    4002.6976        24389    23.384641 -0.010060095 -0.0033318594 0.0099431158 
  119000    297.60406    7889.9945        24389    24.122183 -0.0083577556 -0.0020874863 -0.0087513782 
  120000    297.15559    3555.8974        24389    25.016918 -0.0056770766 0.00063721404 0.0055997275 
  121000    291.26168    6006.4431        24389    25.727946  0.015439989 0.0033903579 -0.008437569 
  122000    296.58343    3985.9712        24389    25.673304 0.0064698589  0.011594943 0.0046634982 
  123000    295.95593    4136.9559        24389    25.665044  0.006928609 -0.00019817482 -0.0046802435 
  124000    301.21119     6071.772        24389    25.275764 0.0064964194  0.011453035  0.012323937 
  125000    296.78044    6329.3886        24389    24.839414 -0.00060787755  0.015200076 -0.0027740484 
  126000    298.54506    4331.9324        24389    25.225914 0.0014808733 0.0039866724   0.01112237 
  127000    291.82372    840.96805        24389    26.396278 0.0044381712 -0.00088995257 0.0015030349 
  128000    291.13392    7532.2656        24389    27.694043 0.00015127134 -0.002151134 -0.012370205 
  129000    290.11882    7665.3575        24389    28.585764 -0.0058893033 -0.0010544584 -0.0055500072 
  130000    292.89477    4605.6586        24389    28.803793 -0.0049832843 -0.0021371154 0.0053373461 
  131000    297.94403    4765.9894        24389    28.291343 0.0072235107  0.011464832  0.011293463 
  132000    294.95461    5312.3832        24389    27.627374 -0.015461418  0.004670108 0.0034013291 
  133000    296.62783    4562.1303        24389    27.068508 -0.0055020574 -0.0013540105 -0.0021512206 
  134000    292.50357    6728.4324        24389    26.460491 -0.015710721 0.0053572699 -0.0081361475 
  135000    296.04859     2473.584        24389    26.245416 0.00047884056 0.0069796197 -0.0024769732 
  136000    294.74023    3989.6527        24389    26.172179 -0.0097124145 -0.0039292084 -0.0093631073 
  137000    294.87221    4890.7976        24389    26.840613 0.0019866797 0.0041411607  0.022105858 
  138000    294.63059    4916.8859        24389     27.61993 -0.0012465128 0.0033129023  0.010936998 
  139000    299.35588     5725.255        24389     28.40328 0.0024753382 -0.0028344256 -0.00076031727 
  140000    292.51402    3629.0343        24389    28.695168 0.0088713136 0.0039668379 -0.00042968462 
  141000    298.94769    5269.3338        24389    28.707531 -0.00086450341 -0.015939194  0.005779435 
  142000    293.64036    4948.0739        24389    28.407897 -0.0037383103 0.0071038009 -0.0031955471 
  143000    292.21509     5964.926        24389    27.436032 -0.010184631 -0.0018687982 -0.0034275463 
  144000    297.54975    2869.4111        24389     26.95401 -0.0092818374 -0.003607973 -0.0024531592 
  145000    298.69005    2623.2158        24389    27.318148 0.0015534619 -0.0017488952  -0.01095725 
  146000    293.00517    7232.8801        24389    27.611698 -0.012188966 0.00054215269  0.004283976 
  147000    292.21395    5655.2465        24389    28.528012 -0.0043955543 -0.011722612  0.017935011 
  148000    293.83626    2573.5184        24389    30.062636 0.0048015227 -0.0055540449 0.0094199691 
  149000    295.89569    3158.6135        24389    30.719461 0.0048483558 -0.011790433 -0.0042085881 
  150000    302.97564    6207.0937        24389    30.187708 0.0036269986 0.0018282889 -0.0031958315 
  151000     299.2071    6704.5466        24389    28.288708   0.01900666 -0.0029300145 -0.0083818536 
  152000    301.95826    4256.7068        24389    26.143161 -0.0072469224 0.00038621458 -0.0039547165 
  153000     303.2897    2144.2922        24389    25.053386 0.00087538165 -0.0061734881 -0.0093469554 
  154000    293.68089    6514.2426        24389    24.547079  0.012826229 0.0011176356 0.0010927899 
  155000    300.27432    7244.2019        24389    24.920688 0.0044148164 -0.0084734976 -0.013716055 
  156000    301.02421     2688.011        24389    26.284207 0.0014223948  0.011851484 0.00069484859 
  157000    292.09762    2296.3951        24389    28.124305  0.012272183 -0.013356542 0.0043297061 
  158000    300.47023    6609.0507        24389    29.523513 1.7688974e-05 -0.0028939715 -0.0047238983 
  159000    302.97688    8267.7984        24389    29.856882 -0.0032834141 0.0059679692 -0.0022928485 
  160000    293.07849    3753.9849        24389     29.60785 0.00026660728 0.00045187803 -0.005027254 
  161000    296.32271   -116.94751        24389    30.098421 0.0016958328 -0.0093004266 -0.010975485 
  162000    296.64157    4762.3262        24389    30.157565 0.0063945025 -0.0058397714 -0.014117472 
  163000    293.31377     5041.325        24389    29.424708 0.00016674932 0.0020828802  0.010231134 
  164000    293.88908    5436.7806        24389    28.934837  0.010192396 0.0042226544 0.0079362328 
  165000    297.57862    2626.9732        24389    28.772588  0.008239696 0.0050055479 0.00031769252 
  166000    293.73238    4738.4664        24389    28.196002 0.0073706494 0.0011131462 -0.010013165 
  167000    296.87104    6413.7899        24389    27.497069 -0.0014987696 -0.0023181845 -0.0012908654 
  168000    299.19985    4854.1658        24389    27.025564  0.015892537 0.0032543874 -0.0035640064 
  169000    292.98722    2713.6018        24389    27.582055 -0.00032677899 -0.0047793092 0.0029279964 
  170000    296.02312    5068.4898        24389    28.581869 -0.0070996409 -0.0087025558 -0.00068513197 
  171000    293.47597    6435.0333        24389    29.603389 0.0017168759 -0.0069668195 -0.005835149 
  172000    293.72636    4118.8982        24389    30.157405 0.0017645623 -0.004815973 -0.0045910777 
  173000    294.75123    5456.5556        24389    30.192201 0.0014057343 0.0023875077 -0.0088582989 
  174000    298.91945    4136.1448        24389    29.198215 -0.0025899552  0.012030354 0.0063307112 
  175000    292.16476    4896.1083        24389    28.186378 -0.0057179188  0.007585009 -0.014472999 
  176000    296.84444    4372.6596        24389     27.85759 0.0028930166  0.012755045  0.014109631 
  177000    299.23816    4874.4091        24389      28.0173  0.009562294 -0.0031455821 -0.014029229 
  178000    292.86283    6225.9167        24389    28.420738  0.015606865 0.0078192219 -0.0022821173 
  179000    296.74051    6648.8625        24389    28.217063  0.005524956 0.0016107541 0.0065579932 
  180000    303.54478     2484.246        24389    27.804438 0.0084729512  0.015801722 0.0029471246 
  181000    296.15584   -1080.8287        24389    27.620028 -0.0053714215 -0.015991397  0.013256305 
  182000    300.58034    6483.0284        24389    27.580573 -0.007553197 0.0052920551 0.0012665257 
  183000    296.24779    10129.357        24389    27.738489 -0.0024591108 0.0062786434 -0.0086908926 
  184000    294.15156    4580.7459        24389    28.133065 -0.016205943 0.0064251477  0.005814441 
  185000     292.0496    2544.1893        24389    28.510831 0.0054508223 -0.0017837488 -0.009422016 
  186000    297.38982    4441.1472        24389    28.664815 -0.012646856 -0.0060883886 -0.0051594772 
  187000    305.03418    4292.7379        24389    28.279992 -0.0088221496 0.00098057743 0.0070078259 
  188000    299.85608    3325.2357        24389    27.475092 -0.006780753 0.0047486194  0.005598096 
  189000     291.4398    2186.0744        24389    26.381717 -0.011151612 -0.0053663255   0.01355421 
  190000     291.1358    6456.9382        24389    25.846683 -0.0067316661 -1.6549468e-05 -0.012060626 
  191000    298.28921     6655.687        24389     26.03354  0.014379893 0.0032490533 0.0045945532 
  192000    293.55485    4444.5775        24389    26.327134 0.0086146296 0.0041044792  -0.00883806 
  193000    297.61714    4875.6413        24389    26.418807 -0.0025414077 -0.0054665342 -0.0038836563 
  194000    298.37189    1793.7691        24389    26.319761 -0.0015493212 -0.0041212481 -0.0013561318 
  195000    292.05002    3102.9355        24389    26.472113 0.0028906623  0.010059914 0.0044153815 
  196000    290.74901    5190.5813        24389    26.530462 0.0041643463 -0.001860226 -0.0037638829 
  197000     300.0916    4626.3554        24389    26.141423 -0.00096139024 -0.011037724 -0.0015402316 
  198000    292.45229    1815.9202        24389    26.244494 -0.00077042205 -0.0096820268 0.0082495967 
  199000    295.53501    1915.7207        24389    26.647945 0.0070229744 -0.001663386 0.0028621762 
  200000     288.9506    8238.8729        24389    26.611929  0.006620454 -0.0073591676 -0.0036809031 
  201000     290.4834    6983.9056        24389    25.717245 0.0055796441 0.0019031159 0.0021783197 
  202000    296.39848    2907.9215        24389    24.966483 -0.0051318471  0.011752191 -0.0027609031 
  203000     289.8459    2304.1804        24389    25.242184 -0.0015066561 -0.0051273118 -1.8205041e-05 
  204000    293.79412    1768.1589        24389    26.145974 -0.012881767 -0.0012648108    0.0023444 
  205000    304.65696    6267.9063        24389    26.757272  0.011339519 7.9466523e-05 -0.0033677356 
  206000    295.79171    6478.3965        24389    26.328916 -0.0025297261 0.0093471333 -0.015093911 
  207000    295.48685    7168.1932        24389    25.644154 -0.0042569421 -0.015660073 -0.0039401922 
  208000    294.31482    4318.4715        24389    25.275877 -0.00083137804 0.00085967329 -0.0014185987 
  209000    301.57423    2335.9917        24389    25.601592 0.0023743301  0.010351218 -0.0093597336 
  210000    289.86189    4409.9013        24389     26.67603 -0.0037911033 0.0029128554 0.0072494219 
  211000    294.29642      5187.43        24389    27.716514  0.013881039 0.0062013655 0.0032060239 
  212000     294.4827    3216.2914        24389    27.785924 0.0063264177 0.0028145979 0.0058116009 
  213000    296.98497     4538.705        24389    26.809771 -0.0096105559 0.0059935418 0.0065968203 
  214000    294.19879    5757.6267        24389    26.618344 0.0018622629 -0.0033231684 0.0065819814 
  215000     296.9501    3176.1067        24389    26.911888 -0.00089108455 0.0033548619  0.015367912 
  216000    298.43457    4151.5329        24389    27.005335 0.0033419421 0.0032208823  0.012219182 
  217000    297.26755    3981.3062        24389     27.24136 0.0013446133 -0.0038260775  0.010905112 
  218000    295.19289     6968.065        24389    27.417485 -0.0031926365 0.0046591085 0.0015961738 
  219000    295.30708    4902.5684        24389    27.117575 0.0051517906 -0.0039704197  0.002352169 
  220000     297.8967    2962.3406        24389    27.001148 0.0051285969  0.014147883 0.00054663936 
  221000    291.38713     4331.829        24389    26.517917 0.0085272549 0.0028182306 0.0081700164 
  222000    286.28299    7179.2869        24389     25.68401 2.5349655e-05 -0.0020331166 -0.014197491 
  223000    295.47756    6086.7305        24389    25.275222 -0.010525176  0.011833856 0.0061010198 
  224000    294.79963    2888.0236        24389    25.336353 -0.0062666199 0.0057398271 -0.0037279103 
  225000    298.73055    2334.9539        24389    26.350895  0.010921798 -0.0061462778  0.007784844 
  226000    293.48411    3804.9013        24389    27.551669  0.001648168 0.0035480877 0.0033171677 
  227000    297.38257    7615.8671        24389    28.784352 0.0043606919 -0.00051018495 0.0064018875 
  228000    298.08909    5200.3205        24389    28.983217 0.0075815485  0.008127303 -0.020922603 
  229000    292.09789    137.88325        24389    28.671164  0.011504492 -0.001648824 0.0052112245 
  230000    289.28691    399.71356        24389    28.007517  0.015676855 -0.0049314285  0.012976948 
  231000    296.71548    6441.9522        24389    27.455756 0.00041448948 0.00027689997  0.010501015 
  232000    289.32264    3875.6853        24389       27.611 -0.0016467006 0.0056574558 -0.0081794558 
  233000    294.55381     4366.674        24389    27.811625 -0.003892324 -0.0058177625 -0.007221945 
  234000    297.17237    3953.5073        24389    27.684424 0.0021198083 0.00057072923 0.0053740883 
  235000    295.25704    6296.6796        24389    27.567349 -0.0015906988  0.020861702 0.0062422334 
  236000    298.20074     933.4134        24389    26.675961 -0.0034968854 0.0064823746 0.0031190717 
  237000    292.40257    1336.2668        24389    25.432908 -0.0060159347 -0.0091287547 0.0051121619 
  238000     296.6272    5332.9746        24389    24.945098 0.0021590779  0.004162178 0.00089310069 
  239000     298.1628    6107.4935        24389    25.698831 0.0012272458 0.0028066249 0.00063089107 
  240000    298.47028     4091.303        24389    27.319414 -0.0063461921 0.0021564042 0.0079164853 
  241000    301.14076     3560.445        24389    28.501533 0.0039344518 -0.0062020255 -0.0070557831 
  242000    296.28114    3662.8248        24389    28.805213 0.0042156779 -0.0044576204 0.00035009293 
  243000    289.74197    6901.6852        24389    28.638257 0.0043029402  -0.00392777 -0.0048589518 
  244000    295.34853     1998.749        24389    27.656393 0.0084208392   0.00729055 0.0015831379 
  245000     290.2022    3938.1339        24389    26.652136 0.0082490086 -0.0054834756 -0.0078783278 
  246000    294.51441    6647.9259        24389    26.782583 0.0010077295 0.0022025813 0.0037560684 
  247000    295.21213    4041.3864        24389    27.794436  0.012803599  0.015065526 0.0049382977 
  248000    296.94246    3840.6754        24389    28.907586  0.015211662 -0.0086120089 0.0076290919 
  249000    290.48314    6231.3991        24389    30.109813 0.00020970476 -0.00096344952 0.0053675963 
  250000    289.10893    6155.8019        24389    30.825599  0.010068554 0.0072172794 0.0032034182 
  251000    297.51658      3866.95        24389    30.942143 -0.0029021772  0.010288574 -0.0024595915 
  252000    290.98158    2666.2064        24389    30.059432 -0.0027271996 0.0024168836 0.00092978423 
  253000    292.65151    4448.8608        24389    28.912294 -0.0098371946 -0.0036700891 0.0036483122 
  254000    289.20741    5840.0343        24389     27.84411 0.0084975995  0.015656007    0.0128007 
  255000    291.61846    4331.1499        24389    26.818638 -0.0021804167  0.012443574 -0.00015402117 
  256000    302.53617    4143.4898        24389    26.411693 -0.0013876698 -0.0091752614  0.006563196 
  257000    298.87954    4397.5409        24389    26.347221 0.0054034678 0.0080622837  -0.01465018 
  258000    291.45021    5624.6361        24389    26.883057 -0.0097734187 -0.00032060634 0.0037922405 
  259000    294.69924    2871.7547        24389    27.865509 0.0040899152 -0.0030396912 -0.0050340079 
  260000    291.07724    4813.5146        24389    28.088059 -0.0047566852 -0.009420858 0.0093508703 
  261000    294.73638    5247.8402        24389    26.997371 -0.0086355737  -0.00162939 0.0029127151 
  262000    296.01999    3394.3521        24389    26.200348 0.0043553592 -0.0053247996 -0.0063220795 
  263000     298.2884    6053.9269        24389    25.435795 -0.0038516224 -0.0022451088 -0.009809318 
  264000    293.63178    6243.1517        24389    24.949239 -0.0015167762 -0.0072389984 -0.0054661637 
  265000    303.51301     6600.231        24389    25.225471 -0.0062896843 0.0050621934 0.00063548991 
  266000    299.83166    2267.0761        24389    25.522771 -0.0036628952 -0.0061753125 -0.010215269 
  267000    298.45198    2870.4042        24389    26.056141  0.021214662 -0.004086336 -0.0010689676 
  268000    293.91163    6530.1674        24389    26.390271 0.0020616267 -0.0027176599 -0.0070801599 
  269000    296.76547    5629.7856        24389    26.507976 -0.0017547628 -0.019632041 0.00089934259 
  270000    298.35113    2315.4687        24389     26.49599 -0.0051776455 -0.013761558 0.0066025922 
  271000    290.02954    4477.7991        24389    26.666625 -0.0081371911  0.012991578 0.00025732212 
  272000    297.65351    6402.3814        24389    26.318989 -0.00097536782 -0.0043240223 -0.0021038493 
  273000     302.8363    5324.7766        24389    25.814864 -0.006127649 -0.0023997797 -0.00061916931 
  274000    291.16925    4391.7079        24389    25.837875 0.0023655192 -0.0029941978 -0.010097183 
  275000    281.77349    2575.4335        24389    26.092693 -0.0046817878 0.00045444969 -0.012743645 
  276000    291.36037    4038.5043        24389    26.777386 -0.0050256304 -0.010027712 0.0048256374 
  277000    296.04776    6809.2467        24389    27.719935 0.0071002275 0.0079787903  0.017414135 
  278000    288.72507    6468.7949        24389    28.530697 -0.0046731989 -0.013548622 0.0099008297 
  279000    298.99089    5387.4252        24389    28.950793 0.00084917377 -0.0019439572 -0.012681441 
  280000    294.97812    3838.1324        24389    28.784886 -0.0061520567 -0.0013164402  0.021843543 
  281000    300.97874    3501.7067        24389    28.343969 -0.0049678017 -0.0096602757  0.001467707 
  282000    292.74001    6086.9272        24389    28.012471 -0.0067160756 -0.0097806578 -0.010864115 
  283000    289.75136    7267.7457        24389    27.831114 0.0041695113 -0.00010827135 -0.00086172568 
  284000    295.77341    3045.6233        24389    28.141833 -0.022198833 0.0077552495 0.0097106519 
  285000    297.59692    1571.4995        24389    28.530406 -0.0074173894 -0.012124621  -0.01048187 
  286000    292.39569     5123.223        24389    29.200042 2.9571409e-06 -0.0045934439 -0.0024411604 
  287000     296.2753    4149.2489        24389    29.384065 0.00064464574  0.012986587 0.00078187565 
  288000    299.54856    5786.9342        24389    29.093701 0.0001588829 -0.010907892 0.0041116169 
  289000    297.41644    4481.4114        24389    28.951527 0.0038093283 -0.0062302351 0.0070517453 
  290000    294.06324    4266.6627        24389     28.96751 0.0078284139   -0.0109283 -0.0049929606 
  291000    299.31653    3913.2595        24389    28.529613 -0.0023777341 0.0018727931 -0.0027826485 
  292000    292.18591    6470.1801        24389    27.466492 -0.0075796434 -0.0069648159  -0.01259198 
  293000     291.2074    2970.1714        24389    26.766553 0.0052645761 2.6574697e-05 -0.0073342645 
  294000    294.00507    684.74128        24389    26.199206  -0.01088633 0.0014781256 0.0065673749 
  295000    291.91005    4896.9731        24389    26.027504 -0.010596182 -0.0085827631 -0.0056349621 
  296000     295.2097    8197.3471        24389    26.439352 0.0060169907 -0.018063273  0.013126779 
  297000    287.20125    5110.7369        24389    27.203571 -0.0051351974 -0.0012956673 -0.0012336278 
  298000    299.75864    1837.8622        24389    27.627608 -0.0031225777 -0.0081990451  0.009908247 
  299000    293.22364    4505.1178        24389    27.477476  0.015756284 0.0012870082 -0.006285901 
  300000    297.03404    4057.2435        24389    26.951001 0.0013678793 -0.0041267425 -0.0039074268 
  301000    294.30631    5683.7324        24389    27.028464 0.0036455681 -0.018103383 -0.010968808 
  302000    298.88944    4696.7104        24389    28.037615 -0.0050026773 0.0028476584 -0.0086231317 
  303000    295.29903    5650.9536        24389     29.22452 -0.0017943082 -0.0047521222 0.0074320594 
  304000     296.5499    3607.3056        24389    30.967897 0.0022400786  0.001468034 0.0075839464 
  305000    292.42187    3317.5053        24389    31.735088 0.0069370817 1.6177292e-05 -0.0036388594 
  306000    302.15171    3725.2248        24389    31.795693  0.012215028 0.0077645035 -0.0029263119 
  307000    295.40838    2171.1268        24389    31.176785 -0.00079108472 -0.002859422 0.0022792623 
  308000     293.7417    4951.0717        24389    29.897875 -0.0037181661 -0.0018606466 -0.00062823248 
  309000    295.80866    5017.3802        24389    28.786607 -0.0085687067 0.0079105115 -0.0061572506 
  310000    302.67551    6957.6455        24389      27.6426 0.0024593137 -0.0085414452 0.0054301297 
  311000     294.4021    5051.9555        24389    26.788804 0.0035283319 -0.0029405758 -0.0060269261 
  312000    293.65549     1595.782        24389    26.965426 -0.0029751929 -0.00022008988 -0.013847995 
  313000    294.46457     2675.762        24389    27.303105 0.0052044658 0.0062339309 0.0021444532 
  314000    297.70824    6420.1445        24389    26.821465 2.7281958e-05 -0.0025814909 -0.009172479 
  315000    293.75212    4939.7469        24389    26.317199 0.0040354375 0.00074138521 -0.0086200509 
  316000    292.79875    3438.1962        24389    26.912331 -0.0043764796  0.005690812 -0.0002460294 
  317000    293.24505    3368.3169        24389    27.913093 -0.0053438083 -0.0042511327    -0.010723 
  318000    296.29158    4889.3141        24389    29.161303  0.003310089 -0.002084133 -0.0039071948 
  319000     296.1546     5910.488        24389    29.587175 -0.0097937236 0.0053504176 0.0002667391 
  320000    295.39573    4124.8856        24389     29.46989 -0.0093176509 -0.010262676 -0.00016499731 
  321000    291.94651    2644.7238        24389    28.799032 -0.012134651 -0.0082115265 0.0032317806 
  322000     291.0048    5143.5808        24389     28.71377 0.0048201843  0.016103464 0.0042552558 
  323000    291.86743    5108.6202        24389    29.140434 -0.0064120313 -0.003718053 0.0033650618 
  324000    296.48134    4296.2781        24389    29.786659 -0.0098756847 -0.0029018959 -0.0082731845 
  325000    290.31093    3444.8245        24389    30.472866 -0.0063986643 -0.00071130236 0.0010104178 
  326000     291.6141    3079.1655        24389     30.88597 0.0038420361 -0.011602161 -0.0080506013 
  327000    295.34821     4319.218        24389    30.567864 0.0079165919 -0.0048869322 0.0070279257 
  328000    291.24898    5166.3176        24389    29.647559 0.0025969404 0.0015388989 0.0042165785 
  329000    297.11575    3662.0789        24389    28.709451 -0.0082500199  0.012366925 -0.0059024015 
  330000    295.51766    3367.7379        24389    28.046813 0.0074205907 -0.0033273108 0.00090542052 
  331000    295.02695    3006.6767        24389     28.02096 0.0041287761  0.015164873 -0.0043019018 
  332000     285.2313    7366.8042        24389    27.938867  0.015985954  0.010536267 -0.0082841237 
  333000    289.80711    5581.9362        24389     28.83348  0.015836962 0.0031299691 0.0023978686 
  334000    301.19661    4334.6382        24389     29.84601 -0.015980353 0.0075718645 0.0042000519 
  335000    291.97279     2772.725        24389    30.283332 -0.0058819872 0.0071403615 -0.0019621965 
  336000    294.03729    2442.7904        24389    30.139974 0.00048612397  0.012211794 -0.0035166985 
  337000    293.74666    4677.2261        24389    29.931332  0.010792878 0.0081742536 -0.0084436969 
  338000     291.8168    5288.5226        24389    29.325919 0.0090988016 -0.006978763 0.0092302976 
  339000    291.70175    4776.4066        24389    28.003476 0.0026817543 0.00093364343 -0.012703325 
  340000    292.74795    1412.9969        24389    26.953097 -0.004125101 0.0050540035 -0.00010391984 
  341000    289.20869    3877.5363        24389    26.229348 0.0033710893  0.013612133 0.0016386832 
  342000    294.13197    5769.5573        24389    26.305626 0.0079573562 -0.004609325 -0.0061166968 
  343000    293.22917    5031.9381        24389    26.509288 0.0051099403 -0.0063937637 -0.0093716086 
  344000     298.2319    2954.0604        24389    27.307953 0.0062612523  0.001332771 0.0029666374 
  345000    291.66411    4868.7961        24389    27.808548 -0.0068310148 -0.013410776 0.0042893548 
  346000    295.80245    4143.8617        24389    27.661769  0.011357925 -0.0024424698 0.0043236564 
  347000    301.47356    3878.9479        24389    27.219316 0.0024158665 0.0047673171 -0.0083202291 
  348000    300.95396     2330.698        24389    26.757933 0.0047065861 -0.0046760071 -0.0010575848 
  349000    298.43782    5442.3352        24389    26.720293  0.005338101 -0.0074590432 -0.0030296039 
  350000    300.67642    6984.7048        24389    26.919763 -0.0062812528 -0.0064688604  0.014684287 
  351000    300.91387    3552.0671        24389    27.297309 -0.0033258753 -0.015993998 0.0084306361 
  352000    290.94741    2738.1159        24389    27.496045 0.0089025906 0.00050459262 0.0010581337 
  353000    295.13408    3291.4313        24389    27.196644  0.017853754 0.0042563121 -0.0009610854 
  354000    294.50162    5484.4115        24389    27.253379 -0.0098057847 -0.0060047976 -0.0081020095 
  355000    288.97152    5221.3078        24389    27.778318 -0.0032603845 0.0010580369  0.015287037 
  356000    287.93909    4093.8112        24389    28.137151 -0.00094012947 0.0079875601 -0.0013693159 
  357000    293.48077    6753.5308        24389     28.08907 -0.00084211727  0.011380546  0.010758561 
  358000    292.33156    3727.8564        24389    27.357053 0.0038191794 0.0047054886 -0.0079831051 
  359000    297.73166    3661.1407        24389    27.007369 -0.010978966  0.021051819 0.0015864174 
  360000    289.95847    4655.5685        24389    27.518141 -0.0049366957 0.0023878371 -0.0038611985 
  361000     291.8883    3394.5099        24389    28.065155 -0.016993865 0.0082210609 0.00090427792 
  362000    289.46543    4654.2092        24389    28.246732 -0.0010954449  0.009881302 0.0038708857 
  363000    296.27812    3970.6725        24389    28.056895  0.012667977   0.01065576 -0.0055177833 
  364000     292.8107    4563.7748        24389    28.170403 -0.011044572  0.011134187 -0.014477791 
  365000    299.32291    5265.5115        24389    28.687407 -0.0093759321 0.0020042474 -0.00031213265 
  366000    297.61642    4258.3862        24389     29.20489 -0.0044705578 -0.0058261337 0.0022593157 
  367000    295.93563    3627.4679        24389    29.632635 -0.0056830916 -0.013201284 0.0075010662 
  368000    297.41008    6084.3683        24389    29.322753 -0.0017461267 -0.00033864957 0.0015283313 
  369000    292.10396    4770.7023        24389    28.742773 -0.00026720742 -0.003562864 0.0048842739 
  370000    293.54172      1946.18        24389    28.034752 -0.0027439054  0.010618914 0.0051769321 
  371000    289.92183    4123.1974        24389    27.772155 0.0051716845  0.016368761 0.0051418773 
  372000    291.61467    6904.8268        24389    27.964903 0.0020206133 0.0079205871 -0.0023955391 
  373000    295.68655    6544.8528        24389    28.402574 0.0063328572   0.00943441 -0.0082599816 
  374000    292.39294    2828.0207        24389    28.589659 0.0080308553 -0.0042655633 0.0077700009 
  375000    295.05938    2076.8038        24389    28.292865 0.0057303936 -0.0011854793 -0.011716673 
  376000    292.14418    5424.0621        24389    27.375099 -0.010137454  0.002767535 -0.0018324395 
  377000    298.19468     7350.261        24389    26.791091 -0.0068532822 -0.0070013818 -0.0093688808 
  378000    292.82149     3180.565        24389    26.651787 -0.0087758407 -0.010141453 -0.0090015034 
  379000    291.32157    2686.4999        24389    26.854456 -0.0072251365 -0.013482245 -0.0014109025 
  380000    295.00306    3837.6976        24389    27.580146 0.0013609735 0.0066015755 0.0094672793 
  381000    300.05074    5984.2632        24389    28.352499 -0.004375863  0.010839286 -0.0082799248 
  382000    297.35186    4353.6448        24389    28.773914 -0.0026560775 0.0010456531 -0.0041278313 
  383000    291.84474    3034.0018        24389    28.915558 0.0080972331 0.0091389966 0.0056310916 
  384000    295.46998    3761.1414        24389    29.577936 0.0051009001  0.010646765 -0.00030566476 
  385000    299.98251    6222.5422        24389    29.722936  0.012683447 -0.007105061 -0.0022123262 
  386000    297.76243    4995.4058        24389     29.62589  0.014641853 0.0038816063  0.002053426 
  387000    290.01546    2215.9621        24389     29.67368  0.010958241 0.0038929449 -0.0035852609 
  388000    292.41943    3632.4575        24389    29.651939 -0.0072479574 0.0057107512 0.0026576829 
  389000    298.39282    6870.7551        24389    29.191931 0.0039811714 0.0018880489 0.0064086931 
  390000    295.92234    5481.8064        24389    29.308006 0.0017688014 -0.0028551387 0.0029508507 
  391000    295.70513    2566.3755        24389    29.322359 0.0028836684 -0.0079418473  0.012081752 
  392000    289.01351    3959.9065        24389    29.772773 0.0033444242 0.0099311221 0.0029753964 
  393000    292.00081    6817.3977        24389    30.032341  0.013942053 -0.0062049245  0.010178661 
  394000    294.91954    5914.1873        24389    29.907575 0.0041581494 0.0016954109 -0.007048868 
  395000    292.37647    2412.1837        24389    29.183407 -0.010752619 -0.010864246 -0.0061648102 
  396000    286.62245    3563.1865        24389    28.290998 -0.0014072761 -0.0086414685 -0.0029017649 
  397000    295.88297    3034.0409        24389    28.209214  0.005394386 0.0017183286 0.0066258193 
  398000    290.05586    4495.4211        24389    28.912161 -0.0041996876 -0.0095058452  0.014078072 
  399000    289.41318    3020.4302        24389    29.292546 -0.0093829188  0.012265079 -0.0072774814 
  400000    297.48512    4745.5878        24389    29.096428 0.0014026018 -0.0082337164 -0.0018727667 
  401000    293.81498    2905.0622        24389    29.211498 0.0023451167 0.0077844671  0.012347511 
  402000    302.77611    3546.8546        24389    28.939441  0.015996062 -0.0092319101  0.002904808 
  403000     290.5115     5392.012        24389    28.272824 -0.0063561987 -0.0034706954 0.0046693357 
  404000    288.16954    4907.6644        24389    28.350191 0.0019836348 -0.0052568514 0.0014376268 
  405000    295.68602    4165.6197        24389    28.510729 -0.0001939445  0.010351782 -0.0070083132 
  406000    289.69704    4331.3186        24389    28.464645 0.0065104509 -0.0054292374 -0.00074437142 
  407000    294.65431    4571.3531        24389    28.373954 -0.0078906947  0.015209772 -0.0032718824 
  408000    296.50753     3492.752        24389    28.250082 -0.011655101 0.0015600402 -0.00072448013 
  409000    291.92011    3785.8679        24389     27.92123 -0.0033401286 0.0031796295 -0.0050024902 
  410000    295.24549    5051.2859        24389    27.592063 -0.0073088788 0.0035868178 0.0043587969 
  411000    293.57555     3744.584        24389    27.694923 0.0012460543   0.01103095 0.0052667572 
  412000    295.65397    5147.3982        24389    27.652227  0.007520125 -0.0087988615 0.00055674667 
  413000    301.29274    5754.8862        24389    28.192136 -0.0012098031 -0.0065888558 -0.0067175727 
  414000    295.47565    4010.1445        24389    28.464224 0.00099474548 0.0089602067 0.0016209414 
  415000    292.12621    2725.5707        24389    28.066195 -0.006386288 -0.0051704419 -0.0086479031 
  416000    289.10111     2428.449        24389    27.449001 0.0081229574 0.0076289731 -0.0028981767 
  417000    290.68052    5209.4626        24389    27.257351  0.032733215 -1.2989311e-05 -0.0051078045 
  418000    296.44706    5618.5345        24389    27.847411 0.00056277891 -0.0072968579 0.00070013963 
  419000    295.26861    4386.0965        24389    28.146342  0.012539618 -0.0059714644 0.0042377363 
  420000    292.64658    3347.7707        24389    28.182961  0.014753401 -0.0064136151  0.012511333 
  421000    297.97714    4084.8843        24389     27.67815 -0.0030532575 -0.0033153472 -0.0035263539 
  422000    294.88389    4864.5305        24389    27.260707 0.0010637571 0.0041157695 0.0040937767 
  423000     288.2633    4405.6742        24389    27.439062 0.0042842987 -0.017775653 0.0095950494 
  424000    293.80624    3990.1657        24389    28.042466 -0.015351572 -0.0012250225 -0.0018703498 
  425000    295.59261    4085.3257        24389    28.256323 -0.0066795459 0.00051064517 0.0028514048 
  426000    292.67405    5351.9723        24389    28.006698 0.0053821849 -0.011546337 0.0020278794 
  427000     286.4962    2452.7112        24389    27.490405 0.0012120088 0.0081327468 0.00021245099 
  428000    290.01582    4248.6336        24389    26.940842 -0.0044318523 -0.0074607764 -0.0014511402 
  429000    298.29839    5310.6607        24389    26.705696 0.0023447963 -0.0095968607 -0.00048117287 
  430000    296.27076    5320.5643        24389    27.336878 -0.0012510912 -0.0067795061 -0.010475127 
  431000      288.956    2777.9496        24389    28.827299 0.0080826304 0.0063059421 -0.00017237622 
  432000    287.78731    5090.9578        24389    29.850241  0.006764151 -0.00089875046 0.0056936212 
  433000    291.61588    4790.2782        24389    30.810748 -0.0059676287 0.0016574425 -0.0028456735 
  434000    292.37228    2612.6357        24389    31.384511 -0.0038683362  0.005630115 0.0015222678 
  435000    294.60198     2413.488        24389    31.249661 -0.0028407954 -0.0012716022 -0.0088360342 
  436000    293.27208    7379.1197        24389    30.154505 -0.0048534401  0.015664662 -0.00077759346 
  437000    295.71957    4258.6964        24389    28.993101  0.006727415  0.019483268 0.0069168894 
  438000    287.96324    2340.3406        24389    27.703002 -0.0048114498 -0.0011352497 0.0091601499 
  439000    285.35083    5680.4063        24389     26.88462 0.0040160891 -0.0015149266 -0.0064528604 
  440000    292.67673     5472.768        24389    26.460566 -0.011408057 -0.005625961 -0.011955583 
  441000    290.83517    2872.8046        24389    26.337102 -0.0047303651 0.0073417583 -0.0033057621 
  442000    296.74325    1546.6647        24389    26.213943 0.0019695237 -0.0010934018 0.0079052607 
  443000     300.1429    5019.5132        24389    26.032151 -0.010884838 -0.0083577341  0.012807055 
  444000    292.63992    6350.3538        24389    26.441879 0.0025575259 -0.0029359505 0.0020330831 
  445000    289.91711    4478.6387        24389    27.023477 0.0028219117  0.009486925 6.6778531e-06 
  446000    300.36346    1700.2132        24389    27.337797 -0.012406334  0.005741569 -0.0051636534 
  447000    294.28013    2009.1329        24389    26.710732 -0.005444273 -0.0072836421 -0.0010988972 
  448000    294.23458     3447.975        24389    25.181176 0.0082975665  0.003970174 -0.0037688592 
  449000    292.02343    3816.4269        24389    24.044201 0.0023794051 -0.0052593639 0.00030208622 
  450000    291.10589     6128.502        24389    24.151429 0.0049150955  0.007084515 -0.015429141 
  451000     291.3237    4530.6723        24389    24.783916 0.0082480588 0.00050223951  0.007142616 
  452000     288.7456    5419.1275        24389    25.437048 0.0092623291 0.0076909488 -0.001202184 
  453000     297.9335    4289.1175        24389    25.427322 0.00093183459 0.0025075963 -0.0025853297 
  454000    292.51492    2863.3475        24389     25.12669 -0.0045024885 -0.0069553777 0.0066443799 
  455000    289.76292    3763.9698        24389    25.257528 -0.0083582457 0.0073946677 0.00097504474 
  456000    292.30843    5840.9991        24389    25.849066  -0.00164134 0.0092885482  0.017621429 
  457000     298.1403    6224.7781        24389    26.504572 0.0069289043 -0.0015840743 -0.00081934768 
  458000    295.33091    3862.4801        24389    27.316547 -0.0025024725 -0.010225277 -0.011927311 
  459000    289.21378    5617.4731        24389    28.068761 0.00061490306 -0.0034720591 -0.009487546 
  460000    293.93817    4809.6321        24389    28.792794 -0.014805181 -0.0022961759 -0.0014678977 
  461000    294.05558    3751.8853        24389    29.036071 -0.016836532 0.0079558631 0.0061939614 
  462000    295.73113    3444.1607        24389    28.874324  0.003484961 0.0025215332 0.0033740879 
  463000    303.72762    5025.0323        24389    28.263825 -0.0047390853 -0.011279725 -0.0018103248 
  464000     293.6863       7249.3        24389    27.518001 -0.0056197241 0.0080833918 0.0075139796 
  465000    292.49529      5042.99        24389    27.271222 -0.0033148463  0.005409056 -0.0079788056 
  466000    290.22753    74.298046        24389     26.58169 0.0078367846 0.0068021092 0.0030037859 
  467000       296.55    4483.9592        24389     26.27147 -0.00083665118 -0.00028177355 0.00082711832 
  468000      286.505    5908.5608        24389    26.757451 -0.0044584355 0.0015940252 -0.0093755365 
  469000    290.82593    3921.8054        24389    27.227741 0.0027536094 0.0011046395   0.00209243 
  470000    301.72023    5112.8035        24389    27.769544 -0.0084896245 0.0089263418 0.0029888985 
  471000    299.87768    5275.9111        24389    28.500326 -0.0082816119 -0.0011220084 0.0082130419 
  472000    299.89356    4759.8783        24389    29.019619  0.015976019 0.0084311353 0.0098736516 
  473000    297.97255    3623.4809        24389    29.277523 0.0073649794 0.0076644647 0.0024348921 
  474000    295.18093    3792.0949        24389    29.150666 -0.011762242 -0.0040357429 -0.010674815 
  475000    295.90221    4153.7993        24389    28.803515 -0.0027858434 0.0096574842 0.0013786665 
  476000    293.35793    2130.7624        24389    28.720131 0.0026794648 0.0051176938 0.0010803468 
  477000    294.08318    3791.0843        24389    28.942008  0.014178417 -0.0024849778 -0.0015893379 
  478000    297.74635    4916.6079        24389    29.404537 -0.0075582081 -0.0039317559 0.0050691068 
  479000    289.22714    3526.9229        24389    28.793618 0.0010514626 0.0068568668 0.0069487784 
  480000     302.0604    4592.0733        24389      27.6274  0.012723687 0.0080158132 0.0028711514 
  481000    294.81039    2496.6779        24389     26.79384 0.0030712575 -0.0028994666 -0.0070606549 
  482000    291.15324    3053.1904        24389    26.445988   0.00246881 -0.0072614342 -0.0073396242 
  483000    292.45582    3649.9806        24389    26.544684 0.0038583622 -0.0054268096 -0.0010784763 
  484000    294.29151    3528.6404        24389    27.142421 0.0038564648 -0.009135224  0.010326207 
  485000    300.30883    6076.6311        24389     27.93512 -0.011357883 -0.0038663776 -0.0058244956 
  486000    293.94919    6421.7694        24389    28.559375 0.0016492271 -0.00038729051 -0.0026818427 
  487000    290.90076    6323.2837        24389    29.021585 0.0022102996 -0.00046675189   -0.0068677 
  488000    294.25589    1053.0925        24389    29.279226 0.00045103188  0.006570426 -0.0066530105 
  489000    290.26791    1504.2505        24389    29.130776 -0.00079277575 0.0075714329 0.0099749645 
  490000    295.97211    7098.5288        24389    29.272655  0.002269117 0.0089513704 -0.011185193 
  491000    294.59171    5543.8888        24389    29.390067 -0.0038045421 -0.0037155271 -0.00070021445 
  492000    294.53521    4026.2598        24389    29.424361 -0.0074668877  0.020687568  0.010121451 
  493000    297.92554    1237.0457        24389    29.145146 -0.0047018141 0.0055183499 -0.0024760505 
  494000    303.71267    3768.4846        24389    28.120008 -0.007163117 0.0058907772 0.0083578476 
  495000    300.20103    6883.2158        24389    27.538844 -0.0074253777  0.010285299 0.0012984546 
  496000     284.8344    4583.4318        24389    27.189242 -0.003397605 -0.0036856684 0.0071446653 
  497000    294.48629    3851.1197        24389    26.468486 -0.0079995304 -0.0043790099 -0.014017911 
  498000    296.20442     2937.817        24389    25.941712 -0.00023154758 0.00065859838 -0.014428999 
  499000    291.84307    3319.0087        24389    25.899367 0.00040567417 0.0043869726 0.0066621254 
  500000    293.62619     6109.663        24389    26.495971 -0.0033449114 -0.0070563762 -0.0065643082 
  501000    299.20331    4579.4074        24389    26.927205 -0.0013569092 0.0035602621   0.01138872 
  502000     300.8201    3989.3399        24389    26.779096 -0.0099978413 -0.0007700906 -0.013884392 
  503000    291.53798    4150.3955        24389    26.742468 -0.010572606 -0.018499616 -0.0050878892 
  504000    293.43943    5962.5891        24389    27.084998 -0.0085790535 -0.0030433105  0.021203691 
  505000    291.09579    4417.8583        24389    27.816191 -0.0058075221 -0.0056176589 0.0087368441 
  506000    295.13655    2524.2403        24389    28.135365 0.00031898137 -0.00038527497 0.0044790806 
  507000    290.30574    4412.1692        24389    27.605461 -0.00073259889  0.011223663 -0.00091889936 
  508000    290.84633    3426.7364        24389    26.758965 0.0031741177   -0.0136646 0.0031205582 
  509000    297.59767    1911.1187        24389    25.929309  0.015995243 0.0020520017  0.001536221 
  510000    299.02687    5748.6291        24389    26.717713 -0.0071540625 -0.0037066664 0.0051856161 
  511000    298.29096    4563.6524        24389    27.529486 0.0060987481 0.0084805447 -0.005753001 
  512000    299.27761    2641.4496        24389    27.958572 -0.0066872798 -0.0085006816  0.014219287 
  513000    293.77027    6249.8105        24389    28.601733 -0.0069626754 -0.0017638288  0.011355959 
  514000    294.76819    5985.1999        24389    28.614471 -0.011113883  0.026345193 -0.0054980005 
  515000     292.0923    1926.4179        24389    28.328447 0.0076265346 0.0068306118  0.018512723 
  516000    291.94735    95.627668        24389    27.207258 -0.0012615148 -0.00047890654 0.0073369592 
  517000    298.58245     3843.097        24389    25.439273  0.011197398 -0.0040830412 -0.0037859604 
  518000    296.52592    10482.024        24389    24.663923 -0.0033406232 -0.0062863627 -0.0037214006 
  519000    297.29019    6063.6797        24389    24.264001 -0.0069378501 -0.0064467411 -0.0057697336 
  520000    292.83048    651.85911        24389    24.482677 0.0032216132 0.00059342351 0.0086672324 
  521000    300.80538   -709.11106        24389     25.03904 -0.0036024807 0.0090848124 -0.0079486724 
  522000    295.81676    3734.0925        24389    26.059738  -0.01169917 0.0010547757 -0.0040661311 
  523000    291.57456    7273.0844        24389    26.956264  0.021775894 0.0056544949 -0.00073837166 
  524000    295.29858    5299.2062        24389    28.116849 -0.0011870684 0.00019756126 0.0060407902 
  525000    298.70658    1258.2738        24389      28.8678 0.0026617331 -0.0036676175 -0.0038090465 
  526000    293.31314    2292.6471        24389     28.88982 0.0040273415 0.0053262505  0.004492488 
  527000    297.02231    5053.1082        24389    28.324395 0.0033164978 0.0097351214 0.00072616517 
  528000    299.70985    5924.0488        24389    27.471329 -0.0070292085 0.0065388769 0.0078685026 
  529000    294.03838     2886.717        24389    26.869269 0.0062905114 -0.0022634072 0.0080219903 
  530000    294.87606    2175.6555        24389    26.068532 -0.00038210561 -0.0070534627 -0.0043168085 
  531000    293.90345    5228.5447        24389    25.802947 -0.00081511014 -0.0033950836 0.0062503918 
  532000    293.64122    3848.5546        24389    26.514795  0.015406044 -0.012425001 0.0047400851 
  533000    288.69107    5797.1067        24389    27.127506 -0.0015614902 0.0019028604  0.007127923 
  534000    293.75773    4112.8072        24389    27.512685 -0.0015354947 -0.00081168045 -0.0029097138 
  535000    293.37172    4747.2709        24389    27.720472 -0.0029972035 -0.0023463473 -0.0051729667 
  536000     297.1136    4843.3616        24389    27.364733 -0.012384479 0.0044454393 -0.002746311 
  537000    292.20563    1317.1698        24389    26.609578 0.0070480307 -0.0020233923 0.0061173417 
  538000    291.32629    1989.1448        24389    25.433937 0.0050024908 0.0015721786 0.0060073653 
  539000    293.23382    4303.7465        24389    23.911202 0.0072729463 0.0068861124 -0.0036343905 
  540000    294.60799    5759.4389        24389    22.346283 0.0075223171 0.0023867782 -0.0033834765 
  541000    288.45514    3046.6133        24389    21.343136 -0.010442577  0.012333485 -0.0028583692 
  542000    286.12844    1054.9505        24389    21.733381 -0.0091876139 0.0039103192 0.0068200525 
  543000    295.57645    5914.0116        24389     22.50429  -0.01275098 0.0089825523 -0.00061771148 
  544000    298.68449     6678.766        24389    23.058839 0.0066686907  0.016326067 0.0048318552 
  545000    291.42567    2236.0406        24389    23.661462  0.012200959 -0.0090956326 -0.017798836 
  546000    290.85729    3959.2254        24389    24.359002 -0.0073035473 0.0022995301 -0.013056693 
  547000    289.50333    4942.5281        24389    25.532597 -0.0021147507  0.010207604  0.012277484 
  548000    292.01696    5050.3872        24389    27.308814 0.0026783263  0.007797075 -0.0099448776 
  549000     294.1561     3175.161        24389    28.925562 -0.0028776116  0.012195887 0.0087992686 
  550000    298.46411    3337.5394        24389    29.373351 -0.0050650406 0.0093039787 0.0075850707 
  551000     296.7037    2870.1256        24389    28.650378 0.0047090153 -0.0035553186 0.0053802265 
  552000    289.62514    2312.2576        24389    27.395792 -0.004516533 0.0045151464 -0.0037522373 
  553000    287.14915    5382.0909        24389    26.398886 0.0084870836 -0.013120096 -0.014472702 
  554000    299.84485    6694.5675        24389    25.725275 0.00070143516 -0.0068721399 -0.0035209764 
  555000    293.49476    4239.9319        24389    25.562666 0.00080354847  0.004719956 4.0431276e-05 
  556000    289.28426    199.64763        24389    25.839053 -0.0018704073 -0.0011439969 -0.015803522 
  557000    288.57142    3391.0193        24389    26.481382  0.011730148 0.0038877371 0.00078577117 
  558000    290.53681    7211.0637        24389    27.245916 0.0057336264 -0.0009875365 -0.0069094482 
  559000    292.39335    4139.4144        24389    28.358099 0.0064761854  0.010662258 -0.0072378581 
  560000    296.96356    2002.2461        24389    29.074321 0.0084452117 -0.0049230051 0.0047436379 
  561000    288.37232    2658.6188        24389    29.132944 0.0032721088 -0.0049335065 0.0092907368 
  562000    292.85884    7439.3532        24389    28.265307 -0.0015250491 0.0036472896 9.9197182e-05 
  563000    295.18071    5205.6375        24389     27.28758 -0.016340451 0.0030280459 -0.014170158 
  564000     291.5578    1949.4095        24389    26.498831 0.00064560079 -0.014242628  0.005214728 
  565000    289.76014    5045.4735        24389    26.459456 -0.0095671325 -0.0074138318 -0.0098485243 
  566000    294.75225    5253.6097        24389    26.993895 -0.0032584057 -0.0035536929 -0.007076425 
  567000    290.40937    5483.4024        24389    27.673534 0.0070394508 0.00012283338 -0.00015200224 
  568000    294.45665    3679.4309        24389    27.692513 -0.0018474767 -0.0046345703 -0.0050545363 
  569000     288.0674    3477.4272        24389    27.682805 -0.0033435281 0.0032045671 2.2558541e-05 
  570000    293.46048    4675.0904        24389    27.854662 -0.0010301159 0.0066707464 0.0078425039 
  571000    294.35771    4533.8826        24389    27.847528 -0.010272296 0.0034817388 -0.007691083 
  572000    296.89451    5397.2893        24389     28.32344 -0.011961189  0.012341957 -0.012707104 
  573000    292.68686    3124.3879        24389    28.832347 0.0036776143 -0.0033565304 -0.0049493798 
  574000    293.84632    1668.5381        24389    29.559395  0.006710282 -0.012718077 0.0030920293 
  575000    296.09263    4205.4566        24389    29.719936 -0.014527806 -0.0030343769 -0.0018199236 
  576000    292.91218    4828.0652        24389     29.41181 -0.010162293 -0.002528191 -0.0036891547 
  577000    286.24132    6140.9331        24389    29.126946 0.0035883644 0.0074205348 0.0061599325 
  578000    292.54408    5314.0667        24389    28.608797  0.010171792 -0.0010118394 0.00055018369 
  579000     291.8734    1952.8214        24389    28.109113 -0.0025344115 9.3375871e-05 -0.0040443497 
  580000    283.77287    5007.5297        24389    26.985565 -0.0050609753  0.021485013 -0.0077459945 
  581000    294.12854     6397.815        24389    26.304967 0.0034704888  0.012240391 0.0099403526 
  582000    294.02655    6067.6654        24389    26.658823  0.019004597 -0.0010288542 -0.0056543642 
  583000    289.88574    2992.6162        24389    27.484736 -0.0047431612 -0.0018711174 -0.001021116 
  584000     299.2644    2839.0406        24389    27.859525 0.0012264061 -0.0055133448 -0.0021030687 
  585000     293.9302    4662.7701        24389     27.38674 0.0044987662 0.0020500522 -0.013081671 
  586000    293.59018     5001.085        24389    26.346925 -0.012434143  -0.01690405 -0.0030556091 
  587000    297.29989    6494.0821        24389    24.709898 0.0094889407 -0.0086625626 0.0083933186 
  588000    297.66475    1893.2952        24389    23.710971 0.0090753814 -0.0087657725 0.0075921024 
  589000    296.26814    3290.6607        24389     23.30134  0.013369962 0.0013132731 -0.011456142 
  590000    300.07061    5618.7127        24389    23.465296 -0.0068784313  0.019595526 -0.0022928831 
  591000    295.31894    1967.7431        24389     24.26522 0.0036813108   0.01117712 -0.0018403372 
  592000     288.8552    2474.8983        24389    25.802385 0.00017344897 -0.0038017709 0.0047056597 
  593000    296.01087    2545.2933        24389    27.242586 0.0071592608 0.0086892378 0.0010818976 
  594000    285.17116    4093.7087        24389     28.15696  0.011893618 0.0078746675 -0.0017530567 
  595000    294.90588    4749.6056        24389    28.420366  0.010050449 0.0057328578 0.0035783384 
  596000    296.88061    3180.3356        24389     27.87063 0.0050109033 0.0095561864 -2.4789998e-05 
  597000    284.81703    3640.7322        24389    26.695423 -0.0042434301 -0.0030845125 0.0041924817 
  598000    295.66718    4033.7978        24389    25.427078 0.0053620788 0.0066716436 -0.00063894073 
  599000    299.02044    5411.5325        24389    24.393631 0.0010977423 0.0088012743 -0.0021156404 
  600000     295.8972    5140.4517        24389    24.150205  0.017226485 0.0027285904 0.0045217322 
  601000    299.16689    2425.3881        24389    23.834011 -0.00032190438 0.0067605615 -0.00042514192 
  602000    297.01231    4053.4243        24389    24.236356 -0.012062137  0.004942958 0.0020313879 
  603000    301.51839    3435.3589        24389    25.276995 0.0038769412 -0.0037299268 -0.0069140007 
  604000    287.59088    3998.7607        24389    26.641727 0.0018449758 -0.011453383  0.014191223 
  605000    296.03017    3172.3595        24389     27.45757 0.0091314065 -0.0018411219  -0.01022197 
  606000    296.10076    4577.9486        24389    28.247065 -0.0052742562 -0.0052336977 -0.0011617569 
  607000    291.23719    4345.9369        24389    28.982092 0.0071827848 -0.013104292 0.0026200899 
  608000    287.97783    5043.5716        24389    29.103802   0.01205795 -0.0040532621 -0.0034933008 
  609000    295.68944    5137.3196        24389    28.627548 0.0046715829 -0.0071100292 -0.0076421938 
  610000     291.2728    4169.6709        24389    27.784931 0.0044361261 0.0073074555 -0.0099003632 
  611000    296.60848    1707.4487        24389     27.01148 0.0025127598 -0.012047948 0.0027069367 
  612000    291.68446    1568.8641        24389    26.722146 -0.0047127216 -0.0072055614  0.009188491 
  613000    295.33992    4990.3812        24389    27.148496 0.0012583336 -0.0034519339 -0.00045771806 
  614000      296.774    6022.0036        24389    27.632889  0.019581223  0.018282855 0.0041708603 
  615000    295.08765    3892.5109        24389     28.00912  0.010540665   0.01182006 -0.0066137178 
  616000    294.39602      2284.07        24389    28.776066 0.0035738421  0.014889418 0.0074844249 
  617000    296.07384    4825.1484        24389    29.685894 -0.0041283628 0.0038289906 -0.005581557 
  618000    293.60807    4561.5448        24389    29.965472  0.011199431 -0.0051182518 0.00090762514 
  619000    292.04024    2071.3407        24389    30.023442 -0.002144965 0.00072529486 0.00050544044 
  620000    290.90074     2282.736        24389     29.62767 -0.0011270604 -0.008830279 -0.0056688635 
  621000    297.77479    6033.1001        24389    28.641714 0.0075749114 0.0069857316 -0.0075244583 
  622000    294.13936    4439.7799        24389    27.269008 -0.0071154068 -0.012305383 -0.0076981373 
  623000    295.71439    4121.4409        24389    25.834461 -0.0021828951 -0.00056645087 0.00063287607 
  624000    302.31246    3422.4112        24389    24.395284 -0.0079495121 0.00015347125 -0.013218315 
  625000    295.93154    2269.1322        24389    24.727026 0.0020317193 0.0031415895 -0.017822219 
  626000    289.96795    3147.3196        24389    25.782134 -0.0011995586 0.0030677339 -0.0094761012 
  627000    283.34259    4964.9796        24389    26.904623 0.00072274132 -0.00064510914 0.0014224086 
  628000     296.7637    4865.0734        24389    27.526101 0.00087630983 -0.0078830673 -0.0040017583 
  629000    297.98879    2940.2454        24389    27.835564 0.0090575017 -0.0028459915  0.013802638 
  630000    292.69554    3384.5337        24389    28.029521  0.010644274 -0.00014254766 -0.0015495914 
  631000    296.65769    4444.6151        24389    28.684075 -0.0022136071 -0.0018787743 0.0096815783 
  632000    287.28941    5023.6807        24389    29.604411 -0.0040472539 -0.0059313934 0.0011679069 
  633000    289.12418    4535.5745        24389    30.147203 0.00061520847 0.0072814205 -0.004042529 
  634000    290.47655     4040.565        24389    29.970198  -0.01104648 -0.010462496 0.0034495138 
  635000    287.19038    2520.8996        24389    29.195065 -0.0035824231 -0.0017393937  0.015247968 
  636000    291.57829    4315.8854        24389    28.159986 -0.00036169648  0.011581386 -0.0087068508 
  637000    299.81192    4416.4204        24389    27.166927  0.010126174 0.0064519464 -0.0033094829 
  638000    291.74099    3217.9678        24389    26.694276 0.0047390667   0.01064417 0.0020940291 
  639000    294.69617    4601.9099        24389    26.474342  0.013837153 0.0080110934 0.0048685339 
  640000    295.19949    2625.9029        24389    26.944172 -0.0085315734 0.0091091803 0.0094289321 
  641000     287.9594    3494.9682        24389    28.142162 0.00017211286 -0.0039566226 -0.0068590823 
  642000    291.47499    4964.3741        24389    29.050477    0.0189027 0.00098534127 -0.0085760446 
  643000    294.76498    5488.8556        24389      29.5119 0.0096510211 -0.0034129362 0.0031720587 
  644000    297.58614    2395.4828        24389    29.067266 -0.010984596 0.0015962471 -0.0058382938 
  645000    294.87414    3929.9973        24389     28.42153 -0.012619179 0.0015115672 -0.0082565999 
  646000    292.09314    4651.3414        24389    28.074253 -0.0024465531 -0.0088700485 -0.0037865272 
  647000    288.10062    4257.3378        24389    28.212477 0.00093746581 -0.0066934304 -0.012414372 
  648000    291.32894    3846.0138        24389    27.807137  -0.01333244 0.0016065325  0.010254995 
  649000    299.55551    2311.9692        24389    26.992181 0.0022702321 -0.020239695 -0.011832489 
  650000    294.43777    4203.7339        24389    26.610347 0.0023605885 0.0005409146 0.0069434446 
  651000    291.58034    4829.9875        24389    26.510784 -0.0043529996 0.0051651659 -0.00034061912 
  652000    293.16668    3893.0851        24389    26.897801 -0.0043194081 0.0039427428 -0.0024703671 
  653000    295.22406    2800.6166        24389    27.357805  0.002039979 -0.0015859492 0.0050673594 
  654000    301.78842    1232.7652        24389    28.035827 0.0055664523  0.001851104 -0.010958285 
  655000     296.0883    3646.2938        24389    28.621342  0.005846838 -0.00030164121 -0.012376855 
  656000    295.14844    6312.3245        24389    28.247087 -8.3372354e-05 -0.0012890638 -0.00066577723 
  657000    291.74179    5379.6379        24389    27.417682 -0.0047369735 -0.0022350822 0.00033599248 
  658000    299.37746    1721.5178        24389    27.114088 0.0054198147 -0.0040761775 -0.0005671236 
  659000    292.29048    632.33687        24389    27.204721 0.0071862694 0.0087631449 -0.0021423397 
  660000    290.93341    5306.5365        24389    27.177855 0.0041073042 -0.0042539527 -0.0095896671 
  661000      291.081    4785.2689        24389    27.284054 0.0041226877 -0.0045530497 -0.016572407 
  662000    299.12429    4485.0738        24389    27.684063 0.0059455938 -0.0043041645  0.010140007 
  663000    286.24635     3387.036        24389    27.774711 0.0031531567 0.0042479786 0.0091891014 
  664000    291.31274    4549.3402        24389    27.772485  0.002147302 0.00086325997 0.0038953735 
  665000    290.77196    4272.2635        24389     27.40388  0.016367947 -0.006190771 0.0050699184 
  666000    289.08569    3508.9485        24389    26.586261 -0.0053428263 0.0033894148 -0.0040202203 
  667000    285.94542    1813.5596        24389    25.810113 0.0030072895 -0.0033142943 -0.0024722312 
  668000    290.75474    4032.3682        24389    25.165792 0.0081596221 0.0045420563 -0.00099083371 
  669000    295.73757    2842.7549        24389    24.651909 -0.0017713389  0.011411379 0.0062603494 
  670000    294.02829    3345.2212        24389    25.543244 0.0040732044 0.0015217714 -0.0056008101 
  671000    298.72869    4362.6355        24389    26.670205 0.0069586675 0.00023977462 0.0059818704 
  672000      290.157    5029.1747        24389    27.645743 -0.0041264432 0.00099657926 -0.0071988703 
  673000    286.09024    6112.0744        24389    28.477072 -0.0038735052 0.0011181934 0.0016838243 
  674000    287.16948    4384.5423        24389    28.537619  0.004888577 -0.0057843689  0.010683603 
  675000    297.92018    5325.5836        24389    28.064337 -0.0083997575  0.020308295 0.0074367681 
  676000    292.73406    2470.7115        24389    27.654549 -0.011258492 0.0043482722 -0.0029332164 
  677000     297.8622     4537.728        24389    27.619695 -0.0076861048 0.0073543654 -0.00080995354 
  678000    297.92172    4132.3622        24389    27.942192 -0.0013558476 0.0029184634 -0.016797999 
  679000    297.75485    4195.6438        24389    28.310913 -0.0066479746 0.0026181653 -0.0069210884 
  680000    300.69866    3116.4264        24389    28.504011  0.011685707 -0.0068608422 -0.0073862694 
  681000    288.76607    3502.6733        24389    27.803016 -3.0347911e-05  0.001809043 0.0034264184 
  682000    296.72412     2238.292        24389    26.992925 -0.002118224 0.0072682203 -0.00060445381 
  683000    295.78605    3205.7735        24389    25.561068  0.013424382  0.010946969 0.00034839351 
  684000     293.5809     3445.887        24389    24.278861 -0.0082260892 0.0013650113 -0.0085463868 
  685000    297.14205    3979.8157        24389    23.778829 0.00083624568 -0.0085711146 0.0029332489 
  686000    297.09303    4706.0083        24389    24.125092 0.0053191865 -0.0066433455 -0.0072476837 
  687000    293.30337    5228.3446        24389    25.558408  -0.00796855  0.002712773    0.0204911 
  688000     294.0586    4070.8935        24389    27.398225 -0.0020232753 -0.0038464776 0.0027744563 
  689000    289.11089    3638.1504        24389    28.922242 -0.0014301817 0.0074532474 0.0056170306 
  690000     293.8131     2954.382        24389    29.290803 0.00060444572 -0.0072020837 -0.0061790119 
  691000    300.58798    3348.7304        24389    28.823005 -0.0072854153 0.0060084396 -0.0074832976 
  692000    297.85021    5544.8245        24389    28.039565 -0.00032101286 0.0059376433 0.0092237757 
  693000    299.13661    5263.5805        24389    26.937471 0.0086131225 -0.0014625119 -0.010363197 
  694000     293.7778    2483.8601        24389    26.522007  0.011127388  0.014650325 -0.010873462 
  695000    292.88824    979.77994        24389    26.291468 0.0030654691 -0.011979715 -0.008448515 
  696000    290.70731    2702.3681        24389     26.20228 0.0061003572 -0.0017215224 0.0031127586 
  697000    289.03002    6300.7427        24389    26.761628 0.0020381245 0.0029804383 -0.001598582 
  698000    293.39662    6248.0121        24389    28.186442 0.0026858847  0.014607642 -0.010630986 
  699000    297.05836    3832.0334        24389    29.341469 0.0018455109 -0.00031243297 0.0060091651 
  700000    293.86857    1160.8172        24389    30.228885 -0.00091490932 0.0076818026 0.0049653132 
  701000     300.6508    1870.7062        24389    30.339685 -0.011886209 -0.0067298274 0.0023367276 
  702000    298.01237    3646.9065        24389    30.744919 0.0050310397 -0.0077761869 -0.006770282 
  703000    292.90869    3265.5721        24389    31.127258 -0.0012663145 0.0040817107 0.0015217086 
  704000    292.17951    4438.5455        24389    31.453417 -0.00028923511 -0.0026584655 0.0090176101 
  705000    292.50048    5029.4064        24389    31.520677 -0.0010035591 -0.0068015006 0.0048341169 
  706000    300.00478    3743.0618        24389    31.349021 0.0060296778 -0.0038503667 0.0039220318 
  707000    290.81643    2085.0862        24389    30.736177 -0.00044024435  0.002949132   0.01296111 
  708000    298.06812    2551.5563        24389     29.59464 -0.0020434967 0.0039630282 0.0019354043 
  709000    297.86265    5920.7697        24389    28.006185 0.0024126618 -0.011718874 0.0049917363 
  710000    292.90456    2875.0249        24389    26.054612 -0.0063751833 -0.014043303  0.010083957 
  711000     291.8091    2589.7153        24389    25.136998 -0.0085784933 -0.012496292 -0.00023199512 
  712000    292.18223    3046.3782        24389    25.474442 0.0076618015 -0.0046283677 0.0036176673 
  713000    291.09284    4357.8356        24389    26.344214 0.0065874784 -0.0074516024 0.0020839362 
  714000    293.74029    3336.8403        24389    27.222408 0.0013921131 0.0031946582 -0.0087346532 
  715000    299.98888    3469.3068        24389    27.576492 -0.0077694014 0.00012073689 -0.0049994182 
  716000    293.53073    5843.7109        24389    26.727379  0.013004388  0.005452555 0.0058652304 
  717000     288.4169    5085.0281        24389    26.004888 0.0010476681 0.0059459608 -0.0057644762 
  718000    291.41975    2.8000028        24389    26.198788 0.0051915568 0.0020208994 0.0089209994 
  719000    294.56986   -1186.2596        24389    27.081235  0.002933023 0.0015789982 0.0025067409 
  720000    293.07855    6826.5777        24389    27.637212 -0.013615946  0.011223708 0.0081912655 
  721000     293.1845    8447.6772        24389    27.682417  0.013776758 0.0013477307  0.007030142 
  722000    294.03425    4458.9166        24389     27.13422 -0.0067007226 -0.015000169  0.007601338 
  723000    296.50129    1029.0104        24389    27.106772 0.0013439947 -0.0076497433 -0.00097837148 
  724000    292.77207    3531.6171        24389    27.437489 -0.0074369769  0.016812253 0.0081516547 
  725000    294.58487    4349.8088        24389    27.360578 -0.0046310239 0.0026979693  0.012791434 
  726000    298.88352    3031.5555        24389    26.491013 6.4537819e-05 -0.019179764 0.0023072086 
  727000    298.30313    2060.5665        24389    25.993376  0.001514662 -0.004710466  0.015116193 
  728000    291.36134     4623.808        24389    25.647348 0.0053467315 -0.0095655513 0.00065562311 
  729000    292.41954    4545.3151        24389     26.05519 0.0072872533 -0.0065704056 -0.0020081663 
  730000    293.16869    1611.4972        24389    27.028608 -0.0019917802 -0.0020216558 -0.0015747433 
  731000    295.11182    1577.6866        24389    27.820744 0.00036834131 -0.0075032173 0.0030548774 
  732000    285.55603    5951.2444        24389    28.320483 0.0089055456  0.003793216 0.0028512219 
  733000    290.82185    3851.6811        24389    28.591027 -0.0024079087 0.0010532941 -0.001690065 
  734000    288.26205    3712.4262        24389    27.988601  0.013565255   0.01433734 0.0074477221 
  735000    287.75301    4835.2468        24389    26.909141 -0.017011379 0.0059383814 -0.0053158751 
  736000    291.65763    5633.1812        24389    25.886573 0.0069468285 -0.002494574 -0.0041120641 
  737000    295.49258    317.65691        24389    25.231557 0.00090058597 -0.00027824067 -0.0031103261 
  738000    300.24903    3256.5212        24389    24.765658  0.018484508 -0.0037592779 -0.0046596771 
  739000     293.2405    7231.0608        24389    24.688363 -0.0063467298 -0.0014800275 -0.00073332661 
  740000    294.46625    5157.7816        24389    25.141625 0.00042932568 -0.00052840301 0.0047930436 
  741000    287.31014    1185.2677        24389    26.123789 -0.010334936 -0.015465539 -0.0044129705 
  742000    290.70324    3322.1662        24389    27.645385 -0.0005703562 -0.0052268555 -0.010189569 
  743000    295.17545    6620.9311        24389    28.841935   0.00413783 -0.0074195844 -0.0094643513 
  744000    291.39445    4351.2644        24389    28.893786 -0.0089469532 0.0076001961 0.0033019066 
  745000    296.05901    239.63835        24389    27.939096 -0.0018828334 -0.0019520011 0.0045092309 
  746000    299.21329    1202.6876        24389    27.081778 -0.0050611618 0.0043243399  0.011696831 
  747000    295.12357    6221.9776        24389     26.95831 0.0065866424 0.0048174657 -0.0025456421 
  748000     297.6736    5036.9082        24389    26.764973 -0.0011737878 0.0067149153 0.0061013761 
  749000     301.6289    2227.4742        24389    26.899372 -0.019938009  0.011895546 -0.0039511091 
  750000    287.83209    2968.9278        24389    27.196711 0.0077549925 -0.00014627433 0.0022654377 
  751000     290.6151    6259.0157        24389    27.845548 -0.00061253338  0.003055563 0.0065283216 
  752000    291.03667    5803.5632        24389    28.171236 -0.011397459 0.0028389075 0.0062371276 
  753000     285.9587    1778.2903        24389    28.304926 0.0068445169 0.0080924805 -0.016322303 
  754000    292.17301    2913.4433        24389     27.40363 -0.0018459185 0.0020847846 0.0091498598 
  755000    290.75237    3154.2563        24389    27.102064 -0.010054694 -0.0026850583 0.0080655742 
  756000    293.55268    6390.0703        24389     27.16451 -0.0029379365 -0.0080679474 -0.0076070446 
  757000    295.17432    5504.4193        24389    26.862501 0.0056528377  0.001780183 -0.0032396039 
  758000    291.68481    3141.1309        24389    26.915906 -0.0097688458 0.0015554674 -0.0075152762 
  759000    293.02433     901.7053        24389    26.937919 0.0023503005 0.0078282705 0.0070953398 
  760000    292.48522    3265.9094        24389    26.638707 -0.012834562 0.0067959448 -0.0019451047 
  761000    291.79735    4599.5105        24389    26.036128 -0.0062658264 0.0039793029 0.0054400568 
  762000    291.16106    3879.9579        24389    25.323343 -0.0037337421   0.01549724  0.017774523 
  763000    289.57854    3466.9971        24389    24.631127 -0.0014027184 0.0035290187  0.013733795 
  764000     296.7453    3507.5948        24389    24.706922 -0.0037352477 0.0018496794 -0.0084134857 
  765000    294.45323    3031.2072        24389    25.641282 -0.0023063904 0.0057535588 -0.0088174275 
  766000    296.17345    6247.5916        24389    26.695857 0.0071144763 -0.0027153699   0.01213177 
  767000    288.43181    4863.2743        24389    27.322164 0.0076425906 0.0079635084 0.0043811758 
  768000    288.06642    1438.1949        24389    27.428232 0.0045008066 -0.0058987386 0.00037764705 
  769000    291.37039    545.96277        24389    26.930033 -0.0028597409 0.0037690571 0.0079521272 
  770000    290.68212    5205.2277        24389    26.389262  0.010350804 -0.008808382 0.0076037676 
  771000    294.32148    7075.0425        24389    26.518476 -0.0034449269 0.0013373031 0.0076763783 
  772000    300.17702     3959.262        24389    27.039133  0.011799503 -0.0017479431 0.0043641079 
  773000    289.59653    3791.6201        24389    27.879185 0.0088700374  0.001096972 0.0027717658 
  774000    292.61481    2797.1009        24389    28.292802  0.002668906 0.0030895192 -0.0019482966 
  775000    296.68138    4288.0075        24389    28.426716 -0.012017525 -0.0025748353 -0.0036490315 
  776000    296.62512     3413.022        24389    28.123089 -0.0017908341 0.0080492116 0.0023195321 
  777000     292.3763     5339.919        24389    27.947992  0.020719042 0.0091373788 0.0043809285 
  778000    284.85547    3321.2257        24389    27.501457 0.0028006504 0.0075328946 -0.0070630226 
  779000    293.84289    2689.7672        24389     27.26924 -0.0032465334 -0.0092212184 0.0015231367 
  780000    289.29352    5511.1334        24389    27.456928  -0.01274706 -0.008469566 0.0092488096 
  781000    291.11426    4357.0555        24389    27.777661 0.0057903875 -0.0069982707 0.0066168524 
  782000    286.84828    3374.4656        24389    27.569591 -0.0038673788 0.0058535827 0.0058601769 
  783000    290.23818    4931.0894        24389    26.974578 0.0082217955 -0.009307001 -0.0077715142 
  784000    289.90939    4071.6064        24389     26.25135  -0.01300945 0.0061709013 0.0045399631 
  785000    293.21779    2339.9155        24389    25.107949 0.0061701047 -0.002778881 -0.00050999438 
  786000    292.38428    6355.4484        24389    24.489065 0.0051126335 -0.0011105242 -0.012928964 
  787000    289.45809    6092.4327        24389    24.619701 -0.0083242867 0.0069311579  0.010397609 
  788000    289.22147    3837.2035        24389    24.571099 0.00021123704 -0.0049178948 0.0023173805 
  789000    288.46895    2536.2302        24389    23.960976 0.0079711706 -0.00057614054  0.019592177 
  790000    295.06143    2273.0311        24389    23.757546 -0.0010229757 0.0019855108 -0.016595638 
  791000    301.07399    6600.7394        24389    24.216552 0.0012598463 0.0024816696 0.0052674829 
  792000     295.8849      6823.33        24389    24.873417 -0.0037445581 -0.0084215036 -0.0018124995 
  793000    302.22259    1705.1382        24389    25.588419 0.0060700542 -0.0065515586 -0.0066923082 
  794000    289.21842    2958.2129        24389      26.2045 0.0066065695 -0.006984586 5.8482824e-05 
  795000    290.27223    2911.1107        24389    26.510877 -0.0066149344 0.00030223269 -0.0060889129 
  796000    291.31994    6572.3656        24389    26.402207 0.0097692902  0.005361927 0.00047029297 
  797000     287.8016    4401.6336        24389    26.177882 0.0022426738  0.017076715 -0.0040405983 
  798000    291.55229    3632.8006        24389    25.413393 0.0091558492 0.0016721271  0.019847718 
  799000    293.63615     3236.702        24389    24.760901 -0.0029329015 0.0027995722 0.0015804251 
  800000    294.12539    3085.2712        24389    24.634526 0.0023163195 0.0036555017 0.0016066085 
  801000    290.75489    3264.6661        24389    25.259656  0.012995643 -0.0062912706 -0.0058304047 
  802000    288.22434    5313.1309        24389    25.970267 -0.0029031289 -0.0052312907 0.0057594221 
  803000     292.9613    6808.3984        24389    26.108157 0.0060389618 0.0083301645 0.0041427058 
  804000    291.70692    1433.2214        24389    26.022805 -0.010604957 0.0089150393 0.0034459875 
  805000    292.71697    -232.7313        24389    25.745906 -0.0062318039 0.0097205242 0.0094621922 
  806000    296.12387    2683.9543        24389    25.046143 -0.0093492802 0.0070446559 -0.003828033 
  807000    298.91305    5608.3044        24389    24.702861  0.012773016 0.0073190408 -0.0067931879 
  808000    300.20318     2624.974        24389    24.684567 -0.0059451531 -0.0031302086 -0.0034614473 
  809000    295.79977    4006.8978        24389    25.251311 0.0080148621 -0.0012727316 -0.0036938787 
  810000    294.24883    6436.9488        24389    26.557187 0.0041384624  0.012692479 -0.0053915782 
  811000     294.8301    3824.1788        24389    28.283328  0.011100377 0.0050678454 -0.0054102517 
  812000    290.03139    1682.6548        24389    30.067694 0.0034975932 -0.00073223262  0.014579371 
  813000     291.0975    3613.5535        24389    31.003147  -0.01689259 0.0093810994 0.0024928141 
  814000    294.50205    6079.1867        24389    31.048281 0.0065870984 -0.00070587236 -0.0012426284 
  815000    297.10931    4090.3629        24389    30.569594  0.013482502 0.0059124347 -0.012410746 
  816000    290.99509     988.6794        24389    29.450522   0.01185197 0.0013249436 0.0055078335 
  817000    290.73496    4397.3955        24389    28.338812 0.0046659215 -0.011047544 -0.0056372131 
  818000    292.98456    6427.6577        24389    27.040371 -0.0070547769 -0.0095068194 -0.0020324744 
  819000    289.80855    6165.0806        24389    26.047985 -0.00023388032  0.012200658 -0.0077313154 
  820000    297.63881    1768.4325        24389    25.481908 -0.00027013611  0.015414116 0.0045194575 
  821000    294.97379    2431.8281        24389     25.65785 0.0045046783 -0.0016267146 -0.001150544 
  822000    291.17187    3110.4805        24389       25.963 -0.00081496986 0.0021688985   -0.0069134 
  823000    292.49607    5963.3221        24389    26.302672 -0.0057116603 -0.0046203426 0.0094425183 
  824000     298.2279    5142.3811        24389    26.776572 -0.0098420608 -0.0012485748 -0.0066709728 
  825000    289.49932    3689.2174        24389    26.820778 0.0087246261 -7.0729821e-05 -0.0065515807 
  826000     286.7471    3202.8239        24389    26.999785 0.0082057313 -0.014177062 0.0070248442 
  827000     292.4672    3166.3019        24389    27.056075 -0.00021185141 -0.0064765987 -0.00035396973 
  828000    295.24228    3257.9943        24389    27.146003 0.0072268107 -0.0070545139 -0.002795349 
  829000    294.94476    2542.9364        24389    27.424143 -0.011773382 0.00070156798 -0.016669509 
  830000    298.74932    3380.2578        24389    27.826357 -0.010916826 -0.009177219 0.0032530543 
  831000    295.48646    5810.6007        24389    27.138426 -0.0012618134 0.0048715622 -0.016835693 
  832000    296.32918    5079.1071        24389    26.330591 0.0036651614 -0.0091291607 -0.0040456554 
  833000    297.66235    3066.3722        24389    26.428157  0.014452696 -0.006368959 0.0078075364 
  834000    292.44853    4313.9115        24389    26.722284 0.0019453266 0.00048325234 0.0084531364 
  835000    293.39817    4178.4871        24389    26.716891  0.010117855 -0.012957255  0.013153642 
  836000     290.7468    4309.4374        24389    26.106842 0.0085622577 -0.018643062 0.0085624768 
  837000    289.30628    5972.0008        24389    25.876829 0.0006139035 0.0034431373  0.010949649 
  838000    285.50463    3406.3455        24389    25.788049 -0.005522872 -0.0043579555 0.0064284736 
  839000    291.37402    1447.2709        24389    25.429582 0.0022812651  0.003859225  0.001859252 
  840000    282.48687    3228.7366        24389    25.175641 -0.0018291811 -0.0057370878 0.0040902272 
  841000    290.52916    4752.1489        24389    24.903098 0.0016740263 0.0094279606 0.0050567208 
  842000     296.0154    5568.5885        24389    24.687103 0.00027303017 -0.0025055303 -0.010668273 
  843000    292.55588    2389.3211        24389     24.35203 -0.0034423297 -0.0052872039 0.0051145451 
  844000    287.12127    3283.7339        24389    24.582152 -0.011865849 0.0013651925 -0.0069603884 
  845000    295.95806    4010.2248        24389     25.41831 0.0043800868 0.0045952458 0.0023961788 
  846000    293.32852    6193.2321        24389    26.112028 0.0078905424 0.0028239103 -0.0006159291 
  847000    287.75801    4443.2247        24389    25.914074 0.0070773351 -0.0045140221 -0.0031123042 
  848000    294.25404    3276.9771        24389    25.229968 0.0058739264 0.00098853984 9.7038069e-05 
  849000    293.24789     3590.099        24389    24.500071 0.0092824171 -0.0052587175 0.0072875421 
  850000    286.57658    703.01286        24389    23.918406  0.002924978  0.001247447  0.016035001 
  851000    293.50908    5181.0009        24389    23.668269 0.0078692174 0.00020151271  -0.01478478 
  852000    296.78947    5540.2445        24389    23.470361 -0.00074671427 0.0036983939 0.0019367784 
  853000    292.28906    5078.7815        24389    23.362498 0.0075990888  -0.01635516 0.0017049056 
  854000    291.41269    3230.4138        24389    23.482087 -0.0097082015  0.021753005  0.005890255 
  855000     295.8463      2862.18        24389    24.119001 -0.0042364832  0.010149505 0.0080293069 
  856000    297.91748    1574.6314        24389    25.675908  0.013104608 0.00075560918 -0.00040510724 
  857000    289.34949     3403.783        24389    27.095793 0.0010333873  0.011020406 -0.013536297 
  858000     298.6315    4399.6715        24389    28.247283 0.0026509855 0.0080266338 0.0017428782 
  859000    291.76673    1545.9115        24389    28.551189 0.00077862029 0.0013821645   0.01078726 
  860000    292.95531    5431.2807        24389     28.34097  0.014161938 0.0060795374 -0.0057449354 
  861000    294.05792    4522.0432        24389    28.207525  0.015859973  0.014833827 -0.0067501073 
  862000    290.52806    3698.4511        24389    27.379716 0.0054055943 0.0056411816 -0.018581105 
  863000    292.82473    1751.6556        24389    26.346492 0.0043050568 -0.0066031319 0.0064314284 
  864000    291.56126    2337.6141        24389    25.476426 -0.010661012 0.0042388949 -0.0098976722 
  865000    291.84507    3772.2397        24389    24.883131 0.0053496022 -0.012642827 0.0078377719 
  866000    295.99553    6126.6507        24389    24.580546 -0.0095330697 -0.019354285 -0.0067570027 
  867000    292.50161    5510.8062        24389    25.012092 -0.011480739 0.0059153032 -0.0051029515 
  868000    293.52894    1533.8917        24389    25.568628 0.0021799425 0.00051076398 0.0068427723 
  869000    290.04323    2065.3047        24389    26.093809 -0.0023876383 -0.016241064 -0.0029600129 
  870000    287.99063    4476.9336        24389    26.465387  0.007011577 5.9926513e-05 -0.00098737524 
  871000    292.64805    6535.1057        24389    26.886118 0.0071965322  0.008418164 -0.0063029637 
  872000    294.35694    2651.2773        24389    27.079135 -0.0075585199 0.0011274128 -0.00050159987 
  873000    293.00709    1157.6302        24389    26.429972 0.0035811745 -0.0067992629 0.00097542041 
  874000    290.10536    3957.0673        24389    26.016735 0.0012602237 -0.00045771966 -0.0073276268 
  875000     298.0108    6026.3995        24389    25.826757 -0.023507124 0.0017567174 -0.0017096718 
  876000    290.57712    3805.7834        24389    25.475093 -0.0041958405 -0.0072506702 -0.004552853 
  877000    291.62664    3531.6759        24389    25.429951 0.0066766009 -0.016831136 0.0097735705 
  878000     291.7884     2609.702        24389    25.752996 -0.011292333  0.010763275 0.0095601823 
  879000    292.50356    2140.7696        24389    26.129717 0.0051708571 0.0078186628 0.0072961895 
  880000    296.65737    5413.1783        24389    26.031307 0.0029300096 0.00088349487  0.014169799 
  881000    284.89964     5626.219        24389    25.899132 -0.011583048 -0.0043895524 -0.0053726882 
  882000     294.6443    1838.3462        24389     25.88198 -0.010234927 -0.008634595 -0.00042480311 
  883000    294.32412    651.87181        24389     26.03025 -0.013266229 0.0082580955 0.0013984481 
  884000    291.99739    4019.9424        24389    26.444863 -0.0051795952 -0.0078395566 0.0024393278 
  885000    299.47391     4219.928        24389    26.779927 0.0075704422 0.0092611925 0.0074081685 
  886000    298.50594    4308.5142        24389    26.397359 -0.0053394782 -0.0052464245 0.0055931595 
  887000     294.1332    2480.8109        24389     26.21627 0.0040820292 0.0050847733 -0.0024867964 
  888000    297.98913    4619.3207        24389    26.394581 -0.0053152023 -0.0040970695 -0.0014210123 
  889000    294.47342    4345.9444        24389    26.213246 -0.011865734 0.0083901329  0.019975975 
  890000    291.66798    1953.8054        24389     25.71599 -0.0074323012   0.01832162 0.0018471002 
  891000     288.1032    2139.9516        24389    25.671338 0.0019898724 0.0084293681 -0.013170556 
  892000    294.38284    4082.3972        24389    26.481628 -0.0010099036 -0.015681078 0.0043847277 
  893000    297.86215    5917.9338        24389    27.502155 0.0048710334 0.0018229712 0.0060621961 
  894000    297.89537    3172.7938        24389    27.984812 2.6931986e-05 0.0030676331 -0.0088063377 
  895000    296.78817    2802.2397        24389    28.146908 -0.0034610662 -0.015328666 -0.0047545501 
  896000    294.41801    2738.2322        24389    27.913661  0.006505684 0.0023495216 0.0015352743 
  897000    292.59994    4079.4414        24389    27.166278  0.011411027 0.0070081339  0.004863177 
  898000    296.64511    4861.1403        24389    26.232929 0.0076762278 0.0070035819 -0.0052623664 
  899000    284.65567    3562.8865        24389    25.651904 0.0049797795 -0.00028095276 -0.0036206686 
  900000    288.58526    3821.2189        24389    25.028795  0.011827675 0.0018911507 -0.0019800951 
  901000    283.35743    3281.1112        24389    24.512323 -0.0054444373 0.0069491735  0.019043513 
  902000     295.1871     370.1234        24389    24.189297 0.0090238481 -0.00092469398  0.005469642 
  903000    295.99015    3636.1615        24389    24.502809 0.0044510064 0.0046299791 -0.0048250337 
  904000    300.83623    4098.0717        24389    25.286961 0.0036630915 -0.016544531 0.00024535534 
  905000     295.2968    4529.4187        24389    26.342173 0.00013336378   0.01340194 -0.0054274783 
  906000    290.36692     3460.135        24389    27.387724 -0.0085170803 0.0031815868 -0.0038677597 
  907000    285.94235    3859.5612        24389    28.034084 -0.008626293 -0.0045405972 -0.0020398327 
  908000    294.86151    5550.4487        24389    28.257115 -0.0030713413 -0.0055637663 -0.012054032 
  909000    293.86992    4500.9858        24389    28.061204 0.00084579457  0.010102103 -0.0040073919 
  910000    292.41504    2314.8642        24389    27.971844 0.0023715287 -0.0079719851   0.01658692 
  911000    291.15407    2428.3031        24389    28.191625 -0.0058778103  0.003409392 0.0071404275 
  912000    291.91574    4998.7407        24389    27.975273 -0.0049909705 0.0032283922 -0.0069298481 
  913000    293.27697    5564.8987        24389    27.553337 0.0016336884 -0.00065353785 -0.0035281866 
  914000    297.46294    3324.2416        24389    27.244913 0.0061781951 -0.0056368558 0.0023758551 
  915000    298.90256    1758.3005        24389    26.940999 -0.0041612182 -0.0061409262 -0.0072318608 
  916000    290.88821    4057.4464        24389    27.120588 -0.0090747902  -0.01136366 0.0094441644 
  917000    297.71296    3579.7463        24389    27.363055 -0.0029864874 0.0008989455  -0.01271809 
  918000    295.19966    4839.1285        24389    28.062237 -0.0023556134 0.0027117594 0.0044482194 
  919000    288.02829    3581.6847        24389    28.867718 -0.003715541 -0.0086261168 -0.018009716 
  920000    297.82012    1297.4144        24389    29.486183 -0.022048069 0.0034295963 -0.0045415416 
  921000    297.05997    5013.7315        24389    29.736147 0.0044260544 -0.0037806842 -0.0013541393 
  922000    292.45202    5682.7645        24389    29.366252    0.0130233 -0.0055930999 -0.0061389245 
  923000    297.61989    3644.0044        24389    28.756958 0.0029776354 0.0091106397 -0.0082181321 
  924000    291.87474    2908.4456        24389    28.477577 -0.016588237 0.0076195779  0.015053348 
  925000    287.68978     4838.514        24389     28.25341 0.0021270644 0.00052934192 -0.010214395 
  926000    291.52128     3454.807        24389    28.389421 -0.001081014 0.0026432097 -0.009444813 
  927000    297.25465    4316.3779        24389    29.245121 0.0058557166  0.014768611 -0.0013229749 
  928000    293.13262    3098.6503        24389    30.034033 -0.0053270435 0.0084425539 0.0088574225 
  929000    292.04984      2362.26        24389    30.454548 0.0038985262  -0.01802302 0.0036416446 
  930000    292.42342    4068.2799        24389    30.149214 0.00063563204 -0.022539195 -0.0037294335 
  931000    286.60196     6602.292        24389    29.544929 0.0061741564 -0.00045990619 0.00019398224 
  932000    290.08927    3752.4797        24389    28.509365 0.0017143905 -0.010366005  0.016200801 
  933000     295.0676    739.29656        24389     27.09003 0.0043321686 -0.004883737 0.0041484636 
  934000    291.78255    3994.7745        24389    25.339393 -0.003486813 -0.0025917538 -0.0089869253 
  935000    294.08133     4615.973        24389    24.375056 -0.00091596952 -0.0098492741 0.0021688425 
  936000    287.68858    4245.3978        24389    24.350435 0.0056397019 -0.006212065 -0.0015541123 
  937000    292.79875    4377.9227        24389    25.238741 -0.0019643827 -0.010103977 -0.0051693339 
  938000     292.1009    5531.7804        24389    26.415744  0.014563974 -0.010079006 -0.0042816819 
  939000    295.98142    2485.0598        24389    27.907382 0.0025543212  0.013817048  0.010319008 
  940000    283.83306     2568.441        24389    29.093613 -0.0087238151 -0.0085252117 0.0089966018 
  941000    294.61326    3276.6205        24389    30.033449 -0.011374923  0.014953101 0.0033843755 
  942000    297.32492    6182.2063        24389    30.506914 0.0016424294 -0.00093337934  -0.01117575 
  943000     292.7219    4191.1324        24389    30.198983 -0.006434141  0.010761172 -0.0085111398 
  944000     293.0251    2019.6515        24389    29.346385 -0.0084731052 0.00026111553 -0.012598261 
  945000     289.4358    1898.1476        24389    28.834658 -0.0077854667 0.0062595654 0.00078786271 
  946000     300.6035    2721.9692        24389     29.06272  0.009920445 0.00076590101  0.010314639 
  947000     300.2244    4660.9514        24389     29.39435 0.0083694193 -0.005621073 0.0061553275 
  948000     283.9527    3941.7737        24389    29.830106 -0.015329977 -0.0071805564 0.0071617868 
  949000    297.40882    2215.0549        24389    29.699797 0.0071956173 -0.0028623047 -0.0048960253 
  950000      291.812    3630.4176        24389    29.166261  0.014072501 -0.0035179908 -0.011243915 
  951000      293.741     5454.045        24389    27.911764 0.0076325725 -0.0033199558 0.0059503501 
  952000    305.45836    4764.9818        24389     26.99747 0.0014174545  -0.01365616 -0.0068586673 
  953000    290.53582    2890.9824        24389    26.953916 -0.00094054387 -0.0058197789 -0.0023428449 
  954000     284.7056    4554.0133        24389    27.402531 -0.00098652812 -0.0069659355 -0.0073518586 
  955000    291.74254    4530.2707        24389    27.992329 -0.0036496834 0.0025607246 -0.0038734995 
  956000     296.1208    2895.6556        24389    28.862705 -0.0071109853 -0.0045542368 -0.002837815 
  957000    291.28208    4805.6012        24389    29.617015 -9.4311573e-05 -0.0064955691 0.0014709873 
  958000    297.07904    5303.3339        24389    29.774394 0.0095218954 0.0097201097 -0.00033544156 
  959000    293.96564    3485.4297        24389    29.521289 -0.014809262 -0.0090745896 0.00037803815 
  960000    288.53979    4164.5687        24389     29.29297 -0.0074269809 0.0041204489 -0.006296596 
  961000    283.31096    5094.8972        24389    29.869542 -0.0060039476 0.0041174509  0.015457701 
  962000    300.27603    4592.2508        24389    30.347998 -0.0035566088  0.016164618  0.004920075 
  963000    293.05953    1684.8629        24389    30.433127 0.0048002501  0.010110675  0.015969005 
  964000    288.08752    1795.6223        24389    30.282615 -0.005396628 -0.0026865931  0.013348583 
  965000    294.29681    7254.3036        24389     29.72443 0.0032359775 -0.0038426671 -0.006773481 
  966000    297.29642     7472.625        24389    29.210166  0.007082973 0.0040283204 -0.013562166 
  967000    290.64812    798.19048        24389    29.269382 -0.0067740738 -0.011962381 -0.013892214 
  968000    289.63417     2399.887        24389    29.137639 0.0041911254 -0.010644925 -0.0048049328 
  969000    285.74097    2569.3837        24389    29.615996 0.0054884336 -0.0077550843 0.0037161637 
  970000    293.96021    5009.2257        24389    30.292801 -0.0080146702 0.0064266686 -0.00075135441 
  971000    290.95032    6705.1997        24389    30.906234 -0.0057546273 -0.0087843232 -0.0051762535 
  972000    285.79803      2284.27        24389    31.474774 -0.0095208052 -0.0068201758 0.0024321747 
  973000    291.60288    846.01373        24389    31.348553 0.0037769826 -0.002782322 -0.0068036406 
  974000    296.26102    3731.6278        24389    30.722556 4.2639278e-06 -0.00085896499 -0.0014122082 
  975000    287.21718    5477.1826        24389    30.427833 -0.0090044206  0.017177293 -0.013512805 
  976000    299.93554    7076.2806        24389    30.573326 -0.0025746843 0.00091479172  0.022766105 
  977000    292.11637    5263.4719        24389    30.629314 -0.0073943691 0.0050151437 -0.00035537205 
  978000    290.13245    1254.6254        24389    30.965953 -0.013033964 -0.0067188464 0.0099121318 
  979000    290.40593    5444.0656        24389    30.698066 -0.0014953835  0.010020516 -0.0039044639 
  980000    298.77107    6390.2777        24389    29.923388 0.0036339969 0.00044441832 -0.00076588303 
  981000    294.09333     3491.304        24389     29.09806 -0.0029607419 -0.011237741 -0.0075044768 
  982000    292.54197    834.12944        24389    28.893471 -0.0018858569 0.0016481266 -0.0011838309 
  983000    286.43752    3517.8315        24389    29.035047 -0.0060077765 0.0050197067 -0.0012286087 
  984000    287.67987    4914.9088        24389    29.423675 -0.0013766329 -0.0056921579 0.0012747609 
  985000    302.69167    3737.0283        24389    29.330939 0.0037731173  0.017283027 -0.00068893222 
  986000    288.84882    5950.3728        24389    28.650245 -0.013880195 0.0020670737 -0.0027725542 
  987000    290.06151    3966.9887        24389    27.290756 0.0099881601 0.0040176797 -0.0042442133 
  988000    295.67482    3024.8307        24389    25.927702 -0.0019095415 -0.0031176648 0.0030799801 
  989000    292.23432    3678.5224        24389    25.036432 0.0054141786 0.0081329612 0.0031376042 
  990000    292.00913    3350.0434        24389    24.782579  0.021391228   0.00603157 0.0073667161 
  991000    291.32815    4311.1873        24389    25.128202 0.0084027443  0.002054595 0.0044539056 
  992000    291.71164    4286.0854        24389    25.849947  0.008577734 -0.0077907773  0.012492026 
  993000    292.15686    2873.6526        24389    26.708517 0.0057276863 -0.0073135443 0.0021194068 
  994000    296.01974    1018.5847        24389    27.529463 -0.0033623212 -0.012673477   0.00697861 
  995000    291.84362    5056.3392        24389    28.199697 -0.0091304572 0.0027464957 0.0079191484 
  996000    297.07862    7008.4411        24389    28.478181   0.00191186 -0.0060285786 -0.0027615685 
  997000    302.77669    2742.2089        24389    28.409571 0.0097194595 -0.0030159175 -0.0041300785 
  998000    290.04579    577.81269        24389    28.435627 0.0060251609 0.0049440365 -0.0035683973 
  999000    289.01718    2809.2459        24389    28.512003 0.0096075981 0.00094898194 -0.0034164633 
 1000000    297.41148    6540.3306        24389    28.389821 0.0066442319 -0.016384462 -0.0046058695 
Loop time of 21170.4 on 16 procs for 1000000 steps with 1920 atoms

Pair  time (%) = 18783.4 (88.7246)
Bond  time (%) = 0.443194 (0.00209346)
Neigh time (%) = 41.3647 (0.195389)
Comm  time (%) = 1911.96 (9.03127)
Outpt time (%) = 2.56756 (0.012128)
Other time (%) = 430.715 (2.03451)

Nlocal:    120 ave 125 max 114 min
Histogram: 1 0 3 1 3 2 1 0 3 2
Nghost:    4885.69 ave 4917 max 4863 min
Histogram: 2 3 1 3 1 2 0 1 2 1
Neighs:    51741.5 ave 54242 max 48889 min
Histogram: 1 0 3 1 3 2 1 3 0 2
FullNghs: 103483 ave 107961 max 98057 min
Histogram: 1 0 2 2 3 2 1 1 2 2

Total # of neighbors = 1655728
Ave neighs/atom = 862.358
Ave special neighs/atom = 0
Neighbor list builds = 4894
Dangerous builds = 0
#	run			10000
	unfix			1
	uncompute		myKE
	uncompute		myPE
	uncompute		myStress
	uncompute		flux
	uncompute		myDis
	unfix			JJ

	next seed
	next iseed
jump lmp.in.gk loop_seed
variable iseed loop 10
variable seed index 11111 22222 33333 44444 55555 66666 77777 88888 99999 11110
clear
###########################################################################
#x0
###########################################################################
units 			metal
atom_style		full
read_data		fort.26
  0 = max bonds/atom
  0 = max angles/atom
  0 = max dihedrals/atom
  triclinic box = (0 0 0) to (29 29 29) with tilt (0 0 0)
  2 by 2 by 4 processor grid
  1920 atoms
  0 bonds
  0 angles
  0 dihedrals
  0 = max # of 1-2 neighbors
  0 = max # of 1-3 neighbors
  0 = max # of 1-4 neighbors
  1 = max # of special neighbors
group         		C type = 1
60 atoms in group C
###########################################################################
#OLPS
###########################################################################

################################################################################
#### Pair potentials
################################################################################
pair_style hybrid/overlay tersoff lj/cut 12.0
pair_coeff * * tersoff C.temp.tersoff 1 2 3 4 5 6 7 8 9 10 11 12 13 14 15 16 17 18 19 20 21 22 23 24 25 26 27 28 29 30 31 32
pair_coeff 1 2 lj/cut 0.00070000000 3.5500000000
pair_coeff 1 3 lj/cut 0.00070000000 3.5500000000
pair_coeff 1 4 lj/cut 0.00070000000 3.5500000000
pair_coeff 1 5 lj/cut 0.00070000000 3.5500000000
pair_coeff 1 6 lj/cut 0.00070000000 3.5500000000
pair_coeff 1 7 lj/cut 0.00070000000 3.5500000000
pair_coeff 1 8 lj/cut 0.00070000000 3.5500000000
pair_coeff 1 9 lj/cut 0.00070000000 3.5500000000
pair_coeff 1 10 lj/cut 0.00070000000 3.5500000000
pair_coeff 1 11 lj/cut 0.00070000000 3.5500000000
pair_coeff 1 12 lj/cut 0.00070000000 3.5500000000
pair_coeff 1 13 lj/cut 0.00070000000 3.5500000000
pair_coeff 1 14 lj/cut 0.00070000000 3.5500000000
pair_coeff 1 15 lj/cut 0.00070000000 3.5500000000
pair_coeff 1 16 lj/cut 0.00070000000 3.5500000000
pair_coeff 1 17 lj/cut 0.00070000000 3.5500000000
pair_coeff 1 18 lj/cut 0.00070000000 3.5500000000
pair_coeff 1 19 lj/cut 0.00070000000 3.5500000000
pair_coeff 1 20 lj/cut 0.00070000000 3.5500000000
pair_coeff 1 21 lj/cut 0.00070000000 3.5500000000
pair_coeff 1 22 lj/cut 0.00070000000 3.5500000000
pair_coeff 1 23 lj/cut 0.00070000000 3.5500000000
pair_coeff 1 24 lj/cut 0.00070000000 3.5500000000
pair_coeff 1 25 lj/cut 0.00070000000 3.5500000000
pair_coeff 1 26 lj/cut 0.00070000000 3.5500000000
pair_coeff 1 27 lj/cut 0.00070000000 3.5500000000
pair_coeff 1 28 lj/cut 0.00070000000 3.5500000000
pair_coeff 1 29 lj/cut 0.00070000000 3.5500000000
pair_coeff 1 30 lj/cut 0.00070000000 3.5500000000
pair_coeff 1 31 lj/cut 0.00070000000 3.5500000000
pair_coeff 1 32 lj/cut 0.00070000000 3.5500000000

pair_coeff 2 3 lj/cut 0.00070000000 3.5500000000
pair_coeff 2 4 lj/cut 0.00070000000 3.5500000000
pair_coeff 2 5 lj/cut 0.00070000000 3.5500000000
pair_coeff 2 6 lj/cut 0.00070000000 3.5500000000
pair_coeff 2 7 lj/cut 0.00070000000 3.5500000000
pair_coeff 2 8 lj/cut 0.00070000000 3.5500000000
pair_coeff 2 9 lj/cut 0.00070000000 3.5500000000
pair_coeff 2 10 lj/cut 0.00070000000 3.5500000000
pair_coeff 2 11 lj/cut 0.00070000000 3.5500000000
pair_coeff 2 12 lj/cut 0.00070000000 3.5500000000
pair_coeff 2 13 lj/cut 0.00070000000 3.5500000000
pair_coeff 2 14 lj/cut 0.00070000000 3.5500000000
pair_coeff 2 15 lj/cut 0.00070000000 3.5500000000
pair_coeff 2 16 lj/cut 0.00070000000 3.5500000000
pair_coeff 2 17 lj/cut 0.00070000000 3.5500000000
pair_coeff 2 18 lj/cut 0.00070000000 3.5500000000
pair_coeff 2 19 lj/cut 0.00070000000 3.5500000000
pair_coeff 2 20 lj/cut 0.00070000000 3.5500000000
pair_coeff 2 21 lj/cut 0.00070000000 3.5500000000
pair_coeff 2 22 lj/cut 0.00070000000 3.5500000000
pair_coeff 2 23 lj/cut 0.00070000000 3.5500000000
pair_coeff 2 24 lj/cut 0.00070000000 3.5500000000
pair_coeff 2 25 lj/cut 0.00070000000 3.5500000000
pair_coeff 2 26 lj/cut 0.00070000000 3.5500000000
pair_coeff 2 27 lj/cut 0.00070000000 3.5500000000
pair_coeff 2 28 lj/cut 0.00070000000 3.5500000000
pair_coeff 2 29 lj/cut 0.00070000000 3.5500000000
pair_coeff 2 30 lj/cut 0.00070000000 3.5500000000
pair_coeff 2 31 lj/cut 0.00070000000 3.5500000000
pair_coeff 2 32 lj/cut 0.00070000000 3.5500000000

pair_coeff 3 4 lj/cut 0.00070000000 3.5500000000
pair_coeff 3 5 lj/cut 0.00070000000 3.5500000000
pair_coeff 3 6 lj/cut 0.00070000000 3.5500000000
pair_coeff 3 7 lj/cut 0.00070000000 3.5500000000
pair_coeff 3 8 lj/cut 0.00070000000 3.5500000000
pair_coeff 3 9 lj/cut 0.00070000000 3.5500000000
pair_coeff 3 10 lj/cut 0.00070000000 3.5500000000
pair_coeff 3 11 lj/cut 0.00070000000 3.5500000000
pair_coeff 3 12 lj/cut 0.00070000000 3.5500000000
pair_coeff 3 13 lj/cut 0.00070000000 3.5500000000
pair_coeff 3 14 lj/cut 0.00070000000 3.5500000000
pair_coeff 3 15 lj/cut 0.00070000000 3.5500000000
pair_coeff 3 16 lj/cut 0.00070000000 3.5500000000
pair_coeff 3 17 lj/cut 0.00070000000 3.5500000000
pair_coeff 3 18 lj/cut 0.00070000000 3.5500000000
pair_coeff 3 19 lj/cut 0.00070000000 3.5500000000
pair_coeff 3 20 lj/cut 0.00070000000 3.5500000000
pair_coeff 3 21 lj/cut 0.00070000000 3.5500000000
pair_coeff 3 22 lj/cut 0.00070000000 3.5500000000
pair_coeff 3 23 lj/cut 0.00070000000 3.5500000000
pair_coeff 3 24 lj/cut 0.00070000000 3.5500000000
pair_coeff 3 25 lj/cut 0.00070000000 3.5500000000
pair_coeff 3 26 lj/cut 0.00070000000 3.5500000000
pair_coeff 3 27 lj/cut 0.00070000000 3.5500000000
pair_coeff 3 28 lj/cut 0.00070000000 3.5500000000
pair_coeff 3 29 lj/cut 0.00070000000 3.5500000000
pair_coeff 3 30 lj/cut 0.00070000000 3.5500000000
pair_coeff 3 31 lj/cut 0.00070000000 3.5500000000
pair_coeff 3 32 lj/cut 0.00070000000 3.5500000000

pair_coeff 4 5 lj/cut 0.00070000000 3.5500000000
pair_coeff 4 6 lj/cut 0.00070000000 3.5500000000
pair_coeff 4 7 lj/cut 0.00070000000 3.5500000000
pair_coeff 4 8 lj/cut 0.00070000000 3.5500000000
pair_coeff 4 9 lj/cut 0.00070000000 3.5500000000
pair_coeff 4 10 lj/cut 0.00070000000 3.5500000000
pair_coeff 4 11 lj/cut 0.00070000000 3.5500000000
pair_coeff 4 12 lj/cut 0.00070000000 3.5500000000
pair_coeff 4 13 lj/cut 0.00070000000 3.5500000000
pair_coeff 4 14 lj/cut 0.00070000000 3.5500000000
pair_coeff 4 15 lj/cut 0.00070000000 3.5500000000
pair_coeff 4 16 lj/cut 0.00070000000 3.5500000000
pair_coeff 4 17 lj/cut 0.00070000000 3.5500000000
pair_coeff 4 18 lj/cut 0.00070000000 3.5500000000
pair_coeff 4 19 lj/cut 0.00070000000 3.5500000000
pair_coeff 4 20 lj/cut 0.00070000000 3.5500000000
pair_coeff 4 21 lj/cut 0.00070000000 3.5500000000
pair_coeff 4 22 lj/cut 0.00070000000 3.5500000000
pair_coeff 4 23 lj/cut 0.00070000000 3.5500000000
pair_coeff 4 24 lj/cut 0.00070000000 3.5500000000
pair_coeff 4 25 lj/cut 0.00070000000 3.5500000000
pair_coeff 4 26 lj/cut 0.00070000000 3.5500000000
pair_coeff 4 27 lj/cut 0.00070000000 3.5500000000
pair_coeff 4 28 lj/cut 0.00070000000 3.5500000000
pair_coeff 4 29 lj/cut 0.00070000000 3.5500000000
pair_coeff 4 30 lj/cut 0.00070000000 3.5500000000
pair_coeff 4 31 lj/cut 0.00070000000 3.5500000000
pair_coeff 4 32 lj/cut 0.00070000000 3.5500000000

pair_coeff 5 6 lj/cut 0.00070000000 3.5500000000
pair_coeff 5 7 lj/cut 0.00070000000 3.5500000000
pair_coeff 5 8 lj/cut 0.00070000000 3.5500000000
pair_coeff 5 9 lj/cut 0.00070000000 3.5500000000
pair_coeff 5 10 lj/cut 0.00070000000 3.5500000000
pair_coeff 5 11 lj/cut 0.00070000000 3.5500000000
pair_coeff 5 12 lj/cut 0.00070000000 3.5500000000
pair_coeff 5 13 lj/cut 0.00070000000 3.5500000000
pair_coeff 5 14 lj/cut 0.00070000000 3.5500000000
pair_coeff 5 15 lj/cut 0.00070000000 3.5500000000
pair_coeff 5 16 lj/cut 0.00070000000 3.5500000000
pair_coeff 5 17 lj/cut 0.00070000000 3.5500000000
pair_coeff 5 18 lj/cut 0.00070000000 3.5500000000
pair_coeff 5 19 lj/cut 0.00070000000 3.5500000000
pair_coeff 5 20 lj/cut 0.00070000000 3.5500000000
pair_coeff 5 21 lj/cut 0.00070000000 3.5500000000
pair_coeff 5 22 lj/cut 0.00070000000 3.5500000000
pair_coeff 5 23 lj/cut 0.00070000000 3.5500000000
pair_coeff 5 24 lj/cut 0.00070000000 3.5500000000
pair_coeff 5 25 lj/cut 0.00070000000 3.5500000000
pair_coeff 5 26 lj/cut 0.00070000000 3.5500000000
pair_coeff 5 27 lj/cut 0.00070000000 3.5500000000
pair_coeff 5 28 lj/cut 0.00070000000 3.5500000000
pair_coeff 5 29 lj/cut 0.00070000000 3.5500000000
pair_coeff 5 30 lj/cut 0.00070000000 3.5500000000
pair_coeff 5 31 lj/cut 0.00070000000 3.5500000000
pair_coeff 5 32 lj/cut 0.00070000000 3.5500000000

pair_coeff 6 7 lj/cut 0.00070000000 3.5500000000
pair_coeff 6 8 lj/cut 0.00070000000 3.5500000000
pair_coeff 6 9 lj/cut 0.00070000000 3.5500000000
pair_coeff 6 10 lj/cut 0.00070000000 3.5500000000
pair_coeff 6 11 lj/cut 0.00070000000 3.5500000000
pair_coeff 6 12 lj/cut 0.00070000000 3.5500000000
pair_coeff 6 13 lj/cut 0.00070000000 3.5500000000
pair_coeff 6 14 lj/cut 0.00070000000 3.5500000000
pair_coeff 6 15 lj/cut 0.00070000000 3.5500000000
pair_coeff 6 16 lj/cut 0.00070000000 3.5500000000
pair_coeff 6 17 lj/cut 0.00070000000 3.5500000000
pair_coeff 6 18 lj/cut 0.00070000000 3.5500000000
pair_coeff 6 19 lj/cut 0.00070000000 3.5500000000
pair_coeff 6 20 lj/cut 0.00070000000 3.5500000000
pair_coeff 6 21 lj/cut 0.00070000000 3.5500000000
pair_coeff 6 22 lj/cut 0.00070000000 3.5500000000
pair_coeff 6 23 lj/cut 0.00070000000 3.5500000000
pair_coeff 6 24 lj/cut 0.00070000000 3.5500000000
pair_coeff 6 25 lj/cut 0.00070000000 3.5500000000
pair_coeff 6 26 lj/cut 0.00070000000 3.5500000000
pair_coeff 6 27 lj/cut 0.00070000000 3.5500000000
pair_coeff 6 28 lj/cut 0.00070000000 3.5500000000
pair_coeff 6 29 lj/cut 0.00070000000 3.5500000000
pair_coeff 6 30 lj/cut 0.00070000000 3.5500000000
pair_coeff 6 31 lj/cut 0.00070000000 3.5500000000
pair_coeff 6 32 lj/cut 0.00070000000 3.5500000000

pair_coeff 7 8 lj/cut 0.00070000000 3.5500000000
pair_coeff 7 9 lj/cut 0.00070000000 3.5500000000
pair_coeff 7 10 lj/cut 0.00070000000 3.5500000000
pair_coeff 7 11 lj/cut 0.00070000000 3.5500000000
pair_coeff 7 12 lj/cut 0.00070000000 3.5500000000
pair_coeff 7 13 lj/cut 0.00070000000 3.5500000000
pair_coeff 7 14 lj/cut 0.00070000000 3.5500000000
pair_coeff 7 15 lj/cut 0.00070000000 3.5500000000
pair_coeff 7 16 lj/cut 0.00070000000 3.5500000000
pair_coeff 7 17 lj/cut 0.00070000000 3.5500000000
pair_coeff 7 18 lj/cut 0.00070000000 3.5500000000
pair_coeff 7 19 lj/cut 0.00070000000 3.5500000000
pair_coeff 7 20 lj/cut 0.00070000000 3.5500000000
pair_coeff 7 21 lj/cut 0.00070000000 3.5500000000
pair_coeff 7 22 lj/cut 0.00070000000 3.5500000000
pair_coeff 7 23 lj/cut 0.00070000000 3.5500000000
pair_coeff 7 24 lj/cut 0.00070000000 3.5500000000
pair_coeff 7 25 lj/cut 0.00070000000 3.5500000000
pair_coeff 7 26 lj/cut 0.00070000000 3.5500000000
pair_coeff 7 27 lj/cut 0.00070000000 3.5500000000
pair_coeff 7 28 lj/cut 0.00070000000 3.5500000000
pair_coeff 7 29 lj/cut 0.00070000000 3.5500000000
pair_coeff 7 30 lj/cut 0.00070000000 3.5500000000
pair_coeff 7 31 lj/cut 0.00070000000 3.5500000000
pair_coeff 7 32 lj/cut 0.00070000000 3.5500000000

pair_coeff 8 9 lj/cut 0.00070000000 3.5500000000
pair_coeff 8 10 lj/cut 0.00070000000 3.5500000000
pair_coeff 8 11 lj/cut 0.00070000000 3.5500000000
pair_coeff 8 12 lj/cut 0.00070000000 3.5500000000
pair_coeff 8 13 lj/cut 0.00070000000 3.5500000000
pair_coeff 8 14 lj/cut 0.00070000000 3.5500000000
pair_coeff 8 15 lj/cut 0.00070000000 3.5500000000
pair_coeff 8 16 lj/cut 0.00070000000 3.5500000000
pair_coeff 8 17 lj/cut 0.00070000000 3.5500000000
pair_coeff 8 18 lj/cut 0.00070000000 3.5500000000
pair_coeff 8 19 lj/cut 0.00070000000 3.5500000000
pair_coeff 8 20 lj/cut 0.00070000000 3.5500000000
pair_coeff 8 21 lj/cut 0.00070000000 3.5500000000
pair_coeff 8 22 lj/cut 0.00070000000 3.5500000000
pair_coeff 8 23 lj/cut 0.00070000000 3.5500000000
pair_coeff 8 24 lj/cut 0.00070000000 3.5500000000
pair_coeff 8 25 lj/cut 0.00070000000 3.5500000000
pair_coeff 8 26 lj/cut 0.00070000000 3.5500000000
pair_coeff 8 27 lj/cut 0.00070000000 3.5500000000
pair_coeff 8 28 lj/cut 0.00070000000 3.5500000000
pair_coeff 8 29 lj/cut 0.00070000000 3.5500000000
pair_coeff 8 30 lj/cut 0.00070000000 3.5500000000
pair_coeff 8 31 lj/cut 0.00070000000 3.5500000000
pair_coeff 8 32 lj/cut 0.00070000000 3.5500000000

pair_coeff 9 10 lj/cut 0.00070000000 3.5500000000
pair_coeff 9 11 lj/cut 0.00070000000 3.5500000000
pair_coeff 9 12 lj/cut 0.00070000000 3.5500000000
pair_coeff 9 13 lj/cut 0.00070000000 3.5500000000
pair_coeff 9 14 lj/cut 0.00070000000 3.5500000000
pair_coeff 9 15 lj/cut 0.00070000000 3.5500000000
pair_coeff 9 16 lj/cut 0.00070000000 3.5500000000
pair_coeff 9 17 lj/cut 0.00070000000 3.5500000000
pair_coeff 9 18 lj/cut 0.00070000000 3.5500000000
pair_coeff 9 19 lj/cut 0.00070000000 3.5500000000
pair_coeff 9 20 lj/cut 0.00070000000 3.5500000000
pair_coeff 9 21 lj/cut 0.00070000000 3.5500000000
pair_coeff 9 22 lj/cut 0.00070000000 3.5500000000
pair_coeff 9 23 lj/cut 0.00070000000 3.5500000000
pair_coeff 9 24 lj/cut 0.00070000000 3.5500000000
pair_coeff 9 25 lj/cut 0.00070000000 3.5500000000
pair_coeff 9 26 lj/cut 0.00070000000 3.5500000000
pair_coeff 9 27 lj/cut 0.00070000000 3.5500000000
pair_coeff 9 28 lj/cut 0.00070000000 3.5500000000
pair_coeff 9 29 lj/cut 0.00070000000 3.5500000000
pair_coeff 9 30 lj/cut 0.00070000000 3.5500000000
pair_coeff 9 31 lj/cut 0.00070000000 3.5500000000
pair_coeff 9 32 lj/cut 0.00070000000 3.5500000000

pair_coeff 10 11 lj/cut 0.00070000000 3.5500000000
pair_coeff 10 12 lj/cut 0.00070000000 3.5500000000
pair_coeff 10 13 lj/cut 0.00070000000 3.5500000000
pair_coeff 10 14 lj/cut 0.00070000000 3.5500000000
pair_coeff 10 15 lj/cut 0.00070000000 3.5500000000
pair_coeff 10 16 lj/cut 0.00070000000 3.5500000000
pair_coeff 10 17 lj/cut 0.00070000000 3.5500000000
pair_coeff 10 18 lj/cut 0.00070000000 3.5500000000
pair_coeff 10 19 lj/cut 0.00070000000 3.5500000000
pair_coeff 10 20 lj/cut 0.00070000000 3.5500000000
pair_coeff 10 21 lj/cut 0.00070000000 3.5500000000
pair_coeff 10 22 lj/cut 0.00070000000 3.5500000000
pair_coeff 10 23 lj/cut 0.00070000000 3.5500000000
pair_coeff 10 24 lj/cut 0.00070000000 3.5500000000
pair_coeff 10 25 lj/cut 0.00070000000 3.5500000000
pair_coeff 10 26 lj/cut 0.00070000000 3.5500000000
pair_coeff 10 27 lj/cut 0.00070000000 3.5500000000
pair_coeff 10 28 lj/cut 0.00070000000 3.5500000000
pair_coeff 10 29 lj/cut 0.00070000000 3.5500000000
pair_coeff 10 30 lj/cut 0.00070000000 3.5500000000
pair_coeff 10 31 lj/cut 0.00070000000 3.5500000000
pair_coeff 10 32 lj/cut 0.00070000000 3.5500000000

pair_coeff 11 12 lj/cut 0.00070000000 3.5500000000
pair_coeff 11 13 lj/cut 0.00070000000 3.5500000000
pair_coeff 11 14 lj/cut 0.00070000000 3.5500000000
pair_coeff 11 15 lj/cut 0.00070000000 3.5500000000
pair_coeff 11 16 lj/cut 0.00070000000 3.5500000000
pair_coeff 11 17 lj/cut 0.00070000000 3.5500000000
pair_coeff 11 18 lj/cut 0.00070000000 3.5500000000
pair_coeff 11 19 lj/cut 0.00070000000 3.5500000000
pair_coeff 11 20 lj/cut 0.00070000000 3.5500000000
pair_coeff 11 21 lj/cut 0.00070000000 3.5500000000
pair_coeff 11 22 lj/cut 0.00070000000 3.5500000000
pair_coeff 11 23 lj/cut 0.00070000000 3.5500000000
pair_coeff 11 24 lj/cut 0.00070000000 3.5500000000
pair_coeff 11 25 lj/cut 0.00070000000 3.5500000000
pair_coeff 11 26 lj/cut 0.00070000000 3.5500000000
pair_coeff 11 27 lj/cut 0.00070000000 3.5500000000
pair_coeff 11 28 lj/cut 0.00070000000 3.5500000000
pair_coeff 11 29 lj/cut 0.00070000000 3.5500000000
pair_coeff 11 30 lj/cut 0.00070000000 3.5500000000
pair_coeff 11 31 lj/cut 0.00070000000 3.5500000000
pair_coeff 11 32 lj/cut 0.00070000000 3.5500000000

pair_coeff 12 13 lj/cut 0.00070000000 3.5500000000
pair_coeff 12 14 lj/cut 0.00070000000 3.5500000000
pair_coeff 12 15 lj/cut 0.00070000000 3.5500000000
pair_coeff 12 16 lj/cut 0.00070000000 3.5500000000
pair_coeff 12 17 lj/cut 0.00070000000 3.5500000000
pair_coeff 12 18 lj/cut 0.00070000000 3.5500000000
pair_coeff 12 19 lj/cut 0.00070000000 3.5500000000
pair_coeff 12 20 lj/cut 0.00070000000 3.5500000000
pair_coeff 12 21 lj/cut 0.00070000000 3.5500000000
pair_coeff 12 22 lj/cut 0.00070000000 3.5500000000
pair_coeff 12 23 lj/cut 0.00070000000 3.5500000000
pair_coeff 12 24 lj/cut 0.00070000000 3.5500000000
pair_coeff 12 25 lj/cut 0.00070000000 3.5500000000
pair_coeff 12 26 lj/cut 0.00070000000 3.5500000000
pair_coeff 12 27 lj/cut 0.00070000000 3.5500000000
pair_coeff 12 28 lj/cut 0.00070000000 3.5500000000
pair_coeff 12 29 lj/cut 0.00070000000 3.5500000000
pair_coeff 12 30 lj/cut 0.00070000000 3.5500000000
pair_coeff 12 31 lj/cut 0.00070000000 3.5500000000
pair_coeff 12 32 lj/cut 0.00070000000 3.5500000000

pair_coeff 13 14 lj/cut 0.00070000000 3.5500000000
pair_coeff 13 15 lj/cut 0.00070000000 3.5500000000
pair_coeff 13 16 lj/cut 0.00070000000 3.5500000000
pair_coeff 13 17 lj/cut 0.00070000000 3.5500000000
pair_coeff 13 18 lj/cut 0.00070000000 3.5500000000
pair_coeff 13 19 lj/cut 0.00070000000 3.5500000000
pair_coeff 13 20 lj/cut 0.00070000000 3.5500000000
pair_coeff 13 21 lj/cut 0.00070000000 3.5500000000
pair_coeff 13 22 lj/cut 0.00070000000 3.5500000000
pair_coeff 13 23 lj/cut 0.00070000000 3.5500000000
pair_coeff 13 24 lj/cut 0.00070000000 3.5500000000
pair_coeff 13 25 lj/cut 0.00070000000 3.5500000000
pair_coeff 13 26 lj/cut 0.00070000000 3.5500000000
pair_coeff 13 27 lj/cut 0.00070000000 3.5500000000
pair_coeff 13 28 lj/cut 0.00070000000 3.5500000000
pair_coeff 13 29 lj/cut 0.00070000000 3.5500000000
pair_coeff 13 30 lj/cut 0.00070000000 3.5500000000
pair_coeff 13 31 lj/cut 0.00070000000 3.5500000000
pair_coeff 13 32 lj/cut 0.00070000000 3.5500000000

pair_coeff 14 15 lj/cut 0.00070000000 3.5500000000
pair_coeff 14 16 lj/cut 0.00070000000 3.5500000000
pair_coeff 14 17 lj/cut 0.00070000000 3.5500000000
pair_coeff 14 18 lj/cut 0.00070000000 3.5500000000
pair_coeff 14 19 lj/cut 0.00070000000 3.5500000000
pair_coeff 14 20 lj/cut 0.00070000000 3.5500000000
pair_coeff 14 21 lj/cut 0.00070000000 3.5500000000
pair_coeff 14 22 lj/cut 0.00070000000 3.5500000000
pair_coeff 14 23 lj/cut 0.00070000000 3.5500000000
pair_coeff 14 24 lj/cut 0.00070000000 3.5500000000
pair_coeff 14 25 lj/cut 0.00070000000 3.5500000000
pair_coeff 14 26 lj/cut 0.00070000000 3.5500000000
pair_coeff 14 27 lj/cut 0.00070000000 3.5500000000
pair_coeff 14 28 lj/cut 0.00070000000 3.5500000000
pair_coeff 14 29 lj/cut 0.00070000000 3.5500000000
pair_coeff 14 30 lj/cut 0.00070000000 3.5500000000
pair_coeff 14 31 lj/cut 0.00070000000 3.5500000000
pair_coeff 14 32 lj/cut 0.00070000000 3.5500000000

pair_coeff 15 16 lj/cut 0.00070000000 3.5500000000
pair_coeff 15 17 lj/cut 0.00070000000 3.5500000000
pair_coeff 15 18 lj/cut 0.00070000000 3.5500000000
pair_coeff 15 19 lj/cut 0.00070000000 3.5500000000
pair_coeff 15 20 lj/cut 0.00070000000 3.5500000000
pair_coeff 15 21 lj/cut 0.00070000000 3.5500000000
pair_coeff 15 22 lj/cut 0.00070000000 3.5500000000
pair_coeff 15 23 lj/cut 0.00070000000 3.5500000000
pair_coeff 15 24 lj/cut 0.00070000000 3.5500000000
pair_coeff 15 25 lj/cut 0.00070000000 3.5500000000
pair_coeff 15 26 lj/cut 0.00070000000 3.5500000000
pair_coeff 15 27 lj/cut 0.00070000000 3.5500000000
pair_coeff 15 28 lj/cut 0.00070000000 3.5500000000
pair_coeff 15 29 lj/cut 0.00070000000 3.5500000000
pair_coeff 15 30 lj/cut 0.00070000000 3.5500000000
pair_coeff 15 31 lj/cut 0.00070000000 3.5500000000
pair_coeff 15 32 lj/cut 0.00070000000 3.5500000000

pair_coeff 16 17 lj/cut 0.00070000000 3.5500000000
pair_coeff 16 18 lj/cut 0.00070000000 3.5500000000
pair_coeff 16 19 lj/cut 0.00070000000 3.5500000000
pair_coeff 16 20 lj/cut 0.00070000000 3.5500000000
pair_coeff 16 21 lj/cut 0.00070000000 3.5500000000
pair_coeff 16 22 lj/cut 0.00070000000 3.5500000000
pair_coeff 16 23 lj/cut 0.00070000000 3.5500000000
pair_coeff 16 24 lj/cut 0.00070000000 3.5500000000
pair_coeff 16 25 lj/cut 0.00070000000 3.5500000000
pair_coeff 16 26 lj/cut 0.00070000000 3.5500000000
pair_coeff 16 27 lj/cut 0.00070000000 3.5500000000
pair_coeff 16 28 lj/cut 0.00070000000 3.5500000000
pair_coeff 16 29 lj/cut 0.00070000000 3.5500000000
pair_coeff 16 30 lj/cut 0.00070000000 3.5500000000
pair_coeff 16 31 lj/cut 0.00070000000 3.5500000000
pair_coeff 16 32 lj/cut 0.00070000000 3.5500000000

pair_coeff 17 18 lj/cut 0.00070000000 3.5500000000
pair_coeff 17 19 lj/cut 0.00070000000 3.5500000000
pair_coeff 17 20 lj/cut 0.00070000000 3.5500000000
pair_coeff 17 21 lj/cut 0.00070000000 3.5500000000
pair_coeff 17 22 lj/cut 0.00070000000 3.5500000000
pair_coeff 17 23 lj/cut 0.00070000000 3.5500000000
pair_coeff 17 24 lj/cut 0.00070000000 3.5500000000
pair_coeff 17 25 lj/cut 0.00070000000 3.5500000000
pair_coeff 17 26 lj/cut 0.00070000000 3.5500000000
pair_coeff 17 27 lj/cut 0.00070000000 3.5500000000
pair_coeff 17 28 lj/cut 0.00070000000 3.5500000000
pair_coeff 17 29 lj/cut 0.00070000000 3.5500000000
pair_coeff 17 30 lj/cut 0.00070000000 3.5500000000
pair_coeff 17 31 lj/cut 0.00070000000 3.5500000000
pair_coeff 17 32 lj/cut 0.00070000000 3.5500000000

pair_coeff 18 19 lj/cut 0.00070000000 3.5500000000
pair_coeff 18 20 lj/cut 0.00070000000 3.5500000000
pair_coeff 18 21 lj/cut 0.00070000000 3.5500000000
pair_coeff 18 22 lj/cut 0.00070000000 3.5500000000
pair_coeff 18 23 lj/cut 0.00070000000 3.5500000000
pair_coeff 18 24 lj/cut 0.00070000000 3.5500000000
pair_coeff 18 25 lj/cut 0.00070000000 3.5500000000
pair_coeff 18 26 lj/cut 0.00070000000 3.5500000000
pair_coeff 18 27 lj/cut 0.00070000000 3.5500000000
pair_coeff 18 28 lj/cut 0.00070000000 3.5500000000
pair_coeff 18 29 lj/cut 0.00070000000 3.5500000000
pair_coeff 18 30 lj/cut 0.00070000000 3.5500000000
pair_coeff 18 31 lj/cut 0.00070000000 3.5500000000
pair_coeff 18 32 lj/cut 0.00070000000 3.5500000000

pair_coeff 19 20 lj/cut 0.00070000000 3.5500000000
pair_coeff 19 21 lj/cut 0.00070000000 3.5500000000
pair_coeff 19 22 lj/cut 0.00070000000 3.5500000000
pair_coeff 19 23 lj/cut 0.00070000000 3.5500000000
pair_coeff 19 24 lj/cut 0.00070000000 3.5500000000
pair_coeff 19 25 lj/cut 0.00070000000 3.5500000000
pair_coeff 19 26 lj/cut 0.00070000000 3.5500000000
pair_coeff 19 27 lj/cut 0.00070000000 3.5500000000
pair_coeff 19 28 lj/cut 0.00070000000 3.5500000000
pair_coeff 19 29 lj/cut 0.00070000000 3.5500000000
pair_coeff 19 30 lj/cut 0.00070000000 3.5500000000
pair_coeff 19 31 lj/cut 0.00070000000 3.5500000000
pair_coeff 19 32 lj/cut 0.00070000000 3.5500000000

pair_coeff 20 21 lj/cut 0.00070000000 3.5500000000
pair_coeff 20 22 lj/cut 0.00070000000 3.5500000000
pair_coeff 20 23 lj/cut 0.00070000000 3.5500000000
pair_coeff 20 24 lj/cut 0.00070000000 3.5500000000
pair_coeff 20 25 lj/cut 0.00070000000 3.5500000000
pair_coeff 20 26 lj/cut 0.00070000000 3.5500000000
pair_coeff 20 27 lj/cut 0.00070000000 3.5500000000
pair_coeff 20 28 lj/cut 0.00070000000 3.5500000000
pair_coeff 20 29 lj/cut 0.00070000000 3.5500000000
pair_coeff 20 30 lj/cut 0.00070000000 3.5500000000
pair_coeff 20 31 lj/cut 0.00070000000 3.5500000000
pair_coeff 20 32 lj/cut 0.00070000000 3.5500000000

pair_coeff 21 22 lj/cut 0.00070000000 3.5500000000
pair_coeff 21 23 lj/cut 0.00070000000 3.5500000000
pair_coeff 21 24 lj/cut 0.00070000000 3.5500000000
pair_coeff 21 25 lj/cut 0.00070000000 3.5500000000
pair_coeff 21 26 lj/cut 0.00070000000 3.5500000000
pair_coeff 21 27 lj/cut 0.00070000000 3.5500000000
pair_coeff 21 28 lj/cut 0.00070000000 3.5500000000
pair_coeff 21 29 lj/cut 0.00070000000 3.5500000000
pair_coeff 21 30 lj/cut 0.00070000000 3.5500000000
pair_coeff 21 31 lj/cut 0.00070000000 3.5500000000
pair_coeff 21 32 lj/cut 0.00070000000 3.5500000000

pair_coeff 22 23 lj/cut 0.00070000000 3.5500000000
pair_coeff 22 24 lj/cut 0.00070000000 3.5500000000
pair_coeff 22 25 lj/cut 0.00070000000 3.5500000000
pair_coeff 22 26 lj/cut 0.00070000000 3.5500000000
pair_coeff 22 27 lj/cut 0.00070000000 3.5500000000
pair_coeff 22 28 lj/cut 0.00070000000 3.5500000000
pair_coeff 22 29 lj/cut 0.00070000000 3.5500000000
pair_coeff 22 30 lj/cut 0.00070000000 3.5500000000
pair_coeff 22 31 lj/cut 0.00070000000 3.5500000000
pair_coeff 22 32 lj/cut 0.00070000000 3.5500000000

pair_coeff 23 24 lj/cut 0.00070000000 3.5500000000
pair_coeff 23 25 lj/cut 0.00070000000 3.5500000000
pair_coeff 23 26 lj/cut 0.00070000000 3.5500000000
pair_coeff 23 27 lj/cut 0.00070000000 3.5500000000
pair_coeff 23 28 lj/cut 0.00070000000 3.5500000000
pair_coeff 23 29 lj/cut 0.00070000000 3.5500000000
pair_coeff 23 30 lj/cut 0.00070000000 3.5500000000
pair_coeff 23 31 lj/cut 0.00070000000 3.5500000000
pair_coeff 23 32 lj/cut 0.00070000000 3.5500000000

pair_coeff 24 25 lj/cut 0.00070000000 3.5500000000
pair_coeff 24 26 lj/cut 0.00070000000 3.5500000000
pair_coeff 24 27 lj/cut 0.00070000000 3.5500000000
pair_coeff 24 28 lj/cut 0.00070000000 3.5500000000
pair_coeff 24 29 lj/cut 0.00070000000 3.5500000000
pair_coeff 24 30 lj/cut 0.00070000000 3.5500000000
pair_coeff 24 31 lj/cut 0.00070000000 3.5500000000
pair_coeff 24 32 lj/cut 0.00070000000 3.5500000000

pair_coeff 25 26 lj/cut 0.00070000000 3.5500000000
pair_coeff 25 27 lj/cut 0.00070000000 3.5500000000
pair_coeff 25 28 lj/cut 0.00070000000 3.5500000000
pair_coeff 25 29 lj/cut 0.00070000000 3.5500000000
pair_coeff 25 30 lj/cut 0.00070000000 3.5500000000
pair_coeff 25 31 lj/cut 0.00070000000 3.5500000000
pair_coeff 25 32 lj/cut 0.00070000000 3.5500000000

pair_coeff 26 27 lj/cut 0.00070000000 3.5500000000
pair_coeff 26 28 lj/cut 0.00070000000 3.5500000000
pair_coeff 26 29 lj/cut 0.00070000000 3.5500000000
pair_coeff 26 30 lj/cut 0.00070000000 3.5500000000
pair_coeff 26 31 lj/cut 0.00070000000 3.5500000000
pair_coeff 26 32 lj/cut 0.00070000000 3.5500000000

pair_coeff 27 28 lj/cut 0.00070000000 3.5500000000
pair_coeff 27 29 lj/cut 0.00070000000 3.5500000000
pair_coeff 27 30 lj/cut 0.00070000000 3.5500000000
pair_coeff 27 31 lj/cut 0.00070000000 3.5500000000
pair_coeff 27 32 lj/cut 0.00070000000 3.5500000000

pair_coeff 28 29 lj/cut 0.00070000000 3.5500000000
pair_coeff 28 30 lj/cut 0.00070000000 3.5500000000
pair_coeff 28 31 lj/cut 0.00070000000 3.5500000000
pair_coeff 28 32 lj/cut 0.00070000000 3.5500000000

pair_coeff 29 30 lj/cut 0.00070000000 3.5500000000
pair_coeff 29 31 lj/cut 0.00070000000 3.5500000000
pair_coeff 29 32 lj/cut 0.00070000000 3.5500000000

pair_coeff 30 31 lj/cut 0.00070000000 3.5500000000
pair_coeff 30 32 lj/cut 0.00070000000 3.5500000000

pair_coeff 31 32 lj/cut 0.00070000000 3.5500000000

special_bonds lj 0.0 0.0 0.0 coul 0.0 0.0 0.0

#pair_style tersoff 
#pair_coeff * * C.4.tersoff 1 2 3 4

#pair_style lj/cut 12.0
#pair_coeff 1 1 0.0700000000 3.5500000000
#special_bonds lj 0.0 0.0 0.0 coul 0.0 0.0 0.0
###########################################################################


#--------------------------------------------------------------------------
#variables
#--------------------------------------------------------------------------
variable   	dt 		equal 0.001
#--------------------------------------------------------------------------
#kappa parameters
#--------------------------------------------------------------------------
variable    	p 		equal 100000 	# correlation length
variable    	s 		equal 10  	# sample interval
variable    	d 		equal $p*$s 	# dump interval 
variable    	d 		equal 100000*$s 	variable    	d 		equal 100000*10 	
#--------------------------------------------------------------------------
variable 	T_run 		equal 300
#--------------------------------------------------------------------------

log 	log_heat_${iseed}.lammps
log 	log_heat_2.lammps
