	reset_timestep  	0
	fix 			1 all nve
	compute   		myKE all ke/atom
	compute   		myPE all pe/atom
	compute   		myStress all stress/atom virial
	compute   		flux all heat/flux myKE myPE myStress
	variable  		Jx equal c_flux[1]/vol
	variable  		Jy equal c_flux[2]/vol
	variable  		Jz equal c_flux[3]/vol
	fix       		JJ all ave/correlate $s $p $d c_flux[1] c_flux[2] c_flux[3] type auto file J0Jt_${iseed}.dat ave running
	fix       		JJ all ave/correlate 10 $p $d c_flux[1] c_flux[2] c_flux[3] type auto file J0Jt_${iseed}.dat ave running
	fix       		JJ all ave/correlate 10 100000 $d c_flux[1] c_flux[2] c_flux[3] type auto file J0Jt_${iseed}.dat ave running
	fix       		JJ all ave/correlate 10 100000 1000000 c_flux[1] c_flux[2] c_flux[3] type auto file J0Jt_${iseed}.dat ave running
	fix       		JJ all ave/correlate 10 100000 1000000 c_flux[1] c_flux[2] c_flux[3] type auto file J0Jt_2.dat ave running
	compute 		myDis all msd 
	thermo_style 		custom step temp press vol c_myDis[4] v_Jx v_Jy v_Jz 
	thermo			1000
	timestep		${dt}
	timestep		0.001
	run			1000000
Memory usage per processor = 6.2488 Mbytes
Step Temp Press Volume myDis[4] Jx Jy Jz 
       0    300.19463    4762.2002        24389 1.1250393e-30 0.0046365554  -0.01112981 -0.0041928589 
    1000    298.89399    7562.0959        24389     3.836089 0.0044296334 -0.0098820945  -0.01849468 
    2000    301.82001    4258.5212        24389    10.996806  0.006063165 -0.0051760716 -0.0083139235 
    3000    298.45558    2534.7968        24389     17.65241  0.012426665 -0.0011697314 0.0064140818 
    4000    297.06958    8524.7509        24389    22.229843 0.00024691334 -0.0064591351  0.014888882 
    5000    305.95909    7971.4261        24389    24.818549 0.0014100019 -0.016082694 0.0013337593 
    6000    301.75832    1811.4032        24389     25.39884 0.0059133009   0.01165769 -0.0024354692 
    7000     302.1845    4093.7183        24389    25.263474 -0.010723589 0.0052540918 0.0019110283 
    8000    298.78528    6326.1706        24389    25.977801 -0.010754352 -0.0073455691 0.0077423892 
    9000    300.21507    5803.4296        24389    27.025542  0.015408841 0.0027690257 -0.00083844193 
   10000    295.26417    4826.5835        24389    27.988529 0.0054983733 -1.8741785e-05 0.0017770088 
   11000    300.89212    5120.8521        24389     28.53428 -0.0092490835 0.0036209277 0.0042861312 
   12000    304.40562    5944.5144        24389     27.50788 0.0010391353 -0.0050976777 -0.0053685525 
   13000    296.29808    6293.2175        24389    25.911219 0.0029312258 -3.5890507e-05 -0.0042934871 
   14000    306.24264    5061.8998        24389    25.582437 -0.0089810432 -0.010238694 -0.0084732693 
   15000    295.57783    4822.4114        24389    26.471351  -0.01312551 -0.0097498357 -0.0047629573 
   16000    302.31825    7391.5993        24389    28.059705  0.013873121 -0.0055410386 -0.0094070872 
   17000    299.13732    5573.8692        24389    29.241774 -0.010058312 -0.0057598784  0.010412802 
   18000    297.21869    5449.6513        24389    29.577786 -0.0053335799  0.013796877 0.0044953511 
   19000    301.64588    4779.3504        24389     29.41841 -0.0073211181 0.0010787244 -0.0049096963 
   20000    299.32171    5911.9581        24389    28.847537 0.0010369552 -0.00085127833 0.0014845822 
   21000     305.5573    5084.3278        24389    28.000345 -0.0061353077 0.0058053633 0.0063259859 
   22000    295.78552    3001.1241        24389     27.06153 0.0068226999 0.0015044163 -0.00031583129 
   23000    301.03652    5340.1617        24389    26.507823  0.009110358 0.0022545968 0.0037946084 
   24000     299.2632    7731.8339        24389    25.462857 1.4582128e-05 0.0037155496 0.0072514292 
   25000    290.94696    5821.4749        24389    24.358928 -0.013872602 -0.010654371 0.0063767694 
   26000     299.1528    2999.3227        24389    23.172005 -0.014258229 0.0030573492 0.0046172457 
   27000    295.54724     4670.198        24389    23.047785 -0.0015242165 0.0070989884 0.00095727767 
   28000    297.67293    8140.3633        24389    24.082933 -0.0047867406 -0.0012470044 0.0025056963 
   29000    294.18799    3676.6689        24389    25.139369 -0.00090381174 -0.017207186 -0.0021870957 
   30000    292.67886    5169.1333        24389    26.789689 -0.0024205892 0.0015972741 0.0044845466 
   31000    293.89223    6063.7621        24389    28.764227 0.0020635945 -0.00073346838 -0.0093126892 
   32000    303.91066    5317.1981        24389    29.474128 -0.0019469698 -0.00026092011  0.023429221 
   33000    300.47828    4351.2861        24389    29.925865 -0.00085142793 -0.0046938179  0.013794149 
   34000    300.35756    6556.2912        24389    30.232539  0.010768745 -0.010108323 0.0013993016 
   35000    303.82538    6898.7694        24389     30.18066 0.0030143337 -0.00086783919 0.0076360374 
   36000    299.99983    3796.9027        24389    29.243349 0.00036352983 -0.0063158088 -0.0013937284 
   37000    298.75704    6774.1047        24389    28.604285 -0.0017392669  0.004316462 -0.007221239 
   38000    297.17179    5750.3082        24389    27.896254 -0.0071987791 -0.021516998 -0.0059302831 
   39000    293.83768    4910.1671        24389    27.244016 -0.0016345982 0.00031293185 -0.0066498481 
   40000    299.24338    2596.3652        24389    26.240461 0.0038847968 -0.0053935819 0.0099223898 
   41000    298.99865    4993.8917        24389    25.282414 0.0054554505  0.010270922 0.0027564621 
   42000    293.70912    7385.6984        24389    25.071081 -0.018110862 0.0059064951 -0.0010105249 
   43000     296.8228    4948.5158        24389    25.538385 0.0013002521 -0.0030009107  0.009457333 
   44000    300.45343    4181.2345        24389    26.958389 -0.0038857712 0.00013798998  0.015362569 
   45000     295.4229    7938.4456        24389    28.241577 -0.0062977025  0.012837979  0.012059059 
   46000    295.09774    5928.4205        24389    28.540658 0.00092504831  0.018048712 -0.00087498818 
   47000    297.01467    2696.2298        24389    28.528671 -0.0090009231 -0.0076069011  0.002306444 
   48000    295.28747     6480.708        24389     28.34883 0.0026640215 -0.00037928183 4.052275e-05 
   49000     294.4732    6581.6511        24389    28.781948 -0.0057057386 0.0068657705 0.0021224282 
   50000    299.59419    1477.5194        24389    29.823376  0.006215908 -0.00082471396 -0.0073901693 
   51000    301.96093    5236.9105        24389    30.207003 0.0051761729 -0.0085816376 -0.015866233 
   52000    302.52352    7682.0628        24389    29.611396  0.004757243 0.00038047439 -0.0038749153 
   53000    302.91825    4927.1076        24389    28.824973  0.003113144 0.0063281412 -0.0080437064 
   54000     290.4137    5263.7154        24389    29.135997 -0.011105414 0.0058206872 0.0032662938 
   55000    299.31683    6025.8346        24389    29.800869 0.0037435568 -0.010467499 -0.0048952478 
   56000     304.0547    6994.0079        24389    30.494529  0.011521154  0.012522687  0.013736496 
   57000    293.00695    4506.3763        24389    30.674249 0.0066444963 0.0014662939 0.0098057886 
   58000    296.34505    5727.7996        24389    30.337364 -0.010590808 0.0024986581 -0.0054034905 
   59000    299.69284    5011.6143        24389    29.529339  0.015239214 -0.007522924 0.0095575533 
   60000    299.33743    4307.4588        24389     28.19076 -0.0050519661 0.0097975897 0.0062050287 
   61000    301.28024    6867.1673        24389    27.264493 -0.0037672357  0.009885197 -0.0052693399 
   62000    302.73506    3414.9639        24389     26.76976 0.00072059875   0.01120242  0.010365788 
   63000    296.03434    4599.3223        24389    25.875707 -0.0072428827 0.0092277516 -0.007563821 
   64000    299.32531    6819.9948        24389    25.304375 -0.0037286459    0.0115874 -0.0095006564 
   65000    300.53527    5986.6064        24389    25.243532 -0.015168429 -0.0038815599 -0.024890697 
   66000    300.29078    2737.6089        24389    25.590546 -0.0018651004 0.0017293943 -0.0077259642 
   67000    297.85951    4466.6567        24389    26.010439 -0.0050607269 -0.0057396057 0.00088298005 
   68000    299.55357    5013.5489        24389    25.935708 -0.014916238 -0.005994478 -0.009741015 
   69000    298.54674    4873.2639        24389     25.31613 0.0018113061 -0.0023202278  0.018327301 
   70000    301.68145    4018.0412        24389    25.357183 0.0081420348 -0.00060645331  0.012670422 
   71000    298.92003    4526.1877        24389    26.642461 -0.0017704781 0.0042702965  0.014545742 
   72000    299.64181    5115.6607        24389    28.235548 -0.007140716 -0.0056646653 -0.0072825984 
   73000     297.6133    3963.1757        24389    29.288464  0.004977967 -0.012608614 0.0047678193 
   74000    301.44954    4289.0324        24389    29.334265 0.0014574213 0.0018774822 -0.0069256873 
   75000    304.10351    4227.7501        24389    29.184038  0.002044962 -0.004558465 0.0057841079 
   76000    300.24294    3441.6321        24389    28.375994 -0.002500493 0.0031141508 0.0070390789 
   77000    304.23452    4144.4098        24389    27.506888 0.0023526487 -0.0063001865 0.0040722362 
   78000    289.06095    7232.6846        24389    27.435372  0.010237187 0.0046541519 -0.010073314 
   79000    303.32259    4409.1553        24389    27.675226 0.0021010349  0.011876933 0.0050487138 
   80000    297.81241    5698.2315        24389    27.850966 -0.0047347977 -0.0015230932  0.011727568 
   81000     303.9341    5820.6599        24389    28.426481 -0.0012745874 0.0028141883 -0.0051287126 
   82000    302.64466    4647.0234        24389     29.21939 0.00018577733 0.0090144366 0.0096430525 
   83000     303.8585    4475.4406        24389    30.172363  0.005961319 -0.00070201536 -0.0020189688 
   84000    298.66237    6022.4968        24389    30.587172 0.0031909689 -0.0034488644 -3.8930225e-05 
   85000    302.73859    6441.2733        24389    30.530616  0.001733721 -0.0050028363  0.020050346 
   86000    304.75841    3700.6418        24389    30.085721  -0.01895169 -0.017725394  0.011474156 
   87000    296.87269    4990.4626        24389    30.672049 0.00046860184 0.0014001393 0.0047196321 
   88000    297.71501     5580.615        24389     30.70318 0.00083074122 0.0054200954 -0.0043787147 
   89000    299.19872    6009.4389        24389    30.389713  -0.01265832  0.013025625 0.0073017652 
   90000    306.52308    1584.7811        24389    29.704452  0.010714083 0.0057864342 0.0025856742 
   91000    292.69063    4001.0445        24389    29.408907 -0.0047808147 0.0064687416    0.0110386 
   92000    296.17423     5906.313        24389    29.781579  -0.01541533 -0.0052669339 -0.003987566 
   93000    302.86828     6156.719        24389    30.237626 -0.0011049099 0.0065030165 -0.017893903 
   94000    291.14795    4165.1591        24389    29.707677 -0.0064490606 0.0077482103 0.00036327319 
   95000    297.32734    4682.3382        24389    28.999125 -0.0058152453 -0.019190405 -0.012937816 
   96000    301.02078    4294.8079        24389    29.032302 0.0037654333  0.010031652 0.0019044716 
   97000    304.66567    3572.3105        24389    29.681732 -0.015524271 -0.0074381856 -0.012140696 
   98000    299.54858    6489.7721        24389    30.437915   0.01588407 0.0074810684  0.003038294 
   99000    303.58372    5556.3745        24389     30.15426 -0.00084744692 -0.0090074648 -0.0052703016 
  100000    299.11958     4906.247        24389    28.918932 -0.0020888114  0.012478971 -0.012279214 
  101000    303.31854    3993.9159        24389    27.586732 0.0026497848 -0.012649085 -0.0083660876 
  102000    297.37058    5735.9615        24389    26.955809 0.0064234629 0.0050937033 0.0030347228 
  103000    301.87521    3504.5588        24389    27.457904 -0.0019229728 0.0054876552 -0.0010406484 
  104000    289.88891    4562.8245        24389    28.258302 -0.00098676843 -0.0030963872 -0.0054303052 
  105000    304.88531    6366.8857        24389    29.343819 0.0030417607 0.0088090507 0.0029411272 
  106000    301.64268    5264.7538        24389     29.73018 -0.0046006576 0.0057493638 0.0025851288 
  107000    301.90491    4491.9842        24389    29.569125 -0.0061341961 0.0020393837 0.0013360723 
  108000    304.44471    4657.8603        24389     28.86235  0.014836669 -9.5837179e-05  0.012524615 
  109000    301.08837    5188.1133        24389      27.5932 0.00070632071 0.0039746984 -0.00086504094 
  110000    297.69621    6799.6802        24389    26.364044 0.0093407295 -0.012298667 -0.0046626116 
  111000    302.00318    5047.0997        24389    26.176452 -0.0092479767 -0.003155297 -0.0021106704 
  112000    296.93596    7559.2138        24389    26.659238 -0.014479526 -0.0030344458 -0.0029700828 
  113000    303.76843    3863.8638        24389    27.328016 -0.0036684129 -0.0079739306 -0.0014681346 
  114000    295.33008    6202.4824        24389    27.044594 -0.0039224756   0.01025996 -0.0017837375 
  115000    301.78806    6299.4951        24389    26.805938 -0.006513626 -0.0076516452 -0.0065777372 
  116000    302.02964    3690.2302        24389    27.004198 -0.0051104143 -0.0037590723 -0.0039313603 
  117000    295.15858    4496.4195        24389    28.001651 -0.013839488 0.0038614331 0.0049078726 
  118000    296.91615     5010.201        24389    28.416006 -0.0014230097 -0.0041438382 -0.0038290583 
  119000    303.83737    5318.0937        24389    28.161455 -0.0038918619 -1.2675755e-05 0.00031165723 
  120000    304.40623    5596.2799        24389    28.048431 -0.0037483767 0.0084350756 0.0096573946 
  121000    297.56715    2630.6223        24389    28.374902 -0.0083198164  0.013200493 0.0014924099 
  122000    304.17192    3696.7362        24389     28.89904 -0.0039973545  0.018024836 -0.0010613828 
  123000    291.44464    5726.7673        24389    28.831796 0.0080652452 -0.0015226303  -0.01238271 
  124000    304.76286    7217.8336        24389    27.942596 0.0013497925  0.011535884 0.0026749902 
  125000    299.81959    4972.6118        24389    26.684173 -0.0097555985  0.013684353 -0.0036862776 
  126000    299.32115    3796.0849        24389    26.026683 0.0035162402 -0.0045460232 0.0056184281 
  127000    298.87767    2825.0076        24389    26.366276 -0.0027456258 0.00057910839 0.0010841325 
  128000    298.45032    6765.4327        24389    27.532396 0.0063762197  0.010676714 0.0085896832 
  129000    299.81112    4819.7449        24389    28.083395 0.0053603711 -0.0087207949  0.013629265 
  130000    294.97716     4575.709        24389    28.024064 -0.0035578459  0.010010808 -0.0023849642 
  131000    294.35036    6759.8275        24389    27.687838 -0.0072824309  0.017395929 -0.0059022194 
  132000    299.66203    5643.6697        24389    27.783269 -0.0028733714 0.0008057998 0.0046979809 
  133000    296.59372    4071.1002        24389    27.360631 0.00030550588 -0.011299406 0.0025027882 
  134000    296.40549    3564.6151        24389    27.203307 -0.0051941763 -0.014020161 -0.010941354 
  135000    297.86816    4049.8782        24389    26.341571  0.010141677  0.004990608  0.010657208 
  136000    302.45301    4085.9725        24389    26.256337 -0.013103282 0.0093905004 -0.0012775256 
  137000    299.02974    6409.6312        24389    26.724957 -0.0068058933 -0.012843941  0.010340803 
  138000    295.25809    4222.8732        24389     27.18251 -0.0057993216  0.010191211 0.0066201736 
  139000    304.17498    4337.3687        24389    27.711824 -0.0020778022 -0.004587292 0.0064906759 
  140000    296.96749    6302.7403        24389    27.896138 0.0069124361   0.01375518 0.0017907296 
  141000    296.11879     6038.879        24389    27.937538 0.0016834861  0.001835078 0.0014625557 
  142000    302.24409    5849.7322        24389    27.682461 0.0036035262  0.013572028 -0.0021190065 
  143000    297.66134    5444.8315        24389    27.377315 0.0058693293 -0.007917863 0.0098795916 
  144000    298.95449    2720.5549        24389    26.166245 0.0037828265 -0.026022648 -0.00037913568 
  145000    301.60866    6619.8197        24389    25.308553 -0.0068591903  0.006961039 0.0028734329 
  146000    295.26787    6038.2966        24389    25.504813 -0.0061578942 0.0042894511 0.0068902681 
  147000    302.75578    5352.1787        24389    26.367074  0.017290088 -0.0066632307 -0.0090555617 
  148000    302.70952    2610.2811        24389    26.321622 -0.0072850713 -0.015265925 -0.012381825 
  149000    297.96716    5877.9351        24389    25.285123  0.014684185 0.0061289337 -0.011986405 
  150000    299.27023    7140.6535        24389    24.200884 -0.0054651927 0.0065918995 -0.011153879 
  151000    300.92417     3940.912        24389    23.502406 0.0098943044  0.010901452 -0.013228725 
  152000    302.84788    5102.3024        24389      23.5654 -0.00013987531 -0.0047224269 0.00059829431 
  153000    301.29578    6694.5968        24389    24.498831 0.0023437276 0.0011324903 6.8379438e-05 
  154000    300.90586    3918.8565        24389    24.654992 0.0023616449 0.0045195928 0.0035906568 
  155000    296.69861    3688.6203        24389    24.179465   0.01143689 -0.0027054306  0.021746617 
  156000     294.9486    4700.5659        24389    23.695162 0.0013210066 -0.014234489 0.0074108026 
  157000     302.3747    3842.4052        24389    23.998054  0.010646533 -0.012088555 0.00094097624 
  158000    301.60459    3014.8387        24389    25.263454 0.0015196773 0.0076688119 0.0041816866 
  159000     304.9481    7815.3245        24389    26.329331 0.0055491604 -0.0034413032 -0.0068109758 
  160000    304.47743    5078.0332        24389    26.894206 0.0039584475 -0.0017747143  0.001129799 
  161000    298.51814    3598.8553        24389    27.113305  0.013756031 0.0042136898 -0.0069819279 
  162000    301.22968    4181.1577        24389    27.325028 0.0050573061 0.0056452178 -0.0019293739 
  163000    298.53014    5458.8311        24389    27.567898 -0.0016568942 -0.021977587 -0.0053913123 
  164000     299.8312    3435.4158        24389    27.928894 -0.0044190346 0.0013616634 -0.0014520087 
  165000     300.9166    5505.8261        24389     28.56059 0.0012402123 -0.0043752947 0.0032517683 
  166000    307.64973    6819.7694        24389    29.434151  0.006522159 -0.0092333578 0.0043747913 
  167000    307.41234    4932.4328        24389    29.045437 -0.0027389531 0.0045049678 -0.012663043 
  168000    302.50202    3752.3256        24389    28.087004 0.0098091644 -0.0061708858 -0.0040873981 
  169000    296.95194    7621.5266        24389    26.819046 -0.012232502 -0.0076789929 -0.0065578757 
  170000    294.26178    6286.0477        24389     26.26661 0.0079261165 -0.0056812633  0.011962201 
  171000    298.44853    5520.5737        24389    26.039303 0.0052928865 0.0020869484 0.0048414111 
  172000    300.74741     4058.276        24389    26.582948 -0.0018205153 -0.010599618 -0.00072534192 
  173000    307.02842    5219.3787        24389    27.973801 -0.006648937 -0.0044805088 -0.0026325235 
  174000    302.10171    5309.9159        24389    29.162743 -0.0096728637 0.0040488356 0.0075722941 
  175000    301.22255    4165.3048        24389    29.636265  0.004277394 0.0050935131 -0.0036548076 
  176000    299.48532    4443.3165        24389    29.523748 -0.0018516354  0.006289247   0.00598825 
  177000    302.32829    5534.5596        24389    29.338248  0.016959219   0.01599256 -0.0057673916 
  178000     305.2831    5720.9147        24389    28.934592  0.015709457 0.0030444503 -0.0049928707 
  179000    295.05582    5251.2916        24389    29.029437 -0.0018696877  0.012547559 -0.0047034848 
  180000    298.06957    2947.4795        24389    29.739211  0.011341669 0.0071931795   0.01513901 
  181000    296.77241    3571.8256        24389    30.388772 0.0035246275  0.015325322 -0.0029663108 
  182000    300.22519    4925.1198        24389    29.736317 -0.0020333231 0.0069050312 -0.010942243 
  183000    290.98967    6784.4898        24389    28.601746 -0.0026286827 0.0082842999 0.0030581796 
  184000    299.76154    5419.4752        24389    27.633746 0.0064037243 -0.0022597143  0.011919631 
  185000    300.88396    4568.5849        24389    26.572768 -0.0023325509 -0.0026296157 -0.0033268723 
  186000    302.95578    2749.4885        24389    25.656882 -0.0034197111 0.0057870194 0.0077900901 
  187000    302.29524     5275.296        24389    25.204161 -0.0036438505 0.0090584544 0.0063838344 
  188000    307.10476    4714.0859        24389    25.445327 -0.0043983534 0.0036456051 -0.007906936 
  189000    300.28659    3306.3336        24389    26.333375 -0.0047102142 0.0069605344  0.010303318 
  190000    298.27298    4068.7554        24389    26.724219 -0.010125916 0.0034941026 -0.0054188129 
  191000    296.85186    7001.7477        24389    26.552175  0.013340244 -0.0053172633 -0.0051278551 
  192000    301.54427    5917.0177        24389    26.669554 -0.0049361467 0.0017295133 -0.0052136967 
  193000    296.42297    1685.9367        24389    27.166741 -0.0019648739  0.003913575 -0.0085865397 
  194000    301.01863    1809.1925        24389    27.122066 -0.0062520356 0.0036704187  0.010839774 
  195000    297.12991    5189.3929        24389    26.543781 -0.016850445 -0.0060374049 -0.0065683322 
  196000    301.90939    6419.3943        24389    26.249238 0.0039713242 -0.011908384  0.006707306 
  197000    306.44241    7831.3495        24389    26.844742 -0.0060954579 0.0081845163 0.00061441186 
  198000    298.80629    3989.2541        24389    27.474895 0.0045636707 -0.0041973218 0.0057652593 
  199000    304.14137    2701.5931        24389     28.27755 -0.0048655133 0.0092688578  0.016356709 
  200000    301.15765    6358.3898        24389    28.202098  0.011609182 0.0017282372  0.015602636 
  201000    298.77014    5849.8683        24389    27.843955 0.0057168022 0.0028500495 0.0052924351 
  202000     300.2805     2114.936        24389    27.846115 -0.0064582305 0.0028643845  0.010558153 
  203000    295.48682    4235.0047        24389    27.699833 0.00050984778 3.6536782e-05 0.0051823906 
  204000     295.9498    4380.7029        24389      28.0057  0.010002274 0.0039028256 -0.010190261 
  205000    291.39065     6229.417        24389    28.006477 -0.0056501779  0.011219963 -0.0021008895 
  206000    297.18744    5465.6424        24389    27.830774 0.0047474408 -0.0068176339 -0.022703781 
  207000    296.39527    3790.3768        24389    27.593547 -0.0021969782 -0.0049842467 0.0048093949 
  208000    295.05359     4524.637        24389    27.000208 -0.00059392449 -0.0072746514 -0.0049377615 
  209000    292.76384    3325.4061        24389    26.089823 -0.0093499447 0.0059843159 -0.004226067 
  210000     297.8845    5126.6597        24389    25.531802 -0.0028615223 0.0078953497 0.0064878822 
  211000    295.57737    5205.0681        24389    25.691331 0.0085991663 -0.0039782966 -0.0081118481 
  212000    299.24204    3460.5036        24389    26.947653 0.0035317079 -0.020554156 -0.0016762823 
  213000    302.07125    2905.2146        24389    28.816734 0.0077827107 0.00096795004  0.004624086 
  214000    302.89697    7248.1089        24389    29.923092 0.0030458247 -0.0010090076 -0.0079008771 
  215000    298.24086    5953.0764        24389    30.446231 0.0023383694 0.0019236591 -0.0047548838 
  216000    296.06339     5110.075        24389    30.398334  0.020001793 -0.014099834 0.00027752121 
  217000    307.11572    3934.8351        24389     30.33885 -0.0061808051  0.012656249 0.0022379429 
  218000    302.47861    2670.4547        24389    30.536919 0.0013046645 -0.0096707745 0.0045431435 
  219000    298.56013    7305.4493        24389    30.562364 -0.0027353202 0.00095497289 0.0021836047 
  220000    298.01227    7207.3152        24389    30.711798 0.0042961001   0.01221723  0.011337403 
  221000    295.30405    1221.0996        24389     30.83382 -0.0019586526 0.0078707521 -0.009249298 
  222000    298.98055    3218.2469        24389     30.61112 0.0067974666  0.017204466  0.003565482 
  223000    296.17506    6703.5706        24389    29.524672 0.00085952464 0.0021335881 -0.0026266414 
  224000    298.62644    7839.6199        24389    28.431699 -0.010237818 -0.0044230832 0.0019386454 
  225000    301.90883    2321.7984        24389    28.099222  0.010439232 0.0028938456 0.0053241929 
  226000    295.34613    5278.3389        24389     28.34203 -0.0036450069 -0.0045243304 0.0087004004 
  227000    296.92033    8111.6301        24389    28.884256 -0.0097094582 -0.011136507 0.0032792397 
  228000    307.36041    4185.8826        24389    29.574735 -0.0016290178 0.0016791514 -0.001296855 
  229000    298.72745    2926.2321        24389    29.986314  0.004979498 -0.0050627621 0.0099094475 
  230000     306.1394    4079.1975        24389     30.36985 0.0016880614 -0.0057048963 -0.0030223034 
  231000    293.56928    5635.4297        24389    30.233867 -0.0010622516 -0.0074820848 -0.0041097002 
  232000    297.33989     6459.647        24389     29.51944  0.014236044 0.0070033305 0.0011103651 
  233000    302.08384    3198.2456        24389     29.14646 -0.0057812236 -0.0043998418 -0.010854203 
  234000    292.04436    1959.9884        24389    29.106165 -0.012686008 -0.0037603605   0.00708572 
  235000    296.11615     4511.402        24389    29.110238 -0.011486022 -0.0061970695 0.0046682352 
  236000    297.64585    6973.9224        24389    29.081767 -0.0016983946 -0.010325116  0.010461479 
  237000    290.58277    4676.1816        24389    28.928767  0.005229936 -0.0072056675  0.010203148 
  238000    290.58164    1934.8732        24389    29.055576 -0.00053567657 -0.0016721026 0.0083585249 
  239000    297.93627    4033.0034        24389    28.903098 0.0021874581 0.0064643474 -0.00011476906 
  240000    301.28964    5670.2577        24389    28.871965 -0.0057946828 -0.011117978 0.0072364285 
  241000    292.53607    5349.0687        24389    29.338732 0.0092722304 -0.0069105765 0.0023964169 
  242000    296.14783    4368.4106        24389    29.313945 -0.010573679 0.0072653365 -0.0048578352 
  243000    287.73908     4624.066        24389    29.583308 0.0033168098 -0.014530536  0.010192544 
  244000     296.6457    5885.2757        24389    29.583877  0.013704208  0.016936981 -0.00092911764 
  245000    299.30012    3290.1646        24389    29.264313 -0.0060276269 -0.0056088797 -0.0075372552 
  246000    299.67275    5103.7196        24389    28.666734 0.0022363118 -0.0010935703 -0.00038653455 
  247000    290.88258    5905.4127        24389    28.313066 0.0059900932  0.016962015 -0.0028690987 
  248000      295.276    5261.7576        24389    27.255704 -0.0066816256 -0.0030621307 -0.0016953928 
  249000    294.51041    3225.9138        24389     25.61039 0.0010129146 0.0029195767   0.01286427 
  250000    294.52634    4134.9942        24389    24.055541 0.0025407761 -0.0024078739 -0.0028553733 
  251000    298.78445    7340.7645        24389    23.215064 -0.0092785302 -0.0053713222 -0.018510563 
  252000    298.53661    3474.9634        24389    23.188363 0.0021388351  0.005042465 -0.0048182657 
  253000    302.01467    5557.2745        24389    23.597411 -0.0083341147  0.010249011  0.011597063 
  254000    299.54425    3953.7533        24389    24.381656 -0.00099721884 0.0027405896  0.011574832 
  255000    299.50733    3868.6341        24389    24.366697   0.01244372  0.001300406 0.0042286109 
  256000    291.75357    5991.3324        24389    24.917601  -0.01707205 -0.0090539309 -0.0018474518 
  257000    300.94895     3627.148        24389    26.246505 -0.0022261593 -0.014883315 -0.00011306659 
  258000    300.90744    5483.0873        24389    27.401772 -0.0095675363 -0.0060859901 -0.0016442319 
  259000      291.622    5054.3312        24389    27.895339 -0.0059796363 -0.0044070246 0.0011014562 
  260000    295.17623    2597.0546        24389    27.681572 0.0017526372 0.0013193314  0.013185686 
  261000    305.53515    2944.4796        24389    26.671168 0.0086449923 -0.0010860955 -0.011488201 
  262000    301.03648    3640.3574        24389    25.714787 0.0051021289  0.016883529 -0.0038766311 
  263000     296.6671    7811.9384        24389    25.046224 0.0057282207 -0.0019758422 0.0099584925 
  264000    294.08744    6410.8607        24389    23.760205 0.0020926731  0.022567803 -0.017190688 
  265000    298.96792    4095.6019        24389    22.953238 0.0018769884 0.00040469279   -0.0163977 
  266000    289.96726    3892.4237        24389     22.88995 -0.0040272526 0.0080582019 -0.0013131812 
  267000    308.77676    5830.9874        24389    23.967891 -0.0057807156  -0.01219802  0.013913589 
  268000    294.88178    4729.7698        24389    25.285338  -0.01196638  0.016009346  0.007294393 
  269000    305.56166    4037.6665        24389    25.741521 0.0019167783 0.0068865865  0.010545718 
  270000     295.6122    4446.8694        24389    25.991076 0.0036394148 0.0079664377 -0.0024361085 
  271000    295.20101    6647.8807        24389    25.538352 0.00079328675 -0.0075985154 0.0073779826 
  272000    296.50856    4314.6292        24389    25.175317 0.0039238747 0.0004511432 -0.00071203998 
  273000    297.32873    2700.4719        24389    24.680145 0.00052533293 -0.007860377  0.014513897 
  274000    295.62509    4750.4953        24389    24.406586 -0.0058351893 -0.00019093439 -0.0093199147 
  275000    292.22998    7698.6227        24389    24.885035 -0.010665869 -0.0013723931 -0.0064039774 
  276000     289.9213    5557.9603        24389    25.779851  0.025589645  0.003201713 0.0055049019 
  277000    293.99696   -41.649939        24389    27.076512  0.011179348 0.0024667042 -0.0035118648 
  278000     301.9781    1643.8691        24389    27.691747 0.0084211244  0.012059271 -0.010102913 
  279000    296.92371    5985.8019        24389     28.11169  0.006910963   0.00721317 -0.0011448816 
  280000    294.07537    6790.8207        24389    27.966165 0.0025245239  0.016593306 -0.0087958298 
  281000    300.82702    5181.5782        24389    27.814874 0.0028645291 -0.0026554413 -0.0017944202 
  282000    306.21153     3634.264        24389    28.398855 -0.0011501095 0.0070239072 0.0086740475 
  283000    304.86982    5155.9635        24389    28.792836 0.0019564241  0.008501834  0.004147264 
  284000    303.83255    4155.8808        24389    29.148757 0.0072261005 0.0096792312  0.011589051 
  285000    300.59757    4712.4207        24389    28.574805 -0.006203729 -0.0078451105 0.0011545547 
  286000    296.99401    6345.2481        24389    27.822594 0.0042678458 -0.0018812034  0.015021129 
  287000    295.39536    4394.9745        24389    27.020564 -0.0087866746 0.0011444068 -0.0014656491 
  288000    292.22498    3939.0187        24389    27.046465  0.009731425  0.012670576 0.0065352545 
  289000    295.37512    4150.5447        24389    27.021783 -0.0019699554 -0.0045754935  0.005816615 
  290000    300.20702    4603.4237        24389    26.911465 -0.0064520362  -0.00300483 0.0074014855 
  291000    296.74218    3854.7671        24389    26.363119 0.0014150459 -0.0060435758 0.00099983051 
  292000    295.52362    5590.5177        24389    25.467359 3.1082706e-05 -0.0094297441 0.0057480939 
  293000    299.50335    3465.3932        24389    25.223598 -0.0069858643 -0.011301614 0.0036141329 
  294000    296.07171    1730.9042        24389    25.838825 -0.0059894797 -0.0050740304 -0.010337777 
  295000    296.48693    4223.0437        24389    26.752832 -0.0095076419 -0.011822556  0.003246271 
  296000    298.89002    6646.4035        24389    27.462008 -0.00027549219 0.0027074539 -0.0036174502 
  297000    302.63305    5924.1124        24389    26.798256 -0.00096832409 -0.00010972588 -0.014229821 
  298000    297.51004    2860.8124        24389    25.940829 0.0072728463 -0.0050441048 0.0024130346 
  299000    302.29595    3411.3991        24389    25.634839 0.0028809226 -0.010038987 0.0089258748 
  300000    297.93798    5433.5036        24389    26.688221 0.0011570257 -0.0096572208 0.0013801618 
  301000     300.8093    6110.8769        24389    27.998482   -0.0119377 -0.0055460167  0.010038095 
  302000    305.83994    3324.9601        24389    28.980331 -0.010950121 -0.0023676422 -0.0077607425 
  303000    298.04913    3615.9994        24389    29.864794 -0.0017545404 0.0062063588 0.0067882342 
  304000    303.91611    4116.4739        24389    30.409107 0.0038364966 -0.010735229 0.0048767754 
  305000    299.43381    5241.7712        24389    30.537505  0.010454888 0.0076307015 0.00072182486 
  306000    305.25015    4942.4174        24389    29.924543 0.0044769832 -0.0047703115 -0.0037284463 
  307000    299.21401    2734.3812        24389    29.116923 0.0020272785 -0.0074735589 0.0001761867 
  308000     300.7643    3533.1511        24389    28.217188 -0.011114403 -0.012305898  0.016163005 
  309000    301.07671    6037.8032        24389      28.0081 -0.010411831  0.015672257 0.0061381963 
  310000    306.54253    5974.3452        24389    28.197069  0.004744884 0.0026763398 -0.0044832994 
  311000    297.88029    5493.6625        24389    28.060057 0.0084413372  0.012556239  0.014888633 
  312000    299.27824    3056.8543        24389    28.375472 -0.0089235919 0.0031156183 0.0099817246 
  313000    293.30154    3633.6104        24389     29.30457 0.00067826983 -0.0090032458 -0.00021047188 
  314000    300.11311    4367.0276        24389    30.167765 0.0055210458 -0.007965411 -0.0075627385 
  315000    295.75172    2650.3965        24389    30.618009 -0.0017516402 -0.0030592068  0.011408107 
  316000    302.80997    6039.7786        24389     30.33567  0.016340385 -0.0094296494 0.0025266696 
  317000    298.43917    4907.0144        24389    29.861618 -0.0095886734 -0.018000622 -0.00057776467 
  318000    296.51179    2723.3041        24389    29.339323 0.0062833216 0.0060040136 0.0078021993 
  319000    299.02404    2074.0536        24389    29.101243 -0.0014885666 0.0034134434 0.0065391095 
  320000     299.8442    6770.9869        24389    28.366249 -0.0046036662 0.0061226969 -0.004268594 
  321000    306.08095    5595.4351        24389    27.313633 0.0069634985 0.00099763167 -0.007456036 
  322000    296.83131    2263.7538        24389    25.886039 -0.012298791 -0.0040500317 -0.0023209609 
  323000    304.12075    2944.9477        24389    24.990668 -0.002794098 0.0019372111 -0.0098741044 
  324000    296.88897    3041.8182        24389    25.259682 -0.014216009 0.0058396901  0.010058501 
  325000    299.97236    5553.5786        24389    25.675128 0.0026005155  0.006649654 0.0078445995 
  326000    292.34647    4553.0757        24389    25.488894 -0.0050352985  -0.02410022 -0.0058815038 
  327000     296.3426    2020.9528        24389    24.796504 -0.0013517555  0.002347106 0.00013839399 
  328000    290.53152    6234.9057        24389    24.385284 -0.015407597 0.0042057461 0.00076317628 
  329000    296.14773    3809.1612        24389    24.209683 -0.0075532572 -0.0046309273 0.0081245775 
  330000    297.23157     3504.997        24389    24.346805 0.0078752127 -0.00032381311 -0.00050517041 
  331000     290.1441    2678.3134        24389    23.898423  0.012943325 0.0037685296 0.0023104844 
  332000    301.95793    3347.7626        24389    22.864679 -0.0090765873 -0.0087122205 -0.013108565 
  333000    299.92487    6707.6862        24389    22.205134 0.0071799737 -0.00050743932 -0.012074847 
  334000     299.0172    4671.9343        24389    22.316369 -0.010802146 0.0079885921 -0.0067677153 
  335000    293.22562    3984.3559        24389    23.094333 0.00027548717  0.004777078 0.0055800867 
  336000    293.17185     1426.229        24389    23.876857 0.0016655242 -0.0033848039  0.017818685 
  337000    295.91788    3720.3329        24389    24.937315  0.014334512  0.014710746 0.00084300127 
  338000    296.15922    7088.4201        24389    25.505184 0.0073130021 -0.0018937936 0.0088631707 
  339000    301.83364    4923.3209        24389    25.451886 0.0077891871 -0.017429727  0.013294259 
  340000    295.57042    2606.7824        24389    25.029966  0.011203028 -0.016650286   0.01309486 
  341000    300.03563    4187.8506        24389     24.38056 -0.007680955 -0.0010706984 0.0017402576 
  342000     297.6382    5621.9171        24389    24.430413 -0.0026388563 0.0025767107 -0.0051524851 
  343000     297.3006    4247.1748        24389    24.900181 -0.0013599839 0.0035778647 3.3541148e-05 
  344000    298.05288    4232.0708        24389    25.537724 0.0024547615 -0.0018736759 -0.00093084542 
  345000    297.16909    4182.5733        24389    26.688953 0.0076197517 -0.010513633 -0.0035492723 
  346000    295.74597    4652.6655        24389    28.067543 -0.015561394 0.0018838519 0.00019924092 
  347000    297.31045    5667.2246        24389    29.164772 -0.015064104   0.00169395  0.010646197 
  348000    293.40933    2308.9721        24389    29.610169 -0.0043033439  -0.01346841  0.003862375 
  349000    289.04924     5452.458        24389    28.839924 -0.017390833  0.005722474 0.0037926633 
  350000    296.77079    4555.4285        24389    27.509983 -0.0032082497 -0.0013993611 -0.0050818396 
  351000    294.25444    3047.3573        24389    26.303168  0.013089509 -0.011822732 0.0075481377 
  352000    297.51067    3082.1239        24389    26.683466 -0.0060322449 -0.0042855989  0.017993492 
  353000    296.78778    4457.5165        24389    27.977729 -0.001916797  0.008735877 -0.0093380253 
  354000    303.50417    5648.2482        24389    28.994377 0.0039149665 0.0086815524 -0.010797272 
  355000    301.29168    3732.1392        24389    29.490197  0.011367315 -0.0034489916  -0.01156994 
  356000    300.69571    3997.3678        24389    29.639594 -0.0037550367 -0.00024950482 -0.0059078138 
  357000    295.24239    5115.8262        24389    29.362441 -0.0058076338 -0.019171289 0.0016431985 
  358000    291.40872     3709.831        24389    28.885782 0.0076225916 -0.0094791115 0.0077863377 
  359000    299.55575    3131.6593        24389    28.769087 0.0025399331  0.005439341    0.0104784 
  360000    299.92546    4429.8246        24389    28.779983 0.0089536444 -5.6836342e-05  0.011409262 
  361000    295.82135    5423.6608        24389    27.928831 -0.0053398299 0.0033799306 0.0097812353 
  362000      294.734    3872.1714        24389    26.477485 -0.010187313 -0.0034747333 -0.0035261236 
  363000    291.63052    3560.4573        24389    25.569883 0.0051973738 -0.010903036  0.005194656 
  364000    301.28412    4685.1629        24389    25.540042 -0.0093369735 0.0058161358  0.006643246 
  365000    294.43283    5088.0654        24389    25.759965 0.0074745813 -0.0049095787 0.0046144021 
  366000    301.90032    3635.7726        24389    26.771279  0.013516459 0.0019465732 0.0080326301 
  367000    302.05152    5403.3645        24389     28.64638 0.0070927255  0.010966453 -0.012669802 
  368000    296.70087    4247.3069        24389    29.988737 -0.0093044898 0.0042479275 0.0049269319 
  369000    294.42609    2119.9752        24389     29.82831 0.0083274842 -0.0047881331 -0.0050212567 
  370000    291.40365    2264.3011        24389    27.989474 0.0029608513  0.012756082 -0.023283996 
  371000     295.1367    3862.8041        24389    26.444787 -0.0032423113 0.0085108586 -0.0051670046 
  372000    293.95828     6289.132        24389    26.221014 -0.0046247174 0.00029334332 0.0097906583 
  373000    296.85721    5704.9645        24389    26.662383 0.0053622415 -0.011166328 0.0094051716 
  374000    298.01871    4467.8045        24389    27.561369 -0.0096651196 0.0045553932 -0.010612616 
  375000    295.34953    3846.0821        24389    27.721783 -0.0025520557 -0.0060664597 0.0028038944 
  376000    302.48612    2990.3403        24389    27.505842 -0.0036156302 0.0083913056   0.01281922 
  377000    292.74105    6509.2811        24389    28.207499 0.00097008709  0.010592871 -0.0095006881 
  378000    285.83529      3472.47        24389    28.495459 0.0026839972 0.00099513267 -0.0060694278 
  379000     295.2031    6199.5657        24389     28.60771 -0.011836083 -0.0051902409 -0.0057265162 
  380000    304.53013    4987.6294        24389    28.798109 0.0057689984 -0.0044827332 -0.001176847 
  381000    296.99601    1717.5621        24389    28.985101  0.011742225 -0.013826887 0.00035540948 
  382000    292.98644    4618.5379        24389    28.723736 -0.002085782 0.0031617003  0.004284702 
  383000    296.59083    6377.1658        24389    27.667517 -0.0026662382 -0.0034001026 -0.0087781677 
  384000     299.2254    2098.6171        24389    26.780536 -0.0043357731 0.0020018482  0.017394267 
  385000    296.67108    3776.3512        24389    26.199475 -0.0048828831 0.0052809427  0.006306966 
  386000    291.01636    5878.5663        24389    26.213676 0.00063375996 -0.0029049202 -0.0025121592 
  387000    292.50759    2523.9139        24389    26.978507 0.0034755119 0.00055601527  0.016347756 
  388000     292.7487    2151.1073        24389    27.521851   0.01156764 -0.0093545762 0.0020853102 
  389000    295.43358    4160.3878        24389    27.943493 0.0044829925 -0.0083851732 -0.010858558 
  390000    297.05407    6185.1583        24389    27.807828  0.013259492  0.011677504 -0.008287412 
  391000    290.13707    4745.0555        24389    27.952042 0.0070879643 -0.013369336  -0.01595182 
  392000    294.09107    3804.6423        24389    28.868934 -0.0075862122 0.0038656447   0.01076411 
  393000    299.60133    5272.8303        24389    29.618594 0.0019279819 0.0014128957 -0.0084371437 
  394000    295.59542     5332.212        24389    29.380209 0.0056304798 0.00058626061  0.013367506 
  395000    297.40059    3608.3711        24389    28.382368 0.0074082984 -0.0026543168 0.0019328274 
  396000    291.10132    1636.9905        24389    27.072052  -0.01146086 0.0013705131 -0.00072688338 
  397000     298.9586    3755.8726        24389    25.293816 -0.0037970868 0.0031788585 -0.0033501361 
  398000    299.68353    9284.0014        24389    23.931711 -0.005983748  0.010012051  0.018470539 
  399000    301.32553    5748.4676        24389    23.844665 0.0048510509 -0.010510493 0.0038840464 
  400000    294.27181    1991.4123        24389    24.564478 0.0074059399 -0.014364481  0.011426897 
  401000    301.80666     3264.627        24389    25.237849 -0.005492678  0.011465454 0.0021248478 
  402000    299.41024    3504.0467        24389    26.268089 -0.0017475909  0.012236491 0.0032266831 
  403000    305.73488    3329.2845        24389    26.702328 -0.0048915597 -0.0055236239 0.0038831739 
  404000    299.48334    4262.0562        24389    26.948594 0.0071148263 0.00027113868 0.0096796905 
  405000    302.37057    4111.2239        24389    27.296867 0.0057064118 -0.0049356272  0.014134052 
  406000    299.89387    2758.5828        24389    26.979632 -0.002272249 -0.0020086043  0.010906411 
  407000    304.11109    4887.0447        24389    26.341245 0.00017384444 -0.0054006543 0.0061421119 
  408000    294.36747    6345.8592        24389    26.263963 0.0062742072 0.0042521193 0.0033487715 
  409000    293.43339    4383.7173        24389    26.694873 0.00081738492 0.0088220554 0.0097204831 
  410000    294.73631    3268.8617        24389    27.231281 -0.0050191052  0.017097697  0.017354561 
  411000    298.90179     3572.934        24389    27.818063 -0.010670797  0.005300179 -0.010632955 
  412000    297.37125    3245.8092        24389    28.298916 0.0035036789 -0.0010052396  -0.01560459 
  413000    293.57384    7235.9879        24389    28.899433 -0.0016330616    0.0142117 -0.0085086747 
  414000    293.37153     7511.926        24389    28.672569 0.0042872344 -0.0084107971 0.0014629798 
  415000    293.68848    1534.3857        24389    27.193749  -0.00428468 0.0062741604 0.0076036937 
  416000    301.00354     2499.846        24389    25.343856 -0.0021964265 -0.007367707 0.0010845321 
  417000    296.41264    3574.5553        24389    24.575061 -0.0053733156 0.0083300772 -0.010567779 
  418000       298.06    4736.7814        24389    25.712708 -0.0077729835 0.0079357436 -0.017336075 
  419000    295.03255     4603.215        24389    27.642785 0.0032493183 0.0068777997 -0.006361613 
  420000    294.15978    6112.4453        24389    29.312186  0.013157187 0.0049025886 -0.0068968509 
  421000     297.7328    3387.1996        24389    29.754254 -0.0058027988 0.0067797038 0.0046938929 
  422000    294.58422    3299.4587        24389    28.976312  0.016003658 -0.0016250121 -0.0054365588 
  423000    294.53922    5224.1721        24389    27.807896  0.004923797 -0.0057400027 -0.00091817218 
  424000    295.54909    2826.7151        24389    27.219092 0.00033269292 -0.0034977397 0.0062137859 
  425000     293.9003    3181.8329        24389     27.59884 0.0069620906 0.0011977046 -0.011275116 
  426000    290.64632    3992.1509        24389    28.239001  0.006256429 8.1399118e-05 0.0023596287 
  427000    294.98656    4261.4893        24389    28.672738  0.014033139  0.010790324 -0.018426588 
  428000     291.3032    5295.6283        24389    28.509046 0.0044175857 0.0048039482 -0.0084815144 
  429000    297.35882    5556.5802        24389    28.380017  0.011039147 0.0085481784 -0.012858715 
  430000     292.8687    4551.2575        24389    28.251675 -0.001756756 -0.0041236665 0.0029032023 
  431000    294.37311    4089.8758        24389    28.639676 -0.008712899 0.0043310435 0.0074895127 
  432000    298.12038    161.96406        24389    28.839546 -0.0069236022  0.015176143 0.0096850069 
  433000    292.27112    2159.1804        24389    28.810408 -0.0034402389 0.0072627406 -0.0088225319 
  434000    301.89216    6652.4518        24389    28.851901 0.0037285294 -0.002916565 -0.0032291177 
  435000    294.63569    6969.7426        24389    28.877497 0.0072915663 -0.0014589425 0.0084607364 
  436000    293.08145    4816.6509        24389    29.034824 -0.012553985 -0.0013413086 -0.0039733293 
  437000    289.83606     4298.667        24389    29.296226 -0.0092885564 -0.0042399731 0.00037190032 
  438000    288.30058    3670.4965        24389    29.775374 -0.0064207608 0.0025156037 0.0015459431 
  439000    288.13699    3637.2956        24389    30.522229  0.011049586 -0.011637668  -0.00421948 
  440000    298.11231    7186.3616        24389    30.394099 0.0058770556  0.011424742  0.014672846 
  441000    296.42909     4177.895        24389    29.668647 -0.0097115274 -0.0071026812 -0.00062009606 
  442000     291.9096    2741.9315        24389    28.946632 0.0046458271 -0.0043992284 -0.015249376 
  443000    302.48032    5500.1411        24389    27.743007 -0.0099072417 -0.0064779551 0.0076969092 
  444000     298.9407    5440.8557        24389    26.792166 -0.002559212 0.0023497265  0.001083731 
  445000    298.00947    4466.4605        24389    25.942045 -0.0048619654 -0.0056488475 0.0011342263 
  446000    298.28294    4156.6787        24389    25.807301 -0.015892782 0.0036700323  0.013550867 
  447000    295.54686     4522.815        24389    26.480691 -0.0033483944  0.010355734 -0.0072589126 
  448000    293.58859    3564.9174        24389    26.992247 0.0032861444 0.0050855856 -0.008056283 
  449000    298.02988    5467.8293        24389     28.22895 -0.004977137 0.0062983564 0.0023056405 
  450000    298.10916    1227.3211        24389    28.812833 0.00051357123 0.0048980429 -0.00014902628 
  451000    293.98796    957.07907        24389    28.672883 0.0030078657 0.0078779184 0.0036671174 
  452000     294.7767     6362.189        24389    28.887867  0.007213509 0.0064708875   0.01030694 
  453000    294.78303    7322.2952        24389    29.200211 -0.015716015 -0.0044707297 -0.013418036 
  454000    297.97023    3785.3869        24389     28.97934 0.0083689155 -0.00082352599   0.01035173 
  455000    295.64804    1655.3475        24389    28.413306 -0.0041136538 0.0059045721 0.0066370261 
  456000    293.03096    4533.7127        24389    27.704806 -0.020840418 0.0014464037 0.0072664635 
  457000    304.28954    4726.0151        24389    27.855721 0.0073522439 0.0053425755 -0.0017664426 
  458000    295.29097    4601.7859        24389    28.846377 0.0046459983 0.0050165248 -0.001912375 
  459000    296.79594    4236.2611        24389    29.654079 -0.0050904965 0.0038165476 -0.0090523954 
  460000    304.70102    3077.7403        24389    30.141954 -0.001250351 -0.0016133595 -0.014553847 
  461000    298.50694    3414.3719        24389    29.252646 0.0040732968 -0.0097872111 -0.0073980201 
  462000     295.8789    5901.9531        24389     27.44138 0.00099563788 -0.0043536029  0.006132948 
  463000    298.49021    5818.0617        24389     26.17854  0.013449724 -0.016459422 -0.0057745543 
  464000    292.17106    3479.3531        24389     25.52909 -0.015985765 0.0063623504 0.0018345044 
  465000    290.17394    4833.4518        24389    25.103228 0.00093481667  -0.02208242  0.014733096 
  466000    295.40362    4369.6575        24389     25.26658 -0.0090657953 0.0058651594 -0.0039108559 
  467000    294.17299    2958.0119        24389    25.380262 -0.0078929188 0.0033947954 -0.0017343331 
  468000    296.97023    5799.7094        24389    25.502749 -0.0060407402 0.0040287205 0.00081727666 
  469000    297.58964    6651.1139        24389    25.638735 0.0067088092 -0.008168761  0.006180105 
  470000    289.13053    1846.2567        24389    26.300614  0.015299767 -0.006420362 -0.0044912765 
  471000    298.91196    2633.3128        24389      27.0069  0.008254103 0.00040445585 -0.0026426933 
  472000    290.53828    4757.1054        24389    27.829591 -0.0020364162 -0.0015653707 -0.002017219 
  473000    293.39276     3469.839        24389    28.624374 0.0056377897 -0.0060875844 -0.0012431228 
  474000    299.23151    4766.6827        24389    29.021523  0.010172458 -0.0023274771 0.00094450735 
  475000    295.92223    3303.5717        24389    28.910153 -0.0019629883 -0.012995374 0.00063135001 
  476000    301.04911    4810.8993        24389    28.385851 -0.0086999365 -0.0041023057  0.015095192 
  477000    295.45005    6736.8003        24389      27.9699 0.0056771962 -0.0050835302 -0.0018952638 
  478000    298.93885    3849.8274        24389    27.497097 -0.0015750085 0.0016252374 0.0017467883 
  479000    295.63364    4636.6681        24389    26.514072 -0.014694215 -0.024971245 -0.010912021 
  480000    297.65704     4455.974        24389    25.550066 -0.0044303705 -0.018019821 -0.001887045 
  481000    294.84822    4748.2381        24389     25.02238 -0.0084103468 -0.011010427 0.0033226065 
  482000    295.93068    6012.6587        24389    24.879811 0.0054253697 0.0067717357 0.0022662487 
  483000    302.21534    4346.2781        24389     25.35366  0.004161722 -0.0039955368 0.0054822095 
  484000    293.53673    3034.6464        24389    25.869172 -0.013316896  0.015108138 -0.0030514668 
  485000    289.45963    5713.1217        24389    25.871238 0.0032866051 -0.0050533283 0.0034371045 
  486000    303.03742    4945.9719        24389    25.316326 0.0098182847  0.010986281 -0.0017925919 
  487000    298.29798    5581.2215        24389    25.198867 -0.0053121412 -0.0018628103 -0.0009097249 
  488000    303.23696    4881.1761        24389    26.052085  0.011962885 -0.0018807526 0.0090267563 
  489000    291.57471    2350.9637        24389    26.241536 -0.0017667633 -0.0026793616 -0.012513549 
  490000    294.07337    3686.4503        24389    25.794637  0.010094817 -0.0046621195 -0.006296334 
  491000    295.43084    2660.8878        24389     25.17361 -0.00017501994 0.0061181059 0.00062584988 
  492000    299.22542    4185.3056        24389    24.925418 -0.0083534895 -0.0015248448 -0.0078278848 
  493000    294.98145    4592.6102        24389    24.427392 -0.0010052721 0.0082228234 0.00038758451 
  494000    305.77178    3824.6024        24389    24.198328 0.00062134693 -0.0098156459 0.0045969963 
  495000    294.72654    5860.8037        24389    24.656846 -0.014856908 -0.0087704776 -0.0078313095 
  496000    298.24458    6098.8044        24389     25.31801   0.01026633 0.0074307475 0.0020508538 
  497000    296.54178    5071.6564        24389    26.392794   0.01081605 -0.0075262096 0.0023144208 
  498000    295.12249    1100.3019        24389    26.838531 -0.013862789 0.0057954914 -0.0016670769 
  499000    305.55145    2208.5315        24389    27.289818  0.011139495 -0.0018258987 0.0055410652 
  500000    292.29639     4311.927        24389      27.0937 0.0014448084 -0.0044735368 -0.00072342788 
  501000     300.3371    8183.7658        24389    26.941233  0.010557915   0.01558125 -0.007812688 
  502000    294.71215    5669.2472        24389    25.962575 0.0053082213 0.0044720333 -0.0097549218 
  503000    300.94676    775.45476        24389    25.280153 0.0056294447  0.010871384 -0.00081850861 
  504000    296.63784    3023.7817        24389    24.377584  0.020724802 -0.0020254884 -0.0093071898 
  505000    296.05605    5400.0479        24389    24.465313 0.0014759698 0.0080858688 -0.0045648364 
  506000    293.86471     2303.088        24389    26.530244 -0.010020094 -0.0067412866 -0.016186248 
  507000    299.52096     2147.487        24389    28.320982 0.0081300703 0.0094763013  0.012494356 
  508000    292.88756    4548.4302        24389    29.048132 0.0018004715 0.0077067601 -0.020887977 
  509000    303.70917    5132.4793        24389    28.609119 -0.0016358641 0.0087822515 -0.00051425865 
  510000    288.91076    5417.9659        24389    28.222676 -0.0033453663 -0.00061810813 -0.0095194932 
  511000    295.96324    3945.7053        24389    27.593057 -0.0012390021 -0.0020199237 -0.0024511133 
  512000    296.48885    5110.6842        24389    27.368184 -0.0032473979  0.013613258  0.010715142 
  513000    293.69053    3649.9926        24389     27.01447 0.00099533977  0.012586338  0.009283261 
  514000    295.31182    4220.6165        24389    26.655207  0.011995262 -0.0032364873  0.011064849 
  515000    285.76832    4840.4249        24389    26.059285 0.0051284907 -0.00018812687 0.0029601442 
  516000      293.442    4502.5047        24389    26.088964 0.0080497211 -0.0091152264 0.0072299495 
  517000    289.11678    3493.1052        24389    26.878569 0.0052100632 -0.001394606 -0.0071056244 
  518000    293.86675    4311.9412        24389    27.907934 0.0014783311 -0.0053978836 -0.0074611345 
  519000    297.67707    4116.5061        24389    27.681725 -0.0041874504 0.0034004757 0.00087586282 
  520000    299.74207    3765.3911        24389    26.384339 -0.010402978 0.0073709881 -0.0071234081 
  521000    294.18708    4650.4105        24389    24.683789 -0.0073339629  0.010044858 0.0064360998 
  522000    298.95715     5747.601        24389    23.578565 -0.0030356962 0.0021610869 -0.0066237639 
  523000    293.79834    4791.3433        24389    23.389282 0.0023546475 -0.011620753 -0.0055063633 
  524000       294.46    2934.5006        24389    23.797032 -0.0022345565 -0.0028309276 -0.011501871 
  525000    292.35001    5207.5412        24389    24.542112  0.012985476 0.0036438473 0.0027810825 
  526000    295.57248    4742.6278        24389      25.2693 0.0098912196  0.027036699 -0.0045796766 
  527000    291.25479    7339.7288        24389    26.458284 -0.00038703886 0.0072082855 0.0048555486 
  528000    303.61565    4327.2594        24389    28.638564 0.0075224756  0.015908059 0.0040348105 
  529000    298.94122    3825.0355        24389    30.389313 -0.0015095022 -0.0023750137  -0.01492448 
  530000    297.46454    2779.0258        24389    31.106859 -0.0040860083 -0.0057946261 -0.0042392484 
  531000    298.25157    4378.6079        24389    30.934183 -0.0058855846  0.003115282 0.0055157254 
  532000    298.12561    6535.3093        24389    29.888928 -0.0060376828 -0.006801033  0.002631913 
  533000    299.63738    5552.6025        24389    28.518156 -0.0060948006 -0.0086833934 0.0034720309 
  534000    297.66717    1785.2688        24389    26.942452  0.011785414 -0.0054631053 -0.0037012072 
  535000    297.33498    2175.3485        24389    25.842251 -0.011274505 -0.0019115187 -0.004548058 
  536000    302.92746     6408.467        24389    25.282033 0.0014050466 -0.0085856676 -0.013540862 
  537000     301.1587    4693.2468        24389    25.097208 0.0093106911 -0.0077764325 0.0071846827 
  538000    292.35575    3074.0921        24389    25.286801 -0.0065884244 -0.0089190268 0.0097249228 
  539000    293.14315    5078.4153        24389    25.491223 -0.0098226473 0.0035951837 0.00050877306 
  540000    302.53456    4205.3094        24389    26.135954 -0.0055129134 -0.0015641054 -0.0050429317 
  541000    294.96593    6619.8938        24389    26.272414 0.00057967376 -0.009148493 -0.006335422 
  542000    299.87691    5212.0321        24389    25.932272 0.0027548656 0.0048870743 -0.0029542734 
  543000    291.79141    3146.8985        24389     25.38058 0.0011426434  0.013569338 -0.0020656917 
  544000     296.8862    1709.8218        24389    25.686476 0.0065213765 0.0024817944 0.00064177099 
  545000    297.31207     5547.039        24389    26.548698 -0.0085923832 -0.0084675664 -0.0029187177 
  546000    290.81415    5208.7489        24389    28.193769 0.0076144608 -0.0055457393   -0.0125812 
  547000    302.11726    4562.6371        24389      29.8514 0.0046686933 -9.8766874e-05 0.0031210439 
  548000    301.84151    2923.9926        24389    30.532062 -0.0017099643 -0.0065122599 0.0057970975 
  549000    302.51386    3701.6621        24389    30.197643 0.0072380561 -0.0023691641 0.0059091422 
  550000    298.45821    3880.1104        24389    29.608106 0.0053249381 -0.0025348955 0.0058015797 
  551000    293.93066    3648.7825        24389    29.038783  0.010255365 -0.013752142 -0.0062068573 
  552000    300.79179    2621.9482        24389    28.619942 0.00097925647  0.011337831 0.0044931443 
  553000    298.42628    4810.0372        24389    28.585363 -0.013151997 -0.0050112238 -0.0012636646 
  554000    296.38923    2852.4991        24389    28.625829 -0.015702348 -0.0043382602 0.0026100167 
  555000    301.77506    4344.4009        24389    28.723545 -0.010515075 -0.0058241029 0.0064501412 
  556000    289.59232    3887.7441        24389    27.830638 -0.0025725453  0.004013972   0.01464561 
  557000    300.35375    5018.0395        24389    26.815116 0.0052209596 -0.0066869502 0.0097938254 
  558000      295.288    6196.4411        24389    26.513699 0.0047012656 -0.011454396 0.0048246706 
  559000     294.3216    2867.3945        24389     26.70433   -0.0088759 0.0048228914 0.0018755446 
  560000    296.76874    3801.7629        24389    27.470394 -0.0042081776 0.0006909388 -0.0099125711 
  561000    297.26773    3507.1933        24389    28.093804 -0.0011080661 -0.0014433571 0.0036684405 
  562000    296.44878    4506.6128        24389    28.263937 -0.003610993  0.001678111 -0.0061678584 
  563000    297.33429    4705.6023        24389    28.740874 -0.0086298005  -0.01054793 -0.016246639 
  564000    301.08317    5119.2911        24389    29.410598 0.0065499695   0.01148514 0.00087860525 
  565000    300.45611    2662.3643        24389    29.630618 0.0099628016  0.005476502 -0.013652873 
  566000    301.18002    3798.0579        24389    29.594858  -0.01394691 0.0021476098 0.0074538414 
  567000    300.44189    4565.7827        24389    29.549259 -0.0040042548 -0.0036728428 0.00040086071 
  568000    293.04299    4422.2594        24389    29.800484 2.0706348e-05 -6.2039435e-05 0.0056687167 
  569000    298.99505     3890.385        24389    29.981926 0.0091159481 -0.011755691 0.0053052347 
  570000    295.63936    2844.5063        24389    29.934551 -0.0017093049 -0.0049340032 0.0055403422 
  571000    298.55062    2930.0162        24389    29.314998 0.00074691286 0.0099092971 0.0066395609 
  572000     303.3678    4547.7414        24389    28.576257 -0.0038185588 0.0063015737 -0.010843468 
  573000    300.36303    5496.9919        24389    27.552502 -0.0071031747 -0.0082128139 -0.0058983661 
  574000    301.27143     3254.709        24389    26.670353 -0.0015326999 0.0018562519  -0.01678327 
  575000    289.38123    3743.4791        24389    26.159672 -0.0015999568   0.01016342 -0.020213337 
  576000    296.20416    4637.9131        24389    25.820462 -0.0072054167  0.014276087 0.0048225214 
  577000    297.52999    3744.6216        24389    25.957992 -0.0049423846 -0.0020953041 0.0068712516 
  578000    295.31127    4622.9638        24389    26.095943 -0.0052658728 0.0045624858 0.0079268366 
  579000    295.00246    3566.3624        24389    26.404159 0.00060052351 -0.0068121205  0.011379931 
  580000    297.19556    2016.4096        24389    26.899667 0.0011803956 -0.0047208306  0.021327002 
  581000    295.23236    4982.1461        24389    27.075648 -0.010346581 -0.0045279888  0.016918304 
  582000    295.03534     6451.866        24389    26.896349  0.010407991   0.01101922 -0.0019541905 
  583000    300.31715    2525.9759        24389    26.209672 -0.0023834451 -0.0030768735 0.0093070571 
  584000     296.2477    3810.0265        24389    25.824885 -0.0039840085 0.0014681706 0.0006030944 
  585000    300.01836    6031.0914        24389    26.012631 -0.0023786425 -0.013023656  0.008853043 
  586000    298.73777    5236.4686        24389     26.48688 0.0076872543 -0.011340869  0.010734081 
  587000    287.36794    2760.0581        24389    26.598937 -0.0030198826 0.0044107875  0.010910736 
  588000    291.42892    3958.9241        24389    26.542841  0.014639899 -0.010458185 -0.0045509848 
  589000        302.9    3049.8317        24389    26.886105 -0.0022833191 -0.00095013657 0.0055352575 
  590000    301.75944    880.43941        24389    28.226328 -0.0062960136 0.0038482097 0.0016877175 
  591000    296.33788    4086.6848        24389    29.381945 -0.0028159294 0.0081034388 -0.00079120797 
  592000    301.67072     7931.725        24389    29.757063 0.0033790351 -0.011815123 0.0034910238 
  593000    293.04773    4146.8699        24389    30.064166 2.041667e-05 -0.0059292964 0.0054799665 
  594000    298.92296    385.26852        24389    29.619638 0.0012920235 -0.011351195 -0.0081470505 
  595000    299.90748     4721.422        24389    28.104916 -0.008049185 0.00070904754  0.010069899 
  596000    294.95684    7712.8548        24389    27.095339 0.0015120779 -0.0050930557 -0.001019289 
  597000    293.01964    4153.8856        24389    26.195125 -0.0086645083  0.003600009 -0.0048165075 
  598000    294.55111    630.53211        24389    25.244508  -0.01163009 0.0068793626 -0.0078317015 
  599000    301.14472    2850.3675        24389     24.74512 -0.0095821753 0.0074659084 -0.002308178 
  600000    298.82634    6737.9116        24389    24.970716 -0.0022613093 0.00066305853 -0.0088008582 
  601000    298.09919    6056.3198        24389    26.001364 0.0077599331 -0.0038776134  0.011144166 
  602000    303.96719    3393.1702        24389    27.014361 0.0040737899 -0.0027766482 -0.0092905513 
  603000    295.92506    3966.3482        24389    27.177077 -0.015305501 0.00095405522 -0.0030502243 
  604000    291.88951    3180.9661        24389    26.708517 -0.00077065797 -0.0058602622 -0.0038533877 
  605000    299.50474     5392.841        24389    25.867851 -0.0045830954 0.0016769463 -0.010865205 
  606000    288.05886    5280.2003        24389    25.743635 -0.0078856507 -0.0017865422 -0.0067305595 
  607000    290.54705    3320.5908        24389    26.359676 0.0069579207 -0.0035081698 0.00018619005 
  608000    296.43186    2802.1542        24389    26.964175 0.0028491936 0.0026684934 0.0035849834 
  609000    301.43313    3410.6158        24389    26.587889 -1.1584227e-05 0.0027007652 0.0054682604 
  610000    296.23008    5014.3786        24389    25.832532 -0.0032316262  0.021752034 0.0028810644 
  611000    297.85586    4682.2751        24389    25.813356 -0.00060685406 0.0053973578 0.0084784316 
  612000    300.13166    2726.6827        24389    26.079495   0.00736668 -0.0095570874 0.0068734752 
  613000    298.44767    3166.6935        24389    26.385751 -0.0077339182 -0.00060075501 0.0028471374 
  614000    300.34493    5097.1608        24389    26.696227 -0.0023638927 2.2784276e-05 0.0045998802 
  615000    299.13344    4203.3897        24389    27.616788 -0.013706037 -0.0003138972 -0.003245167 
  616000    292.08671    4002.9976        24389    28.582606 0.0032708835 -7.2874773e-05 0.0095522536 
  617000    299.95923    3739.7891        24389    29.267965 0.0011100843 0.0086465912   0.01551011 
  618000    299.17478    2599.9503        24389    29.534983 0.0067430403 0.0075656121 -0.0068550156 
  619000     295.4527    3337.3515        24389    29.026832 0.0056282465  0.014588288 0.0049799871 
  620000    296.55428    3947.3416        24389    28.337401 0.0020832862 -2.8618705e-06 0.00050949608 
  621000     295.1042    5586.9522        24389    28.096003 -0.013969325 -0.010287335 -0.00017728629 
  622000    290.90459    3881.5973        24389    28.459884  -0.01216302 -0.0032081242 -0.010837641 
  623000    293.03998    4285.4926        24389    29.134569  0.015651958 -0.0052195826 -0.010562661 
  624000    290.80189    5284.8741        24389    29.648241 -0.0060363021 0.0088115527 -0.0019510002 
  625000     291.4084    4908.7771        24389    29.839998 -0.0039643167 -0.0082298473  0.010239664 
  626000    297.23296    4703.0258        24389    29.786269 -0.016277581 -7.7665917e-05 -0.0075560359 
  627000    296.80944    3051.2978        24389    29.619594 0.0083757221 0.0018893676 -0.003337884 
  628000     292.4863     3929.652        24389      28.8962  0.007784311 -0.0043982072  -0.01507495 
  629000    295.74065    4855.4828        24389    28.428236    0.0101959 -0.001305362 0.0047771616 
  630000    297.21115    3628.0939        24389    27.931627 0.0063804574 -0.011137249 0.0035739961 
  631000    303.27654    4586.9721        24389    27.597948 -0.014385667 -0.00092622352 -0.00061985615 
  632000    293.44279     7613.602        24389    28.082959 -0.0034133124 -0.008958714 -0.0044109915 
  633000    293.32919    4701.0785        24389      28.5266 -0.0016082908 -0.0084958271 -0.0049506526 
  634000     289.6349    449.10921        24389    28.640114 0.0068277644 -0.0033643611 -0.0081488425 
  635000    300.00111    2850.1085        24389     28.37736 0.0061878632 -0.0035677459 -0.0069547519 
  636000    297.94021     6343.586        24389    27.686808 0.00089718973 -0.0050399932  0.017474466 
  637000    294.57631    8506.0336        24389    26.552091 -0.00050590567 -0.018344284 4.0485538e-05 
  638000    290.34844     4669.592        24389    26.038147 0.0076560236 -0.011850975 -0.0085531653 
  639000    295.33836     320.9082        24389     25.67048 0.0026362542 -0.0028065223 -0.017083162 
  640000    299.80733      2080.24        24389    24.785824 -0.0018756812 0.00027759876 0.0046881133 
  641000     297.9327    4480.1791        24389    24.193084 -0.011821799 0.0057797562 -0.0047819254 
  642000    294.38081    3539.3538        24389    23.550672 -0.0015724893 0.0062138893 0.0080362729 
  643000    294.56659     5153.044        24389    23.557542 -0.0099035053 0.0014768996 -0.0063733524 
  644000    294.11549    3669.9175        24389    23.589644 0.00063844103 -0.003877607 -0.0031616058 
  645000    298.52601    2681.8147        24389    24.417059 0.0061697653 -0.0075900705  0.016706459 
  646000     292.1758    3119.7244        24389    25.936282 -0.0048149515 -0.0044071232  0.010227044 
  647000    297.09061    6259.1505        24389    27.335341 -0.011058712 -0.012892347 0.0019123301 
  648000    298.96511    3856.6842        24389     28.69678 -0.0014036316 0.0021353548 -0.0059185718 
  649000    299.63961    3266.6879        24389    29.511053 -0.010144115 -0.0056026849  0.005357278 
  650000    294.48499     5310.161        24389     29.34957 -0.0084174529 -0.0014950476 -0.0023239979 
  651000    297.07721    6767.4342        24389    29.084787  0.011078873  0.013396196 0.0017402493 
  652000    298.11474    3597.8262        24389    29.013579  0.011755422 -0.011664879 -0.009674433 
  653000    294.56401   -1701.7644        24389    29.172068  0.010318099 -0.0053704047 -0.011716305 
  654000     298.7908    4584.2011        24389    28.950491 0.0058019452 0.0025941366  0.005092637 
  655000    299.19885    9710.5696        24389    28.829072 -0.00058452259 -0.005620312 -0.0046999297 
  656000    296.65822     5047.951        24389     27.98482 0.0091163602 -0.0010938482 -0.0054552866 
  657000    294.75887    1090.6836        24389    27.248885 -0.0060430786  0.004214295 -0.0063037751 
  658000    299.49977    2335.6002        24389    27.034746   0.01172411 -0.0066376904 0.0017542502 
  659000    296.41953    4958.6606        24389    26.802506 -0.010419221 0.0010689704 -0.0003338243 
  660000    301.72603     3874.697        24389    25.958812 -0.010682957 0.0032065528 -0.0090685867 
  661000    299.63188    6091.1175        24389    24.960302  0.011015912 -0.0055304337 -0.0044185446 
  662000    298.43666    4409.1289        24389    24.365979 -0.016929114 0.0051972198 -0.0003758964 
  663000    297.45832    3155.9958        24389    23.381202 -0.0041116407 0.0018812246  0.012225444 
  664000    296.27626    3282.4173        24389    22.814178 0.00086265191 -0.0033872583 0.0076659312 
  665000    297.57518    4882.5588        24389    23.520039 -0.0049123039 -0.0020877767 0.0017369545 
  666000    292.20631    5517.4463        24389    24.701199 -0.00081918031 -0.00087760969 -0.0033901023 
  667000    293.66332    3619.2034        24389    25.388164 0.00044204333 0.0023083473 0.0081471022 
  668000    295.07377    4019.7203        24389    25.764737 -0.0082431295 0.0030775605 -0.0013150991 
  669000    298.06744    6507.9552        24389    25.820361 0.0079084228 -0.0064904956 -0.0079964584 
  670000    291.23598    5489.4893        24389    26.060925 -0.012883988 -0.0094899565 0.0010081948 
  671000    289.56466    4165.9329        24389    26.340336 0.0066143126 0.00027628349 0.0064710678 
  672000    293.42016    2393.7092        24389    26.141515 -0.0077199521 -0.0080703003 -0.0019177686 
  673000    301.80867    5437.3776        24389    25.899461 -0.0061095023 -0.00047638574 0.0037302612 
  674000    299.87939    4324.0873        24389     26.07291 0.0038068442 0.0053768913 0.0013509292 
  675000    302.64193    3114.9868        24389    26.087224 -0.0057251704 -0.0093536633 -0.00057547007 
  676000     296.2992    4873.0448        24389    25.840096  0.004119212 -0.010186661 0.00038634157 
  677000    294.27304    3995.2305        24389    25.713183 -0.00056188096 -0.011726501 -0.0023622483 
  678000    296.01577    4883.4099        24389    25.623153 0.00041037827 -0.0046299666  0.010035092 
  679000    298.80942    3586.5331        24389    25.870661 0.00079718808 0.0098389614 -0.0026825801 
  680000    300.16311    3730.7702        24389    26.531492 -0.0059166723 -0.0049675157 0.0050571038 
  681000    292.66877     5121.333        24389    27.121696 0.0027984529 -0.00073477169 0.0023157887 
  682000    298.55791    5865.5328        24389    27.074918 -0.0091574895 -0.00027356788 -0.0022847577 
  683000    289.67835    4066.2468        24389     26.96363 -0.00076601353 -0.0084609771 -0.00097891236 
  684000    293.54951    3806.5849        24389    26.389496 -0.0043530258 0.0011311271 -0.020455039 
  685000    301.40258     4101.966        24389     26.18129 0.0014738902 0.0012210013 -0.011187337 
  686000    300.02855    4552.4682        24389    26.637223 -0.0049027938 -0.010835935 0.0046465227 
  687000     294.0532    3095.4827        24389    27.199673 -0.0016088451 0.0058167077 -0.0090269578 
  688000    297.49088    3097.8231        24389    27.385411 -0.012353216 -0.011182877 -0.011608068 
  689000    287.89061    4021.8261        24389    27.418687 -0.0066036512 0.0055878349 0.0051253174 
  690000    294.00966    3125.7774        24389    27.688644 -0.013519679 -0.0091386824  0.002904053 
  691000    298.47752    4900.3366        24389     27.66201 -0.0064453299 -0.0028766973 -0.011323639 
  692000    300.09577    4547.1564        24389     27.47209 -0.011236732 0.0054706258 -0.0080844917 
  693000    295.47233    5429.5995        24389    27.242461 -0.011196884 0.0012857227 0.0031749006 
  694000    302.91354    3149.4526        24389    26.773104 -0.0013270271 0.0013041671 -0.0053111028 
  695000    291.24703    1137.7383        24389    26.559276 -0.0022186212 0.0086194977 0.0025764291 
  696000    292.56844    5265.5131        24389    26.002075 0.0032735106 -0.0081369441 0.0077591425 
  697000    292.02107    6458.9357        24389     25.43415 0.00086675448  0.018051701 0.0013000712 
  698000    291.55789    1599.1188        24389    25.618824 -0.021058707 -0.016364978 -0.0038832917 
  699000    296.23457    2669.9296        24389    25.916805 -0.0064021526  0.012026201 -0.0079012571 
  700000    292.34519    5561.3743        24389    26.038302  0.011950656 0.0010322828 -0.014401487 
  701000    294.41352    5223.2222        24389    26.192725 -0.00024404021 -0.0010489221 -0.0030389737 
  702000    290.31794    514.53709        24389    25.853316 0.0059630431 0.0064145414 -0.0039722164 
  703000    294.69877    4340.9146        24389    25.654735 -0.0053781849 0.0063052469 -0.013323854 
  704000    297.81227    6961.9593        24389    26.055753 -0.0077130758 0.0090993594 0.0043056411 
  705000    298.10313    4089.9935        24389    26.963453 -0.00051828508  0.010641308 0.00033023218 
  706000    299.48663    1180.6252        24389    28.404725 -0.0029799115 -0.0041689711 0.00058972688 
  707000    301.63887    5346.5548        24389    28.952759 0.0087967379 0.0050043251 0.0019328835 
  708000    299.19972    3656.7985        24389    29.699217 0.0015850226 -0.010275391 0.0013788654 
  709000    302.93617     3906.889        24389    29.988753 -0.012022815 0.00089780376 0.0038480874 
  710000    298.71249    5643.5794        24389    29.764691 -0.010263686 0.00058533064 -0.002949812 
  711000    301.68887      4793.13        24389    29.769129 -0.0018730824 -0.00035342428 0.0072183899 
  712000    296.60246    3764.3746        24389     29.36922 0.0023543318  0.010555656 -0.00022917502 
  713000     291.5694    2486.3006        24389    28.742956 0.0062831828 0.0036889947 -0.0028466487 
  714000     292.9754    4977.6758        24389    28.162437 -0.0055879993 -0.00032035133 -0.0042018915 
  715000    293.49315     5501.595        24389    27.891274 0.0052661054 0.00080189735 -0.0048153018 
  716000    295.47494      1702.05        24389    28.335575 -0.0076080544 -0.0065123892  0.011767805 
  717000    296.53752    2691.8776        24389    29.100647 -0.015550393  0.023415601 -0.0031822419 
  718000    289.37057    3800.0165        24389    29.661675 -3.2237713e-05  0.013269788 0.00034787907 
  719000    294.22526    6428.2642        24389    29.353224 6.1324858e-05 0.00070604563 -0.00030835588 
  720000     294.9025    6577.1929        24389    28.563094 -0.0036927993 -0.00098268546 -0.0094335358 
  721000    300.74558    3527.9517        24389    27.677372 -0.0014045046 -0.012236034 6.6998936e-05 
  722000    293.09785    1754.2204        24389    27.085594 -0.0043947416  -0.01125404 0.00036510264 
  723000    296.90418    2571.9951        24389    27.179455 -0.0027653076 -0.00036693164 -0.0012953491 
  724000    306.18229    3658.7768        24389    27.651852 -0.0060579819 0.0012028373 0.0079572264 
  725000     297.0366    6321.6003        24389    28.413267 -0.00046204065 -0.0050592474 -0.012303146 
  726000    301.57225    3761.3352        24389    28.990015 -0.0042929776 -0.010278426  0.010006254 
  727000    297.97695    4937.0194        24389    29.116692 -0.00033856711 -0.013831103 -0.015079548 
  728000    290.15075    6294.2433        24389    28.632681 0.0013757338 -0.0021342985 -0.0078002239 
  729000    292.00757    5093.2502        24389    28.210227 -0.0085338651  -0.01827372  0.020626116 
  730000    294.03773    3632.3098        24389    27.955446 -0.0071274412 -0.006321556 0.0056264728 
  731000    297.23391    3545.7473        24389    28.376615 -0.0033464344 -0.0091680373  0.005972082 
  732000    292.68868    5949.8764        24389    28.806592 0.0068429318 -0.010842778 -0.0087010377 
  733000    288.51046    3553.5131        24389    29.065771 0.0018449946 0.0010058415 -0.0070580872 
  734000    295.76038    2997.5233        24389    28.677087 0.0027457529 -0.0040497077 -0.012005803 
  735000    291.86168    3639.1133        24389    27.910788 -0.001888201 -0.0078638969 0.0050555703 
  736000     293.7529    3236.0495        24389    27.148882 7.8754165e-06 -0.0058859798 -0.00062393231 
  737000    297.22791    4210.0436        24389    26.390125 -0.0029570193  0.014220233 -0.0017661233 
  738000    297.35355    6357.2958        24389    25.745149 -0.0027039465 0.0064595904 -0.008822149 
  739000     294.1376    3255.5797        24389    25.046732 0.0014545028 -0.013288055 -0.0064928157 
  740000    296.63539    2165.1327        24389    24.800169 -0.0026281124 -0.021117757 0.0068642754 
  741000    301.05671    6755.6877        24389    25.105781  0.019731987 -0.0025082539 -0.0086714538 
  742000    297.69442    6213.6153        24389    25.411611 0.0078793204 -0.014868631 -0.018352881 
  743000    291.07188    3563.1008        24389    26.296475 -0.0058175554 0.0043634347 -0.005134944 
  744000    294.26022    3247.1592        24389    27.012003  0.012262068 -0.0019852202 -0.0031446425 
  745000     293.1781    3149.8301        24389    27.115613 -0.0029551553 -0.0026177534 0.0022072725 
  746000    298.77639    4315.9342        24389    27.431245 0.0069558468 -0.0038398253 0.00092369219 
  747000    292.31552     6489.795        24389    28.264276 0.0068291512 -0.0060528962 0.0085866123 
  748000    294.13732    2597.2004        24389     29.48236 -0.0041736764 0.00027112115 0.0070150536 
  749000    294.86328     1497.209        24389    30.063529 8.2672008e-05 0.0036744078  0.013852788 
  750000    292.87412    2859.5067        24389    29.575145  0.010359415 -0.0025302278 -0.001732319 
  751000    297.64517    6043.7777        24389    28.938202 -0.012021823 -0.0083052991 -0.013102762 
  752000     295.2546    3924.1103        24389    28.412617 0.0034898794 0.0012041691 0.00038632536 
  753000    296.62977    2544.6691        24389    28.311507  0.006174892  0.010840978 -0.0097310035 
  754000    298.64211    3267.6395        24389    27.751035 -0.0061534359 0.0043731545 -0.0025239075 
  755000    295.79526    6349.7471        24389    27.076852 -0.0093665499  0.004110802 -0.0017476199 
  756000    293.35331    2679.4067        24389    26.818558 -0.0047846686 -0.0043765442 0.0092093445 
  757000    295.63492    2440.6878        24389     26.26344 -0.0095713727 0.0029415959  0.006022982 
  758000    293.09225    4555.0163        24389    25.845477 -0.010946721 0.0069828008 0.0023109968 
  759000    304.09682    6549.2051        24389    25.421505 0.0070382646 0.0071110454 0.0068056682 
  760000    293.19513    5073.4709        24389    25.490458 -0.0054544976 0.0099727602 -0.0094656515 
  761000    298.49198    2767.9801        24389    26.223289 -0.0034706227 -0.0092052092 -0.0047840234 
  762000     291.4409    3237.4823        24389    26.815363  0.002727355 -0.001374747 -4.3543733e-05 
  763000    293.88391    4394.7329        24389    26.615437 -0.0069087852  0.003721113 -0.0099330166 
  764000    298.99687    3786.1908        24389      25.7873  0.017505558 -0.0034146927 0.0072787167 
  765000    296.29051    6435.8485        24389    24.799736 -0.022948372 0.0043053689 0.0095673771 
  766000    298.68539     3193.008        24389    24.724273 -0.0045863365 -0.010710506 -0.0049459261 
  767000    289.89225    2354.8573        24389    24.933976 -0.0077859963 0.0027448416 -0.0047745289 
  768000    297.16833    4678.3868        24389    25.178803 -0.020148045 -0.011679991 -0.00092226253 
  769000    292.33196    6326.9999        24389     25.47334 -0.0067432127  0.014221488 -0.0027345925 
  770000    297.16494    5972.7253        24389    26.149039 -0.0078243748 0.0017283535  0.010117995 
  771000    297.54604    3589.4907        24389    27.018158 -0.0046301349 0.0020628162 0.0058763517 
  772000    296.43242    2846.5662        24389    27.348661 -0.011439364 0.0031723852 -0.0059739965 
  773000     295.9507    3266.9439        24389    27.019562 -0.0034222454 -0.0079376967 0.0082016263 
  774000     294.7741    4606.6618        24389     25.93993  0.010064621 0.00073128095 0.0030913706 
  775000    297.13087    5223.0106        24389    24.880217 -0.0060504789 -0.015549551 0.0055976381 
  776000    298.78926    3909.7081        24389    24.999221 -0.0020887034 -0.011375251 -0.009848747 
  777000    290.88584    3748.3702        24389    25.607165 0.0081150507 0.0088641088 0.00024423036 
  778000    298.43209    3326.9347        24389    25.933385 -0.010951791  0.011846345   0.01050068 
  779000     303.8744    5281.7999        24389    25.917672 -0.006923116 0.0058538464 -0.003048244 
  780000     299.2817    2823.6374        24389    25.255854 -0.0090940319 -0.0053846857 -0.0016295039 
  781000    298.43513    985.95023        24389    24.816183 0.0079691967 0.00024371631 -0.0020871593 
  782000    295.02784    4981.7998        24389    24.471395 -0.011929886 -0.0027140028 9.9821611e-06 
  783000    292.72979    6626.5038        24389    24.550327 0.00075812286 -0.0011054593  0.015592699 
  784000    296.84307    4339.3297        24389    24.945915 0.0022112134 0.0041497687  0.011009924 
  785000    293.29003    4172.9362        24389    25.217551 -0.017115346 0.0086319452 0.0053615973 
  786000    295.61949    1998.7058        24389    25.818955 -0.0011604966 0.0018250482 0.0070778135 
  787000    294.43597    841.64719        24389    26.434315 0.00080055513 0.00069017655 -0.0081992614 
  788000    292.55044    4111.8657        24389    26.767473 0.00048796637 -0.010554304 -0.0042927377 
  789000    296.65526    5827.1066        24389      27.4795 -0.011145824 0.0057587159 -0.0010611079 
  790000    298.30154    5831.9246        24389    28.137286 -0.015857701 -0.0044288612 -0.0019272403 
  791000     292.3688    1242.8481        24389    28.976781 -0.0031802211 -0.0094994318 -0.033293436 
  792000     292.8179    3134.6585        24389    29.259184 -0.0030778987 0.0062999048  0.011613258 
  793000    294.83957    5296.1799        24389    29.610238 -0.0016177746 0.0040346273 -0.00033623858 
  794000    297.46166    5220.2869        24389     29.17642 0.0057185037 -0.0034922907 0.0044577366 
  795000    294.47419    4809.4646        24389    28.413989 0.0040074121 -0.0011601998 -0.017987139 
  796000    299.45136    1720.9349        24389    27.465633 0.00077418798 0.00064969664 -0.015066842 
  797000    294.19373     1858.864        24389    27.177941 -0.0067644457 -0.00080603646 -0.0061483454 
  798000    288.88936    6303.9111        24389    27.710977 0.00022850737 -0.0080336808 0.0073227382 
  799000    298.37068    3397.4617        24389    28.790454 -0.0053068906 0.0016776934 -0.0032187156 
  800000     291.4407    4505.7399        24389    29.865401 0.0043099203 0.00088428884 0.0066667004 
  801000    296.89961    6229.3724        24389    30.388825 -0.0077823682 -0.0084367664 -0.0099740591 
  802000    291.31719    3820.9026        24389    29.840049 -0.0033037766 -0.00070695686 -0.0012347208 
  803000    293.03324    3617.8803        24389    28.739086 0.0009581781 0.0020469551   -0.0191355 
  804000    302.65088    5351.7836        24389    28.213967 0.0067064617 -0.013726638 0.0084575344 
  805000    295.70759    4283.0787        24389    28.075102 -0.0002431658 0.0042184397 0.0019914333 
  806000    296.77779    3337.0165        24389    27.992381 -0.0060412564 -0.016780732   0.01106276 
  807000     290.4694    4471.3558        24389     27.70308  0.014224451 0.00054492291 -0.0054086117 
  808000     291.1188    4318.3117        24389    27.425533 -0.0003198697 -0.0049660504 0.0069912703 
  809000    293.90558    2696.9286        24389    27.647673  0.011489532 -0.0020077558 -0.0080290412 
  810000     290.1248    3933.6172        24389    27.793229 0.0063642169 -4.4896932e-05 0.0035580274 
  811000    292.99692    6380.8724        24389    27.898024 -0.008173398 -0.0048346327 -0.0093162634 
  812000    300.12048     4130.479        24389    28.490892 -0.006498053 0.0022156515 -0.0083743008 
  813000    296.05726    2448.4117        24389    29.368849 -0.010187661 0.0043018816 0.00054343939 
  814000    297.44418    2319.8702        24389    29.594957 0.0012271886 0.0041623193 -0.0048964984 
  815000    298.14358    4051.4294        24389    28.995072  0.012419428 0.0038279944  0.017471121 
  816000     297.9535    4385.2489        24389    28.371574 0.00091730175  0.012142349  0.001228548 
  817000    295.16061    2391.9303        24389     27.87625 -0.00016176664 0.0048539732 -0.0022625243 
  818000    294.06485    4600.1854        24389    27.495528 0.0026492811  0.010473587 -0.017461058 
  819000    293.99307    4713.9253        24389    26.499662 -0.0083260459 0.0028782789 -0.0082522795 
  820000      298.525    6045.3325        24389    25.568291 -0.005600296 -0.0046380052 -0.010950956 
  821000    302.23453    4398.8249        24389    24.773261 0.0061318715 0.0029928736 -0.0032593353 
  822000    299.56857    1832.2743        24389    24.743001 -0.0054965898 -0.0053293499 0.00011389696 
  823000    297.89693     5535.439        24389     25.10134 0.0012011456 -0.011007078 0.00094129198 
  824000    290.10604    5840.6573        24389     25.80962 -0.0082710608 -0.00054096525   0.01446381 
  825000     291.2533    5490.4927        24389    26.464401  -0.01331612 -0.00024566881  0.010727793 
  826000    293.91149    2582.5074        24389    27.311419 0.0030246333 -0.0021042338 -0.0093235928 
  827000    296.91642    112.76792        24389    28.355516 -0.0080061659 0.0020078338 0.0074300029 
  828000    296.88961    4275.3544        24389    29.036831 0.0045272468  0.013307842 0.0096174818 
  829000    297.72283    7609.1345        24389    29.433461 -0.0013971705 -0.0048353144 -0.0099786087 
  830000    297.10143    964.75641        24389    29.942247 -0.0049760681 -0.0014366704 0.0059061399 
  831000     287.4755    2107.6303        24389    30.239979 0.0025431565 -0.001307838   0.01711068 
  832000    294.67658    5491.7435        24389    30.616337 0.0017427522 0.0074727252 0.00053906862 
  833000    306.18566    5111.3559        24389    30.374625 -0.0030556878 0.0061893522 0.0029091736 
  834000    287.42369    3487.0445        24389    29.909414 -0.00065716934 0.0035108942   -0.0117626 
  835000    299.21024    3158.9702        24389    29.463047 -0.0054526287   0.01041523  -0.01012344 
  836000    300.08778    4639.2179        24389    29.023905  0.004708126 -0.0035331651 0.0042753262 
  837000    303.30699    4045.9548        24389    29.141756 -0.001956502 -0.012948085 0.0037169055 
  838000    300.21645    1533.5626        24389    29.296828 -0.0030807826 0.0015450254  0.008915128 
  839000    296.77534    1451.2214        24389     29.11778 0.0084003631 -0.0003524116  0.010593733 
  840000    292.42516    2698.2016        24389    28.869763 -0.0098671175 0.0011189641 -0.0048477878 
  841000    290.08623    5292.9595        24389    28.487668 -0.021470594  0.011903386 -0.0036708037 
  842000    298.46515    3615.4823        24389    27.780024 0.0024986752  0.009473957 0.0016713488 
  843000    301.73939    2636.3577        24389    26.973906 -0.0084233913 -0.0049265714 -0.014512664 
  844000    297.88461    3813.8564        24389    26.877085 -0.0057365041 -0.0092304458 -0.014981765 
  845000    291.55711    4125.5275        24389    27.367124 -0.018205282 -0.0044094759 -0.0067691009 
  846000      291.312    3829.5451        24389    27.533773 -0.011279901 0.0076533702 -0.0054374674 
  847000    297.15778    1919.6029        24389    27.528554 0.0086394582 0.00057160151 -0.0041480606 
  848000    297.20373    3749.2105        24389     27.40249 -0.0031907339  0.007237065 -0.0033540111 
  849000    293.58041    3893.0196        24389    27.453937 0.0039833781 -0.00094887735 -0.014370923 
  850000    291.34086    4742.0693        24389    26.927189 0.0097298349 -0.00078820118 -0.0088424088 
  851000    296.05326    4427.5327        24389    26.617105 0.0017335606 0.0010712873 -0.0040146067 
  852000    291.63804    2053.1323        24389    26.920951 -0.0042922747  0.017545294 -0.007592766 
  853000    301.80751    7032.2613        24389    27.772809 0.0038265626  0.019062848  0.010387822 
  854000    296.74099    4260.4217        24389    28.495523 -0.0015559567 -0.0029766743 -0.0030834458 
  855000    298.30395    2607.8532        24389    28.596587 0.0081514877 0.0095266286 -0.0061473393 
  856000    292.76214    6142.9964        24389    28.544379   0.01096091 0.0035536285 0.0049939549 
  857000    290.90224    6327.8082        24389     28.40041 -0.00083029072 0.0015995704 -0.0010757609 
  858000    289.35373    2774.5811        24389    28.012866  0.012453957 0.0044038291 -0.011618993 
  859000    295.94695    4914.3326        24389    27.188523 -0.0054640228 -0.0025997073 0.0095634483 
  860000    290.58239    4839.9576        24389    26.050154  0.001293285 0.0094831927 -0.008391627 
  861000    296.73118    3304.3134        24389    25.159282  0.014305389 0.0033924235 0.0058939592 
  862000    300.52873    1937.4063        24389    24.693187 -0.0096759979 -0.00093870408 -0.0023177924 
  863000    300.23992    5112.7934        24389    25.190517 -0.0050720085  0.003410326 -0.008326162 
  864000    301.74227    6020.8662        24389    26.433239 -0.0029739836  0.010275799 -0.0061083625 
  865000    297.73449    4612.8638        24389    27.496993 0.0028527234 0.00093326727 -0.010539493 
  866000    293.70067    2579.3783        24389    28.199916 0.0021357942 -0.0037340594  0.009157434 
  867000    295.47042    3490.6758        24389    28.905166 -0.0034319512 -0.019358669 -0.0015658504 
  868000    302.59645    2878.0821        24389    29.166077 -0.0015319089 0.00068104021 0.0090421223 
  869000    290.64209    5106.9982        24389    29.208742 -0.0015059746 -0.003445184  0.016628481 
  870000    298.44247    4050.2737        24389    29.198527 0.0033511554   0.01549615  0.011753008 
  871000    291.68587     5181.168        24389    28.733293 0.00093188114 -0.0035776073 0.0074936213 
  872000    295.68733    5151.2317        24389    28.081467  0.010379451 -0.001978864  0.011990119 
  873000    292.59026     3460.858        24389    27.291772  0.010374938 0.0082463089 0.0060413552 
  874000    295.78504    3610.5936        24389    26.848564 -0.0060063377  0.016229128 -0.0027865855 
  875000    297.33087       5046.5        24389    26.827756 -0.00067892517  0.014844138  0.011528138 
  876000    297.38612    6346.3112        24389    27.301346 0.0016068793 0.0024835175 -0.014591147 
  877000    298.26375    4428.9408        24389    27.993671 -0.014698088 -0.011529004 -0.022902059 
  878000    292.82602    117.82338        24389    28.928061 -0.00035532615 0.00014240733 0.0026263594 
  879000    293.29631    4445.8271        24389    29.150025 0.0049118932 -0.0031473517  0.003392023 
  880000    298.48572    5582.5939        24389    28.614765 -0.0060235709 -0.0011385194 0.0011720231 
  881000    300.94751     4790.046        24389    27.491494 -0.011992703 0.0030623317 -0.0041729774 
  882000    288.32827    4305.2188        24389    26.443582 -0.0059496302  -0.01350856 0.0043023063 
  883000    290.21999    2674.7201        24389    25.878006 -0.00027976294 -0.0071358729  0.005658685 
  884000    299.99854    4295.1235        24389    25.812707 -0.00047768603 0.0065988605 0.0031217162 
  885000    295.87532    5235.7575        24389    26.329646 -0.0022565675 -0.0072607175 0.0045150212 
  886000    299.97268    4631.5261        24389    26.792127 -0.010201679 -0.002695604 -0.0020327294 
  887000    294.95252    6353.3433        24389    27.282784 0.0074503003 -0.0049875647 -0.00069233266 
  888000    291.86909    4093.9502        24389    27.477161 0.0082947241 -0.0066783231 -0.0012841047 
  889000     293.9596    2455.4269        24389    27.533992 -0.0014295121 -0.0089256654 -0.010109765 
  890000    296.15812    2827.0306        24389    27.477141 -0.019241153 -0.0022210751 -0.0076411443 
  891000    295.47285    2602.2805        24389    26.807399 -0.013279866 0.0032537307 0.00074739368 
  892000    292.63405    3158.0729        24389    26.582665 -0.0014535335 -0.0086510738 0.0081988905 
  893000     299.3247    4818.4197        24389    27.145205 0.0094249229 -0.0067634214 -0.0005254657 
  894000    298.54342    5806.7288        24389    27.243579 -0.011787432  0.007823653 -0.018605459 
  895000    294.26446    3024.8999        24389    27.478642 -0.00022706701 0.0094817574 -0.0043816436 
  896000    298.91318    1370.8299        24389    28.037135 -0.0013193818 0.0044599373 -0.0046272134 
  897000    295.47687    5361.9936        24389    28.596457  0.011536205 0.0082657639 0.00035469436 
  898000    298.27963    5284.8853        24389    28.753015 0.0076155862 -0.00064658489 0.0089951648 
  899000    294.58937    4100.3598        24389    29.077038 -0.0056298758 0.00072590628 0.0013340273 
  900000    293.97143     2570.933        24389    29.399029 0.0020853531  0.010010244  0.005176454 
  901000    278.99642    2875.4269        24389    29.171172 -0.011577432 -0.0052264329 0.0070372982 
  902000    283.25629    6295.8257        24389     28.19514 -0.010339713 -0.00037835028 0.0034678227 
  903000    296.88877    5137.2658        24389    27.525016 -0.0061687617 0.0046665408 -0.0011117625 
  904000    298.90023    878.54502        24389    27.478751 -0.0072114634  0.004147033 0.0041204058 
  905000    298.67686     1567.541        24389    28.051867 0.0056060513 -0.0010380589 0.0084221168 
  906000    297.62362    3435.2229        24389    28.951818 -0.0065364118 -0.012413213 -0.0032127559 
  907000    296.58284    5654.5696        24389    29.513986  0.010639785 -0.0023741906  0.014452063 
  908000    300.24731    4322.9994        24389    29.443946 -0.0085145739 0.00025163755 0.0064408178 
  909000    295.81115    2644.3042        24389    28.791199 -0.0047069736 -0.0093497071 -0.0040152282 
  910000    291.63769    3760.6432        24389    27.490193 0.0016936582 0.0014044884 -0.006232442 
  911000      303.859    4297.0624        24389    25.742607 0.0036682943 0.0031526422 -0.0093669321 
  912000    298.79603    4298.8633        24389    24.246062  0.010460163 -0.0042086181 0.0028974431 
  913000    295.55203    3031.3847        24389    23.294881 0.0017888814 0.00017131753  0.010367398 
  914000    296.95181    2665.0797        24389    23.238381 -0.0053029548  0.012507973  0.006665412 
  915000    296.34388    4180.5626        24389    24.210206 0.0068815282 -0.0083163585 0.0058459782 
  916000     291.3078    4149.1922        24389    25.777876 -0.0031133241 -0.0025090824 0.0076812112 
  917000    292.83431    3140.0838        24389    26.778701  0.007898435 0.0095916427 0.00025564546 
  918000    287.93509    6474.3861        24389    27.623639 0.00075355146 0.0019360538 -0.00036228613 
  919000    293.57982    5353.5048        24389    27.844509  0.012835078    0.0048009  0.004419337 
  920000    288.41703    4048.3459        24389    27.968399 0.00092059689 -0.0016197769 0.0091263235 
  921000    302.49871    3351.8576        24389    28.405295 -0.0038570351 -0.0060750248 -0.0069082531 
  922000    294.12625    3667.4667        24389    28.523687  0.011246482 0.0042563111 -0.0030890779 
  923000    286.49123    4627.2664        24389    28.633003  0.012070485 0.0084171005  0.008816737 
  924000    293.40783     5227.689        24389    28.209638 -0.0024538866 -0.0074416653 -0.0087871701 
  925000    297.76723    4509.7274        24389     27.90211 0.0059754006 -0.0035002739 0.0017943495 
  926000    299.29556    5005.8704        24389    27.545539 -0.0046436495 -0.0017067705 -0.0012355149 
  927000     293.5082    4809.5162        24389    27.283559 0.0079983511  0.012082289 -0.0015545592 
  928000    299.70419    1190.0421        24389    26.410672 -0.002344245 -0.0045169808  -0.01316368 
  929000    295.83684    3602.5048        24389    25.823479 0.0023602772 -0.0064628071 0.0055305917 
  930000    292.81657    3320.1978        24389    26.132695 -0.0066836658 -0.017939058 -0.00021096414 
  931000    300.11519    5817.4616        24389    27.075612 -0.0027838222  -0.01360705 -0.010464058 
  932000    292.11816    4738.8063        24389     28.38251 -0.0005483092 0.0066208666 -0.019963286 
  933000    293.50648    3466.5329        24389    29.985121 -0.00052123225 0.0046328875 -0.0044529537 
  934000    296.73384    3260.6372        24389    31.093414 -0.0033915812 0.0017596275 -0.010768805 
  935000    292.16022    5518.8584        24389    31.218189 -0.0041991739 -0.0042322594 0.0040941962 
  936000    291.82846     5433.366        24389    30.474993 -0.0014759799 0.0086166062 -0.0099243005 
  937000    292.46257    3700.9017        24389    29.416552 0.0063191013 -0.00023065549 -0.00057849396 
  938000    294.23263     2136.485        24389    28.241894 -0.0013679541 -0.00012017907  0.010548558 
  939000    292.69637    4381.5629        24389    26.642351   0.00733891 -0.019123882  0.002651612 
  940000    299.65327    4849.0137        24389     25.37748  0.015080346 0.0072536471 0.0045836668 
  941000    291.72879    2156.2279        24389    25.220185 -0.0034459168 0.0045418744 0.0033269447 
  942000     298.0843    433.26691        24389    26.185441 -0.0057178633 -0.0026028592 0.0055004378 
  943000     295.9621     4169.721        24389    27.379681 -0.0021939827 0.0046308052 0.0062597153 
  944000    297.67016    7041.1423        24389    28.337515 -0.0035969369 0.0013966057 0.0057094433 
  945000    295.91725    3909.7833        24389    29.156065 -0.0052239319 -0.0093743889 0.00064496838 
  946000    294.71503    2152.5364        24389    29.369273 -0.0058823263 -0.0064065957 -0.0017010899 
  947000    297.41674    3114.4465        24389    28.758676  0.012507108 -0.0064141542  0.019117878 
  948000    294.71966    5715.5907        24389    27.238139 0.0010592331 -0.006451393 0.0087329134 
  949000    300.16921    6286.1183        24389    26.115267 -0.0070528183 -0.010721596 -0.00026183696 
  950000    297.26073    3036.6775        24389    25.604886  0.001002858 -0.00092202219 0.0050555928 
  951000     305.3785   -887.36608        24389     25.54931 0.0014231145  0.006754857 0.0055905441 
  952000    305.24651    2382.9671        24389    25.961487  0.010081712 -0.0069195386  0.013534223 
  953000    301.20812    6569.8044        24389    26.507165 0.0034052985 -0.0051257489 -0.0051451253 
  954000    295.79589    5730.3902        24389    27.546061 0.0035846685 0.0012007247 -0.0073632684 
  955000    291.85991     2640.164        24389    28.779256  -0.00232208 -0.00056387821 -0.0072698552 
  956000    291.48724    3752.1724        24389     29.74242 -0.011701652 0.00099993488 -0.005063633 
  957000    293.69185    3326.0855        24389    29.791611  0.012572474 -0.012138751 -0.0094321511 
  958000    295.11736    5113.4447        24389    29.112081 -0.005236137 0.0071944954 0.0049010474 
  959000    298.26915    4648.4115        24389    27.187475 -0.00079573127 -0.0044122287 -0.0017678032 
  960000    289.99841    1241.6844        24389    25.987232  -0.00629864 0.0054827978 -0.016509684 
  961000    297.40527    3691.3061        24389     25.82158 0.0049908543  0.001615964 -0.0020625778 
  962000    294.97695    4869.8842        24389      26.1901 0.0078924761 -0.012244313 -0.0052640173 
  963000    302.01478    4111.2493        24389    26.525041 -0.0044984024 -0.0076348557 -0.012552572 
  964000    299.28661    3542.9177        24389    26.808963 0.0078068613 -0.006747274 -0.0018433266 
  965000    294.42198    1705.3384        24389    27.187294  0.009659585 0.0054459678 -0.0033389489 
  966000    296.37829    4569.9564        24389    27.729878 0.0085053596    -0.003874 0.0019210477 
  967000    291.06508    3622.5054        24389    28.174063 0.0097482364 0.0019842077 -0.0034304232 
  968000    291.39167     5717.485        24389    28.489512 -0.00012743831  0.002574623 -0.00031537991 
  969000    293.33314    3924.9917        24389    29.014927 0.0013941901  0.014397521 0.0022933166 
  970000    292.36831    3466.8174        24389    29.306306 -0.017216517 0.0058637444 0.0015033948 
  971000    298.17006    5078.5246        24389    29.121874 -0.012567954 0.0055353432  0.013178123 
  972000    292.24728    3887.1855        24389    28.627883 0.0034882411 -0.0067566884 -0.0044075107 
  973000    297.94091     2937.408        24389    28.278672 0.0076047258 -2.5558027e-06  0.010004416 
  974000    300.47458    2968.2676        24389    28.255569   0.01788214 -0.0092970539 -0.001674904 
  975000    295.82033    3910.6987        24389    28.356197 -0.0079343124 -0.015050833  0.010723453 
  976000    293.48487     6169.838        24389    28.614024 -0.015427132 0.0013761046 -0.00095978485 
  977000    291.17727    3376.0457        24389    28.724505 0.00058560761 -0.0028904559  0.010488518 
  978000    297.70657    2606.0865        24389     28.41636 0.0017867341 0.0066428536 0.0031744292 
  979000    297.25394    3189.8363        24389    27.864768 0.0078875149 -0.00040074895 -0.00054768703 
  980000    299.04808       3612.3        24389    27.880359   0.01046325  0.010529399 -0.007482786 
  981000    297.73699    2776.3436        24389    27.829197   0.01521556 0.0033083168 -0.0063133252 
  982000    295.61071    4052.9027        24389    27.592512  0.011399429 -0.011547082 -0.012987479 
  983000    297.63901    5961.1876        24389    27.379636 0.0018475409 -0.0048727772 -0.0027378382 
  984000    289.46207    6608.2026        24389    27.245115 0.0083088505  0.014510653 -0.0067403846 
  985000    304.95957      1905.94        24389    27.403294 -0.011465506 -0.0018935151 -0.0033607895 
  986000    298.54353    1319.7009        24389    27.676901 -0.012257842  0.013937059 -0.00018032381 
  987000    287.87354    2948.9013        24389     28.40455 -0.0051838581 0.0067707493 -0.011026469 
  988000    298.03956    6068.5051        24389    28.555891 -0.0042842296 0.0065200334 -0.014532824 
  989000    283.69175    4733.4625        24389    28.744649 -0.008249809 -0.0081683042 -0.016840366 
  990000    289.48579   -647.88945        24389    28.559803 0.0040905189 -0.011791315 -0.00068749885 
  991000    292.05217    2945.2322        24389    28.036668 0.0028122115 -0.0044879328 -0.016112923 
  992000    290.98526    4419.4669        24389    28.004184 0.0041612808  -0.01544321  0.006290481 
  993000    296.33018    5236.6854        24389    28.489981 -0.011118303 -0.0033386146 0.0058042165 
  994000     293.8456  -0.31429205        24389    28.602383 0.00016040627 0.0084094139  -0.00842787 
  995000    291.25753    3059.7818        24389    28.445601 -0.0048798707 -0.016004298 -0.0043288774 
  996000    292.68688    6746.4964        24389    28.143262 0.0052053085 -0.0040478629 -0.001994378 
  997000    301.08069    5816.5171        24389    28.275734 0.0075250773 -0.011096124 -0.0047045191 
  998000    295.51073    2871.6047        24389    28.408611 0.0096324247  -0.01081613 -0.0061025297 
  999000    292.91709    2718.5015        24389    28.305128 0.00086815219 -0.00069938232 -0.0094739647 
 1000000    292.12373    5262.4908        24389     27.94002 0.0019938578 0.0020860076 -0.012631886 
Loop time of 21151.3 on 16 procs for 1000000 steps with 1920 atoms

Pair  time (%) = 18772.6 (88.7538)
Bond  time (%) = 0.473146 (0.00223696)
Neigh time (%) = 42.7295 (0.202018)
Comm  time (%) = 1891.64 (8.94335)
Outpt time (%) = 2.63287 (0.0124478)
Other time (%) = 441.247 (2.08614)

Nlocal:    120 ave 128 max 112 min
Histogram: 1 3 1 2 0 2 1 4 1 1
Nghost:    4906.06 ave 4929 max 4877 min
Histogram: 1 0 2 1 2 2 3 2 2 1
Neighs:    51768 ave 55650 max 47869 min
Histogram: 1 1 3 2 0 3 1 2 2 1
FullNghs: 103536 ave 110805 max 96306 min
Histogram: 1 1 3 2 1 1 1 4 1 1

Total # of neighbors = 1656576
Ave neighs/atom = 862.8
Ave special neighs/atom = 0
Neighbor list builds = 5082
Dangerous builds = 0
#	run			10000
	unfix			1
	uncompute		myKE
	uncompute		myPE
	uncompute		myStress
	uncompute		flux
	uncompute		myDis
	unfix			JJ

	next seed
	next iseed
jump lmp.in.gk loop_seed
variable iseed loop 10
variable seed index 11111 22222 33333 44444 55555 66666 77777 88888 99999 11110
clear
###########################################################################
#x0
###########################################################################
units 			metal
atom_style		full
read_data		fort.26
  0 = max bonds/atom
  0 = max angles/atom
  0 = max dihedrals/atom
  triclinic box = (0 0 0) to (29 29 29) with tilt (0 0 0)
  2 by 2 by 4 processor grid
  1920 atoms
  0 bonds
  0 angles
  0 dihedrals
  0 = max # of 1-2 neighbors
  0 = max # of 1-3 neighbors
  0 = max # of 1-4 neighbors
  1 = max # of special neighbors
group         		C type = 1
60 atoms in group C
###########################################################################
#OLPS
###########################################################################

################################################################################
#### Pair potentials
################################################################################
pair_style hybrid/overlay tersoff lj/cut 12.0
pair_coeff * * tersoff C.temp.tersoff 1 2 3 4 5 6 7 8 9 10 11 12 13 14 15 16 17 18 19 20 21 22 23 24 25 26 27 28 29 30 31 32
pair_coeff 1 2 lj/cut 0.00070000000 3.5500000000
pair_coeff 1 3 lj/cut 0.00070000000 3.5500000000
pair_coeff 1 4 lj/cut 0.00070000000 3.5500000000
pair_coeff 1 5 lj/cut 0.00070000000 3.5500000000
pair_coeff 1 6 lj/cut 0.00070000000 3.5500000000
pair_coeff 1 7 lj/cut 0.00070000000 3.5500000000
pair_coeff 1 8 lj/cut 0.00070000000 3.5500000000
pair_coeff 1 9 lj/cut 0.00070000000 3.5500000000
pair_coeff 1 10 lj/cut 0.00070000000 3.5500000000
pair_coeff 1 11 lj/cut 0.00070000000 3.5500000000
pair_coeff 1 12 lj/cut 0.00070000000 3.5500000000
pair_coeff 1 13 lj/cut 0.00070000000 3.5500000000
pair_coeff 1 14 lj/cut 0.00070000000 3.5500000000
pair_coeff 1 15 lj/cut 0.00070000000 3.5500000000
pair_coeff 1 16 lj/cut 0.00070000000 3.5500000000
pair_coeff 1 17 lj/cut 0.00070000000 3.5500000000
pair_coeff 1 18 lj/cut 0.00070000000 3.5500000000
pair_coeff 1 19 lj/cut 0.00070000000 3.5500000000
pair_coeff 1 20 lj/cut 0.00070000000 3.5500000000
pair_coeff 1 21 lj/cut 0.00070000000 3.5500000000
pair_coeff 1 22 lj/cut 0.00070000000 3.5500000000
pair_coeff 1 23 lj/cut 0.00070000000 3.5500000000
pair_coeff 1 24 lj/cut 0.00070000000 3.5500000000
pair_coeff 1 25 lj/cut 0.00070000000 3.5500000000
pair_coeff 1 26 lj/cut 0.00070000000 3.5500000000
pair_coeff 1 27 lj/cut 0.00070000000 3.5500000000
pair_coeff 1 28 lj/cut 0.00070000000 3.5500000000
pair_coeff 1 29 lj/cut 0.00070000000 3.5500000000
pair_coeff 1 30 lj/cut 0.00070000000 3.5500000000
pair_coeff 1 31 lj/cut 0.00070000000 3.5500000000
pair_coeff 1 32 lj/cut 0.00070000000 3.5500000000

pair_coeff 2 3 lj/cut 0.00070000000 3.5500000000
pair_coeff 2 4 lj/cut 0.00070000000 3.5500000000
pair_coeff 2 5 lj/cut 0.00070000000 3.5500000000
pair_coeff 2 6 lj/cut 0.00070000000 3.5500000000
pair_coeff 2 7 lj/cut 0.00070000000 3.5500000000
pair_coeff 2 8 lj/cut 0.00070000000 3.5500000000
pair_coeff 2 9 lj/cut 0.00070000000 3.5500000000
pair_coeff 2 10 lj/cut 0.00070000000 3.5500000000
pair_coeff 2 11 lj/cut 0.00070000000 3.5500000000
pair_coeff 2 12 lj/cut 0.00070000000 3.5500000000
pair_coeff 2 13 lj/cut 0.00070000000 3.5500000000
pair_coeff 2 14 lj/cut 0.00070000000 3.5500000000
pair_coeff 2 15 lj/cut 0.00070000000 3.5500000000
pair_coeff 2 16 lj/cut 0.00070000000 3.5500000000
pair_coeff 2 17 lj/cut 0.00070000000 3.5500000000
pair_coeff 2 18 lj/cut 0.00070000000 3.5500000000
pair_coeff 2 19 lj/cut 0.00070000000 3.5500000000
pair_coeff 2 20 lj/cut 0.00070000000 3.5500000000
pair_coeff 2 21 lj/cut 0.00070000000 3.5500000000
pair_coeff 2 22 lj/cut 0.00070000000 3.5500000000
pair_coeff 2 23 lj/cut 0.00070000000 3.5500000000
pair_coeff 2 24 lj/cut 0.00070000000 3.5500000000
pair_coeff 2 25 lj/cut 0.00070000000 3.5500000000
pair_coeff 2 26 lj/cut 0.00070000000 3.5500000000
pair_coeff 2 27 lj/cut 0.00070000000 3.5500000000
pair_coeff 2 28 lj/cut 0.00070000000 3.5500000000
pair_coeff 2 29 lj/cut 0.00070000000 3.5500000000
pair_coeff 2 30 lj/cut 0.00070000000 3.5500000000
pair_coeff 2 31 lj/cut 0.00070000000 3.5500000000
pair_coeff 2 32 lj/cut 0.00070000000 3.5500000000

pair_coeff 3 4 lj/cut 0.00070000000 3.5500000000
pair_coeff 3 5 lj/cut 0.00070000000 3.5500000000
pair_coeff 3 6 lj/cut 0.00070000000 3.5500000000
pair_coeff 3 7 lj/cut 0.00070000000 3.5500000000
pair_coeff 3 8 lj/cut 0.00070000000 3.5500000000
pair_coeff 3 9 lj/cut 0.00070000000 3.5500000000
pair_coeff 3 10 lj/cut 0.00070000000 3.5500000000
pair_coeff 3 11 lj/cut 0.00070000000 3.5500000000
pair_coeff 3 12 lj/cut 0.00070000000 3.5500000000
pair_coeff 3 13 lj/cut 0.00070000000 3.5500000000
pair_coeff 3 14 lj/cut 0.00070000000 3.5500000000
pair_coeff 3 15 lj/cut 0.00070000000 3.5500000000
pair_coeff 3 16 lj/cut 0.00070000000 3.5500000000
pair_coeff 3 17 lj/cut 0.00070000000 3.5500000000
pair_coeff 3 18 lj/cut 0.00070000000 3.5500000000
pair_coeff 3 19 lj/cut 0.00070000000 3.5500000000
pair_coeff 3 20 lj/cut 0.00070000000 3.5500000000
pair_coeff 3 21 lj/cut 0.00070000000 3.5500000000
pair_coeff 3 22 lj/cut 0.00070000000 3.5500000000
pair_coeff 3 23 lj/cut 0.00070000000 3.5500000000
pair_coeff 3 24 lj/cut 0.00070000000 3.5500000000
pair_coeff 3 25 lj/cut 0.00070000000 3.5500000000
pair_coeff 3 26 lj/cut 0.00070000000 3.5500000000
pair_coeff 3 27 lj/cut 0.00070000000 3.5500000000
pair_coeff 3 28 lj/cut 0.00070000000 3.5500000000
pair_coeff 3 29 lj/cut 0.00070000000 3.5500000000
pair_coeff 3 30 lj/cut 0.00070000000 3.5500000000
pair_coeff 3 31 lj/cut 0.00070000000 3.5500000000
pair_coeff 3 32 lj/cut 0.00070000000 3.5500000000

pair_coeff 4 5 lj/cut 0.00070000000 3.5500000000
pair_coeff 4 6 lj/cut 0.00070000000 3.5500000000
pair_coeff 4 7 lj/cut 0.00070000000 3.5500000000
pair_coeff 4 8 lj/cut 0.00070000000 3.5500000000
pair_coeff 4 9 lj/cut 0.00070000000 3.5500000000
pair_coeff 4 10 lj/cut 0.00070000000 3.5500000000
pair_coeff 4 11 lj/cut 0.00070000000 3.5500000000
pair_coeff 4 12 lj/cut 0.00070000000 3.5500000000
pair_coeff 4 13 lj/cut 0.00070000000 3.5500000000
pair_coeff 4 14 lj/cut 0.00070000000 3.5500000000
pair_coeff 4 15 lj/cut 0.00070000000 3.5500000000
pair_coeff 4 16 lj/cut 0.00070000000 3.5500000000
pair_coeff 4 17 lj/cut 0.00070000000 3.5500000000
pair_coeff 4 18 lj/cut 0.00070000000 3.5500000000
pair_coeff 4 19 lj/cut 0.00070000000 3.5500000000
pair_coeff 4 20 lj/cut 0.00070000000 3.5500000000
pair_coeff 4 21 lj/cut 0.00070000000 3.5500000000
pair_coeff 4 22 lj/cut 0.00070000000 3.5500000000
pair_coeff 4 23 lj/cut 0.00070000000 3.5500000000
pair_coeff 4 24 lj/cut 0.00070000000 3.5500000000
pair_coeff 4 25 lj/cut 0.00070000000 3.5500000000
pair_coeff 4 26 lj/cut 0.00070000000 3.5500000000
pair_coeff 4 27 lj/cut 0.00070000000 3.5500000000
pair_coeff 4 28 lj/cut 0.00070000000 3.5500000000
pair_coeff 4 29 lj/cut 0.00070000000 3.5500000000
pair_coeff 4 30 lj/cut 0.00070000000 3.5500000000
pair_coeff 4 31 lj/cut 0.00070000000 3.5500000000
pair_coeff 4 32 lj/cut 0.00070000000 3.5500000000

pair_coeff 5 6 lj/cut 0.00070000000 3.5500000000
pair_coeff 5 7 lj/cut 0.00070000000 3.5500000000
pair_coeff 5 8 lj/cut 0.00070000000 3.5500000000
pair_coeff 5 9 lj/cut 0.00070000000 3.5500000000
pair_coeff 5 10 lj/cut 0.00070000000 3.5500000000
pair_coeff 5 11 lj/cut 0.00070000000 3.5500000000
pair_coeff 5 12 lj/cut 0.00070000000 3.5500000000
pair_coeff 5 13 lj/cut 0.00070000000 3.5500000000
pair_coeff 5 14 lj/cut 0.00070000000 3.5500000000
pair_coeff 5 15 lj/cut 0.00070000000 3.5500000000
pair_coeff 5 16 lj/cut 0.00070000000 3.5500000000
pair_coeff 5 17 lj/cut 0.00070000000 3.5500000000
pair_coeff 5 18 lj/cut 0.00070000000 3.5500000000
pair_coeff 5 19 lj/cut 0.00070000000 3.5500000000
pair_coeff 5 20 lj/cut 0.00070000000 3.5500000000
pair_coeff 5 21 lj/cut 0.00070000000 3.5500000000
pair_coeff 5 22 lj/cut 0.00070000000 3.5500000000
pair_coeff 5 23 lj/cut 0.00070000000 3.5500000000
pair_coeff 5 24 lj/cut 0.00070000000 3.5500000000
pair_coeff 5 25 lj/cut 0.00070000000 3.5500000000
pair_coeff 5 26 lj/cut 0.00070000000 3.5500000000
pair_coeff 5 27 lj/cut 0.00070000000 3.5500000000
pair_coeff 5 28 lj/cut 0.00070000000 3.5500000000
pair_coeff 5 29 lj/cut 0.00070000000 3.5500000000
pair_coeff 5 30 lj/cut 0.00070000000 3.5500000000
pair_coeff 5 31 lj/cut 0.00070000000 3.5500000000
pair_coeff 5 32 lj/cut 0.00070000000 3.5500000000

pair_coeff 6 7 lj/cut 0.00070000000 3.5500000000
pair_coeff 6 8 lj/cut 0.00070000000 3.5500000000
pair_coeff 6 9 lj/cut 0.00070000000 3.5500000000
pair_coeff 6 10 lj/cut 0.00070000000 3.5500000000
pair_coeff 6 11 lj/cut 0.00070000000 3.5500000000
pair_coeff 6 12 lj/cut 0.00070000000 3.5500000000
pair_coeff 6 13 lj/cut 0.00070000000 3.5500000000
pair_coeff 6 14 lj/cut 0.00070000000 3.5500000000
pair_coeff 6 15 lj/cut 0.00070000000 3.5500000000
pair_coeff 6 16 lj/cut 0.00070000000 3.5500000000
pair_coeff 6 17 lj/cut 0.00070000000 3.5500000000
pair_coeff 6 18 lj/cut 0.00070000000 3.5500000000
pair_coeff 6 19 lj/cut 0.00070000000 3.5500000000
pair_coeff 6 20 lj/cut 0.00070000000 3.5500000000
pair_coeff 6 21 lj/cut 0.00070000000 3.5500000000
pair_coeff 6 22 lj/cut 0.00070000000 3.5500000000
pair_coeff 6 23 lj/cut 0.00070000000 3.5500000000
pair_coeff 6 24 lj/cut 0.00070000000 3.5500000000
pair_coeff 6 25 lj/cut 0.00070000000 3.5500000000
pair_coeff 6 26 lj/cut 0.00070000000 3.5500000000
pair_coeff 6 27 lj/cut 0.00070000000 3.5500000000
pair_coeff 6 28 lj/cut 0.00070000000 3.5500000000
pair_coeff 6 29 lj/cut 0.00070000000 3.5500000000
pair_coeff 6 30 lj/cut 0.00070000000 3.5500000000
pair_coeff 6 31 lj/cut 0.00070000000 3.5500000000
pair_coeff 6 32 lj/cut 0.00070000000 3.5500000000

pair_coeff 7 8 lj/cut 0.00070000000 3.5500000000
pair_coeff 7 9 lj/cut 0.00070000000 3.5500000000
pair_coeff 7 10 lj/cut 0.00070000000 3.5500000000
pair_coeff 7 11 lj/cut 0.00070000000 3.5500000000
pair_coeff 7 12 lj/cut 0.00070000000 3.5500000000
pair_coeff 7 13 lj/cut 0.00070000000 3.5500000000
pair_coeff 7 14 lj/cut 0.00070000000 3.5500000000
pair_coeff 7 15 lj/cut 0.00070000000 3.5500000000
pair_coeff 7 16 lj/cut 0.00070000000 3.5500000000
pair_coeff 7 17 lj/cut 0.00070000000 3.5500000000
pair_coeff 7 18 lj/cut 0.00070000000 3.5500000000
pair_coeff 7 19 lj/cut 0.00070000000 3.5500000000
pair_coeff 7 20 lj/cut 0.00070000000 3.5500000000
pair_coeff 7 21 lj/cut 0.00070000000 3.5500000000
pair_coeff 7 22 lj/cut 0.00070000000 3.5500000000
pair_coeff 7 23 lj/cut 0.00070000000 3.5500000000
pair_coeff 7 24 lj/cut 0.00070000000 3.5500000000
pair_coeff 7 25 lj/cut 0.00070000000 3.5500000000
pair_coeff 7 26 lj/cut 0.00070000000 3.5500000000
pair_coeff 7 27 lj/cut 0.00070000000 3.5500000000
pair_coeff 7 28 lj/cut 0.00070000000 3.5500000000
pair_coeff 7 29 lj/cut 0.00070000000 3.5500000000
pair_coeff 7 30 lj/cut 0.00070000000 3.5500000000
pair_coeff 7 31 lj/cut 0.00070000000 3.5500000000
pair_coeff 7 32 lj/cut 0.00070000000 3.5500000000

pair_coeff 8 9 lj/cut 0.00070000000 3.5500000000
pair_coeff 8 10 lj/cut 0.00070000000 3.5500000000
pair_coeff 8 11 lj/cut 0.00070000000 3.5500000000
pair_coeff 8 12 lj/cut 0.00070000000 3.5500000000
pair_coeff 8 13 lj/cut 0.00070000000 3.5500000000
pair_coeff 8 14 lj/cut 0.00070000000 3.5500000000
pair_coeff 8 15 lj/cut 0.00070000000 3.5500000000
pair_coeff 8 16 lj/cut 0.00070000000 3.5500000000
pair_coeff 8 17 lj/cut 0.00070000000 3.5500000000
pair_coeff 8 18 lj/cut 0.00070000000 3.5500000000
pair_coeff 8 19 lj/cut 0.00070000000 3.5500000000
pair_coeff 8 20 lj/cut 0.00070000000 3.5500000000
pair_coeff 8 21 lj/cut 0.00070000000 3.5500000000
pair_coeff 8 22 lj/cut 0.00070000000 3.5500000000
pair_coeff 8 23 lj/cut 0.00070000000 3.5500000000
pair_coeff 8 24 lj/cut 0.00070000000 3.5500000000
pair_coeff 8 25 lj/cut 0.00070000000 3.5500000000
pair_coeff 8 26 lj/cut 0.00070000000 3.5500000000
pair_coeff 8 27 lj/cut 0.00070000000 3.5500000000
pair_coeff 8 28 lj/cut 0.00070000000 3.5500000000
pair_coeff 8 29 lj/cut 0.00070000000 3.5500000000
pair_coeff 8 30 lj/cut 0.00070000000 3.5500000000
pair_coeff 8 31 lj/cut 0.00070000000 3.5500000000
pair_coeff 8 32 lj/cut 0.00070000000 3.5500000000

pair_coeff 9 10 lj/cut 0.00070000000 3.5500000000
pair_coeff 9 11 lj/cut 0.00070000000 3.5500000000
pair_coeff 9 12 lj/cut 0.00070000000 3.5500000000
pair_coeff 9 13 lj/cut 0.00070000000 3.5500000000
pair_coeff 9 14 lj/cut 0.00070000000 3.5500000000
pair_coeff 9 15 lj/cut 0.00070000000 3.5500000000
pair_coeff 9 16 lj/cut 0.00070000000 3.5500000000
pair_coeff 9 17 lj/cut 0.00070000000 3.5500000000
pair_coeff 9 18 lj/cut 0.00070000000 3.5500000000
pair_coeff 9 19 lj/cut 0.00070000000 3.5500000000
pair_coeff 9 20 lj/cut 0.00070000000 3.5500000000
pair_coeff 9 21 lj/cut 0.00070000000 3.5500000000
pair_coeff 9 22 lj/cut 0.00070000000 3.5500000000
pair_coeff 9 23 lj/cut 0.00070000000 3.5500000000
pair_coeff 9 24 lj/cut 0.00070000000 3.5500000000
pair_coeff 9 25 lj/cut 0.00070000000 3.5500000000
pair_coeff 9 26 lj/cut 0.00070000000 3.5500000000
pair_coeff 9 27 lj/cut 0.00070000000 3.5500000000
pair_coeff 9 28 lj/cut 0.00070000000 3.5500000000
pair_coeff 9 29 lj/cut 0.00070000000 3.5500000000
pair_coeff 9 30 lj/cut 0.00070000000 3.5500000000
pair_coeff 9 31 lj/cut 0.00070000000 3.5500000000
pair_coeff 9 32 lj/cut 0.00070000000 3.5500000000

pair_coeff 10 11 lj/cut 0.00070000000 3.5500000000
pair_coeff 10 12 lj/cut 0.00070000000 3.5500000000
pair_coeff 10 13 lj/cut 0.00070000000 3.5500000000
pair_coeff 10 14 lj/cut 0.00070000000 3.5500000000
pair_coeff 10 15 lj/cut 0.00070000000 3.5500000000
pair_coeff 10 16 lj/cut 0.00070000000 3.5500000000
pair_coeff 10 17 lj/cut 0.00070000000 3.5500000000
pair_coeff 10 18 lj/cut 0.00070000000 3.5500000000
pair_coeff 10 19 lj/cut 0.00070000000 3.5500000000
pair_coeff 10 20 lj/cut 0.00070000000 3.5500000000
pair_coeff 10 21 lj/cut 0.00070000000 3.5500000000
pair_coeff 10 22 lj/cut 0.00070000000 3.5500000000
pair_coeff 10 23 lj/cut 0.00070000000 3.5500000000
pair_coeff 10 24 lj/cut 0.00070000000 3.5500000000
pair_coeff 10 25 lj/cut 0.00070000000 3.5500000000
pair_coeff 10 26 lj/cut 0.00070000000 3.5500000000
pair_coeff 10 27 lj/cut 0.00070000000 3.5500000000
pair_coeff 10 28 lj/cut 0.00070000000 3.5500000000
pair_coeff 10 29 lj/cut 0.00070000000 3.5500000000
pair_coeff 10 30 lj/cut 0.00070000000 3.5500000000
pair_coeff 10 31 lj/cut 0.00070000000 3.5500000000
pair_coeff 10 32 lj/cut 0.00070000000 3.5500000000

pair_coeff 11 12 lj/cut 0.00070000000 3.5500000000
pair_coeff 11 13 lj/cut 0.00070000000 3.5500000000
pair_coeff 11 14 lj/cut 0.00070000000 3.5500000000
pair_coeff 11 15 lj/cut 0.00070000000 3.5500000000
pair_coeff 11 16 lj/cut 0.00070000000 3.5500000000
pair_coeff 11 17 lj/cut 0.00070000000 3.5500000000
pair_coeff 11 18 lj/cut 0.00070000000 3.5500000000
pair_coeff 11 19 lj/cut 0.00070000000 3.5500000000
pair_coeff 11 20 lj/cut 0.00070000000 3.5500000000
pair_coeff 11 21 lj/cut 0.00070000000 3.5500000000
pair_coeff 11 22 lj/cut 0.00070000000 3.5500000000
pair_coeff 11 23 lj/cut 0.00070000000 3.5500000000
pair_coeff 11 24 lj/cut 0.00070000000 3.5500000000
pair_coeff 11 25 lj/cut 0.00070000000 3.5500000000
pair_coeff 11 26 lj/cut 0.00070000000 3.5500000000
pair_coeff 11 27 lj/cut 0.00070000000 3.5500000000
pair_coeff 11 28 lj/cut 0.00070000000 3.5500000000
pair_coeff 11 29 lj/cut 0.00070000000 3.5500000000
pair_coeff 11 30 lj/cut 0.00070000000 3.5500000000
pair_coeff 11 31 lj/cut 0.00070000000 3.5500000000
pair_coeff 11 32 lj/cut 0.00070000000 3.5500000000

pair_coeff 12 13 lj/cut 0.00070000000 3.5500000000
pair_coeff 12 14 lj/cut 0.00070000000 3.5500000000
pair_coeff 12 15 lj/cut 0.00070000000 3.5500000000
pair_coeff 12 16 lj/cut 0.00070000000 3.5500000000
pair_coeff 12 17 lj/cut 0.00070000000 3.5500000000
pair_coeff 12 18 lj/cut 0.00070000000 3.5500000000
pair_coeff 12 19 lj/cut 0.00070000000 3.5500000000
pair_coeff 12 20 lj/cut 0.00070000000 3.5500000000
pair_coeff 12 21 lj/cut 0.00070000000 3.5500000000
pair_coeff 12 22 lj/cut 0.00070000000 3.5500000000
pair_coeff 12 23 lj/cut 0.00070000000 3.5500000000
pair_coeff 12 24 lj/cut 0.00070000000 3.5500000000
pair_coeff 12 25 lj/cut 0.00070000000 3.5500000000
pair_coeff 12 26 lj/cut 0.00070000000 3.5500000000
pair_coeff 12 27 lj/cut 0.00070000000 3.5500000000
pair_coeff 12 28 lj/cut 0.00070000000 3.5500000000
pair_coeff 12 29 lj/cut 0.00070000000 3.5500000000
pair_coeff 12 30 lj/cut 0.00070000000 3.5500000000
pair_coeff 12 31 lj/cut 0.00070000000 3.5500000000
pair_coeff 12 32 lj/cut 0.00070000000 3.5500000000

pair_coeff 13 14 lj/cut 0.00070000000 3.5500000000
pair_coeff 13 15 lj/cut 0.00070000000 3.5500000000
pair_coeff 13 16 lj/cut 0.00070000000 3.5500000000
pair_coeff 13 17 lj/cut 0.00070000000 3.5500000000
pair_coeff 13 18 lj/cut 0.00070000000 3.5500000000
pair_coeff 13 19 lj/cut 0.00070000000 3.5500000000
pair_coeff 13 20 lj/cut 0.00070000000 3.5500000000
pair_coeff 13 21 lj/cut 0.00070000000 3.5500000000
pair_coeff 13 22 lj/cut 0.00070000000 3.5500000000
pair_coeff 13 23 lj/cut 0.00070000000 3.5500000000
pair_coeff 13 24 lj/cut 0.00070000000 3.5500000000
pair_coeff 13 25 lj/cut 0.00070000000 3.5500000000
pair_coeff 13 26 lj/cut 0.00070000000 3.5500000000
pair_coeff 13 27 lj/cut 0.00070000000 3.5500000000
pair_coeff 13 28 lj/cut 0.00070000000 3.5500000000
pair_coeff 13 29 lj/cut 0.00070000000 3.5500000000
pair_coeff 13 30 lj/cut 0.00070000000 3.5500000000
pair_coeff 13 31 lj/cut 0.00070000000 3.5500000000
pair_coeff 13 32 lj/cut 0.00070000000 3.5500000000

pair_coeff 14 15 lj/cut 0.00070000000 3.5500000000
pair_coeff 14 16 lj/cut 0.00070000000 3.5500000000
pair_coeff 14 17 lj/cut 0.00070000000 3.5500000000
pair_coeff 14 18 lj/cut 0.00070000000 3.5500000000
pair_coeff 14 19 lj/cut 0.00070000000 3.5500000000
pair_coeff 14 20 lj/cut 0.00070000000 3.5500000000
pair_coeff 14 21 lj/cut 0.00070000000 3.5500000000
pair_coeff 14 22 lj/cut 0.00070000000 3.5500000000
pair_coeff 14 23 lj/cut 0.00070000000 3.5500000000
pair_coeff 14 24 lj/cut 0.00070000000 3.5500000000
pair_coeff 14 25 lj/cut 0.00070000000 3.5500000000
pair_coeff 14 26 lj/cut 0.00070000000 3.5500000000
pair_coeff 14 27 lj/cut 0.00070000000 3.5500000000
pair_coeff 14 28 lj/cut 0.00070000000 3.5500000000
pair_coeff 14 29 lj/cut 0.00070000000 3.5500000000
pair_coeff 14 30 lj/cut 0.00070000000 3.5500000000
pair_coeff 14 31 lj/cut 0.00070000000 3.5500000000
pair_coeff 14 32 lj/cut 0.00070000000 3.5500000000

pair_coeff 15 16 lj/cut 0.00070000000 3.5500000000
pair_coeff 15 17 lj/cut 0.00070000000 3.5500000000
pair_coeff 15 18 lj/cut 0.00070000000 3.5500000000
pair_coeff 15 19 lj/cut 0.00070000000 3.5500000000
pair_coeff 15 20 lj/cut 0.00070000000 3.5500000000
pair_coeff 15 21 lj/cut 0.00070000000 3.5500000000
pair_coeff 15 22 lj/cut 0.00070000000 3.5500000000
pair_coeff 15 23 lj/cut 0.00070000000 3.5500000000
pair_coeff 15 24 lj/cut 0.00070000000 3.5500000000
pair_coeff 15 25 lj/cut 0.00070000000 3.5500000000
pair_coeff 15 26 lj/cut 0.00070000000 3.5500000000
pair_coeff 15 27 lj/cut 0.00070000000 3.5500000000
pair_coeff 15 28 lj/cut 0.00070000000 3.5500000000
pair_coeff 15 29 lj/cut 0.00070000000 3.5500000000
pair_coeff 15 30 lj/cut 0.00070000000 3.5500000000
pair_coeff 15 31 lj/cut 0.00070000000 3.5500000000
pair_coeff 15 32 lj/cut 0.00070000000 3.5500000000

pair_coeff 16 17 lj/cut 0.00070000000 3.5500000000
pair_coeff 16 18 lj/cut 0.00070000000 3.5500000000
pair_coeff 16 19 lj/cut 0.00070000000 3.5500000000
pair_coeff 16 20 lj/cut 0.00070000000 3.5500000000
pair_coeff 16 21 lj/cut 0.00070000000 3.5500000000
pair_coeff 16 22 lj/cut 0.00070000000 3.5500000000
pair_coeff 16 23 lj/cut 0.00070000000 3.5500000000
pair_coeff 16 24 lj/cut 0.00070000000 3.5500000000
pair_coeff 16 25 lj/cut 0.00070000000 3.5500000000
pair_coeff 16 26 lj/cut 0.00070000000 3.5500000000
pair_coeff 16 27 lj/cut 0.00070000000 3.5500000000
pair_coeff 16 28 lj/cut 0.00070000000 3.5500000000
pair_coeff 16 29 lj/cut 0.00070000000 3.5500000000
pair_coeff 16 30 lj/cut 0.00070000000 3.5500000000
pair_coeff 16 31 lj/cut 0.00070000000 3.5500000000
pair_coeff 16 32 lj/cut 0.00070000000 3.5500000000

pair_coeff 17 18 lj/cut 0.00070000000 3.5500000000
pair_coeff 17 19 lj/cut 0.00070000000 3.5500000000
pair_coeff 17 20 lj/cut 0.00070000000 3.5500000000
pair_coeff 17 21 lj/cut 0.00070000000 3.5500000000
pair_coeff 17 22 lj/cut 0.00070000000 3.5500000000
pair_coeff 17 23 lj/cut 0.00070000000 3.5500000000
pair_coeff 17 24 lj/cut 0.00070000000 3.5500000000
pair_coeff 17 25 lj/cut 0.00070000000 3.5500000000
pair_coeff 17 26 lj/cut 0.00070000000 3.5500000000
pair_coeff 17 27 lj/cut 0.00070000000 3.5500000000
pair_coeff 17 28 lj/cut 0.00070000000 3.5500000000
pair_coeff 17 29 lj/cut 0.00070000000 3.5500000000
pair_coeff 17 30 lj/cut 0.00070000000 3.5500000000
pair_coeff 17 31 lj/cut 0.00070000000 3.5500000000
pair_coeff 17 32 lj/cut 0.00070000000 3.5500000000

pair_coeff 18 19 lj/cut 0.00070000000 3.5500000000
pair_coeff 18 20 lj/cut 0.00070000000 3.5500000000
pair_coeff 18 21 lj/cut 0.00070000000 3.5500000000
pair_coeff 18 22 lj/cut 0.00070000000 3.5500000000
pair_coeff 18 23 lj/cut 0.00070000000 3.5500000000
pair_coeff 18 24 lj/cut 0.00070000000 3.5500000000
pair_coeff 18 25 lj/cut 0.00070000000 3.5500000000
pair_coeff 18 26 lj/cut 0.00070000000 3.5500000000
pair_coeff 18 27 lj/cut 0.00070000000 3.5500000000
pair_coeff 18 28 lj/cut 0.00070000000 3.5500000000
pair_coeff 18 29 lj/cut 0.00070000000 3.5500000000
pair_coeff 18 30 lj/cut 0.00070000000 3.5500000000
pair_coeff 18 31 lj/cut 0.00070000000 3.5500000000
pair_coeff 18 32 lj/cut 0.00070000000 3.5500000000

pair_coeff 19 20 lj/cut 0.00070000000 3.5500000000
pair_coeff 19 21 lj/cut 0.00070000000 3.5500000000
pair_coeff 19 22 lj/cut 0.00070000000 3.5500000000
pair_coeff 19 23 lj/cut 0.00070000000 3.5500000000
pair_coeff 19 24 lj/cut 0.00070000000 3.5500000000
pair_coeff 19 25 lj/cut 0.00070000000 3.5500000000
pair_coeff 19 26 lj/cut 0.00070000000 3.5500000000
pair_coeff 19 27 lj/cut 0.00070000000 3.5500000000
pair_coeff 19 28 lj/cut 0.00070000000 3.5500000000
pair_coeff 19 29 lj/cut 0.00070000000 3.5500000000
pair_coeff 19 30 lj/cut 0.00070000000 3.5500000000
pair_coeff 19 31 lj/cut 0.00070000000 3.5500000000
pair_coeff 19 32 lj/cut 0.00070000000 3.5500000000

pair_coeff 20 21 lj/cut 0.00070000000 3.5500000000
pair_coeff 20 22 lj/cut 0.00070000000 3.5500000000
pair_coeff 20 23 lj/cut 0.00070000000 3.5500000000
pair_coeff 20 24 lj/cut 0.00070000000 3.5500000000
pair_coeff 20 25 lj/cut 0.00070000000 3.5500000000
pair_coeff 20 26 lj/cut 0.00070000000 3.5500000000
pair_coeff 20 27 lj/cut 0.00070000000 3.5500000000
pair_coeff 20 28 lj/cut 0.00070000000 3.5500000000
pair_coeff 20 29 lj/cut 0.00070000000 3.5500000000
pair_coeff 20 30 lj/cut 0.00070000000 3.5500000000
pair_coeff 20 31 lj/cut 0.00070000000 3.5500000000
pair_coeff 20 32 lj/cut 0.00070000000 3.5500000000

pair_coeff 21 22 lj/cut 0.00070000000 3.5500000000
pair_coeff 21 23 lj/cut 0.00070000000 3.5500000000
pair_coeff 21 24 lj/cut 0.00070000000 3.5500000000
pair_coeff 21 25 lj/cut 0.00070000000 3.5500000000
pair_coeff 21 26 lj/cut 0.00070000000 3.5500000000
pair_coeff 21 27 lj/cut 0.00070000000 3.5500000000
pair_coeff 21 28 lj/cut 0.00070000000 3.5500000000
pair_coeff 21 29 lj/cut 0.00070000000 3.5500000000
pair_coeff 21 30 lj/cut 0.00070000000 3.5500000000
pair_coeff 21 31 lj/cut 0.00070000000 3.5500000000
pair_coeff 21 32 lj/cut 0.00070000000 3.5500000000

pair_coeff 22 23 lj/cut 0.00070000000 3.5500000000
pair_coeff 22 24 lj/cut 0.00070000000 3.5500000000
pair_coeff 22 25 lj/cut 0.00070000000 3.5500000000
pair_coeff 22 26 lj/cut 0.00070000000 3.5500000000
pair_coeff 22 27 lj/cut 0.00070000000 3.5500000000
pair_coeff 22 28 lj/cut 0.00070000000 3.5500000000
pair_coeff 22 29 lj/cut 0.00070000000 3.5500000000
pair_coeff 22 30 lj/cut 0.00070000000 3.5500000000
pair_coeff 22 31 lj/cut 0.00070000000 3.5500000000
pair_coeff 22 32 lj/cut 0.00070000000 3.5500000000

pair_coeff 23 24 lj/cut 0.00070000000 3.5500000000
pair_coeff 23 25 lj/cut 0.00070000000 3.5500000000
pair_coeff 23 26 lj/cut 0.00070000000 3.5500000000
pair_coeff 23 27 lj/cut 0.00070000000 3.5500000000
pair_coeff 23 28 lj/cut 0.00070000000 3.5500000000
pair_coeff 23 29 lj/cut 0.00070000000 3.5500000000
pair_coeff 23 30 lj/cut 0.00070000000 3.5500000000
pair_coeff 23 31 lj/cut 0.00070000000 3.5500000000
pair_coeff 23 32 lj/cut 0.00070000000 3.5500000000

pair_coeff 24 25 lj/cut 0.00070000000 3.5500000000
pair_coeff 24 26 lj/cut 0.00070000000 3.5500000000
pair_coeff 24 27 lj/cut 0.00070000000 3.5500000000
pair_coeff 24 28 lj/cut 0.00070000000 3.5500000000
pair_coeff 24 29 lj/cut 0.00070000000 3.5500000000
pair_coeff 24 30 lj/cut 0.00070000000 3.5500000000
pair_coeff 24 31 lj/cut 0.00070000000 3.5500000000
pair_coeff 24 32 lj/cut 0.00070000000 3.5500000000

pair_coeff 25 26 lj/cut 0.00070000000 3.5500000000
pair_coeff 25 27 lj/cut 0.00070000000 3.5500000000
pair_coeff 25 28 lj/cut 0.00070000000 3.5500000000
pair_coeff 25 29 lj/cut 0.00070000000 3.5500000000
pair_coeff 25 30 lj/cut 0.00070000000 3.5500000000
pair_coeff 25 31 lj/cut 0.00070000000 3.5500000000
pair_coeff 25 32 lj/cut 0.00070000000 3.5500000000

pair_coeff 26 27 lj/cut 0.00070000000 3.5500000000
pair_coeff 26 28 lj/cut 0.00070000000 3.5500000000
pair_coeff 26 29 lj/cut 0.00070000000 3.5500000000
pair_coeff 26 30 lj/cut 0.00070000000 3.5500000000
pair_coeff 26 31 lj/cut 0.00070000000 3.5500000000
pair_coeff 26 32 lj/cut 0.00070000000 3.5500000000

pair_coeff 27 28 lj/cut 0.00070000000 3.5500000000
pair_coeff 27 29 lj/cut 0.00070000000 3.5500000000
pair_coeff 27 30 lj/cut 0.00070000000 3.5500000000
pair_coeff 27 31 lj/cut 0.00070000000 3.5500000000
pair_coeff 27 32 lj/cut 0.00070000000 3.5500000000

pair_coeff 28 29 lj/cut 0.00070000000 3.5500000000
pair_coeff 28 30 lj/cut 0.00070000000 3.5500000000
pair_coeff 28 31 lj/cut 0.00070000000 3.5500000000
pair_coeff 28 32 lj/cut 0.00070000000 3.5500000000

pair_coeff 29 30 lj/cut 0.00070000000 3.5500000000
pair_coeff 29 31 lj/cut 0.00070000000 3.5500000000
pair_coeff 29 32 lj/cut 0.00070000000 3.5500000000

pair_coeff 30 31 lj/cut 0.00070000000 3.5500000000
pair_coeff 30 32 lj/cut 0.00070000000 3.5500000000

pair_coeff 31 32 lj/cut 0.00070000000 3.5500000000

special_bonds lj 0.0 0.0 0.0 coul 0.0 0.0 0.0

#pair_style tersoff 
#pair_coeff * * C.4.tersoff 1 2 3 4

#pair_style lj/cut 12.0
#pair_coeff 1 1 0.0700000000 3.5500000000
#special_bonds lj 0.0 0.0 0.0 coul 0.0 0.0 0.0
###########################################################################


#--------------------------------------------------------------------------
#variables
#--------------------------------------------------------------------------
variable   	dt 		equal 0.001
#--------------------------------------------------------------------------
#kappa parameters
#--------------------------------------------------------------------------
variable    	p 		equal 100000 	# correlation length
variable    	s 		equal 10  	# sample interval
variable    	d 		equal $p*$s 	# dump interval 
variable    	d 		equal 100000*$s 	variable    	d 		equal 100000*10 	
#--------------------------------------------------------------------------
variable 	T_run 		equal 300
#--------------------------------------------------------------------------

log 	log_heat_${iseed}.lammps
log 	log_heat_3.lammps
