	reset_timestep  	0
	fix 			1 all nve
	compute   		myKE all ke/atom
	compute   		myPE all pe/atom
	compute   		myStress all stress/atom virial
	compute   		flux all heat/flux myKE myPE myStress
	variable  		Jx equal c_flux[1]/vol
	variable  		Jy equal c_flux[2]/vol
	variable  		Jz equal c_flux[3]/vol
	fix       		JJ all ave/correlate $s $p $d c_flux[1] c_flux[2] c_flux[3] type auto file J0Jt_${iseed}.dat ave running
	fix       		JJ all ave/correlate 10 $p $d c_flux[1] c_flux[2] c_flux[3] type auto file J0Jt_${iseed}.dat ave running
	fix       		JJ all ave/correlate 10 100000 $d c_flux[1] c_flux[2] c_flux[3] type auto file J0Jt_${iseed}.dat ave running
	fix       		JJ all ave/correlate 10 100000 1000000 c_flux[1] c_flux[2] c_flux[3] type auto file J0Jt_${iseed}.dat ave running
	fix       		JJ all ave/correlate 10 100000 1000000 c_flux[1] c_flux[2] c_flux[3] type auto file J0Jt_3.dat ave running
	compute 		myDis all msd 
	thermo_style 		custom step temp press vol c_myDis[4] v_Jx v_Jy v_Jz 
	thermo			1000
	timestep		${dt}
	timestep		0.001
	run			1000000
Memory usage per processor = 6.2488 Mbytes
Step Temp Press Volume myDis[4] Jx Jy Jz 
       0    301.88242    2574.0719        24389 1.1250256e-30  0.013240953 0.00023152854 0.0013686782 
    1000    301.47585    5337.4901        24389    3.6982656 -0.010823886 -0.010224102 -0.00070362321 
    2000    305.68231    5199.3716        24389    11.254425 -0.00069658886 -0.014056269 0.0023395961 
    3000    302.34345    2649.2633        24389    18.115407  0.012905035 -0.0021582375 -0.0042671447 
    4000    304.92529    5992.7888        24389    22.097065 0.0039023669 0.00078367889 -0.0071090838 
    5000    296.95732      7693.16        24389    23.786164 -0.0031089731 -0.0056466564  0.010979515 
    6000    303.61249    3202.5714        24389    24.288222 0.0074251003 -0.0053886042 -0.0031548254 
    7000    304.82781    3899.7257        24389    24.466483  0.002007451 0.0012514292 0.0039766344 
    8000    300.47554    5630.7304        24389    24.969678 0.00095730443 0.0062236353 -0.0013120501 
    9000    294.84102    6021.0147        24389    26.475628 0.0030346456 -0.0068286974 -0.0041383054 
   10000     304.4991    5951.0823        24389    27.081942 -0.0098833256 -0.0018639671 -0.0070458145 
   11000    296.13999    6602.0548        24389    26.210592 0.00019840689  0.013935597 0.0083738659 
   12000    294.41804    5329.6379        24389    25.426484 -0.0081331843 -0.0018002145 0.0049120484 
   13000    300.69741    3850.8498        24389    25.499208 -0.0018634824 0.0033806021 0.00082790132 
   14000    302.69346    4864.0148        24389    25.827423  -0.00322808 -0.0088951738 0.0022189956 
   15000    300.54859    4481.1669        24389    25.625194 0.0054507957 -0.0053040061 -0.00032920742 
   16000    303.98413    5643.7981        24389    25.485731 0.0024636077 0.0054961373 -0.0059290517 
   17000    302.60207    4294.8819        24389    24.674462 0.00036885469 -0.010473278 -0.022529294 
   18000    294.62265    6403.6167        24389    23.527975  0.011582231 -0.0052795725 -0.0024989395 
   19000    299.38886     4976.365        24389    23.006508 -0.016570461 -0.00051218087 0.0010372136 
   20000    302.56793    5862.2344        24389    24.317083 0.00045058017 -0.0015326276 -0.0001562298 
   21000    302.34561    5742.9258        24389     26.72765 0.0012665166 -0.012590791  0.012784913 
   22000    298.16484    3275.4287        24389     28.47581 -0.0014912243 -0.0028419923 -0.0089684007 
   23000     302.7601    2970.4214        24389    29.243004 0.0080692444 0.0051651244 0.0040014299 
   24000    306.77168    4236.9597        24389    28.837962 -0.0055803989  0.024248031 -0.0073872388 
   25000    302.86662    6630.1876        24389    27.032921 -0.004709967 -0.0022600083 -0.00052887516 
   26000    296.57662    7120.1655        24389    25.550471 0.0041693453 0.0015795965 -0.0074224858 
   27000    296.80504    2943.7646        24389    25.424641 -0.00080811871 -0.003164468 -0.0025984689 
   28000     297.4112    5745.9724        24389    26.934235  -0.01051092 -0.017014564 -0.0071829425 
   29000    299.66433    4864.1826        24389    28.396435 -0.017159448 -0.0024919977 -0.0071217362 
   30000     302.2756    3928.1525        24389    29.555227 0.0028809485 0.0095779005 -0.0050117676 
   31000    298.59425    3581.2738        24389    30.302712 -0.010083888 -0.0074140932 -0.010353528 
   32000    299.14377    3625.3805        24389    30.254898 -0.0079733121 -0.0095737203  0.010895277 
   33000     294.1736    4080.1048        24389    29.955946 0.0053408191  0.010713855 -0.002595944 
   34000    298.67253    6620.6437        24389    28.886669  0.009447594 0.0038043397 0.0017071574 
   35000    298.65391    7340.4817        24389    27.594207  0.007123098 0.0063453433   0.00386582 
   36000    296.71133    4609.4109        24389    26.927816  0.012035079 -0.012008205 0.0065704784 
   37000    293.43958    5597.4069        24389    27.009645 -0.0098031725 0.0035484676 0.0099045336 
   38000    294.13622    4740.7322        24389     27.72367  -0.00375689 -0.013976771  0.003069287 
   39000    295.54978    3753.8529        24389    28.236138 -0.0013785973 0.0063056144 -0.017122382 
   40000    304.40113    5442.3845        24389     28.53027  0.016143484 -0.0084775101 0.0052622015 
   41000    305.14226    5435.7712        24389     28.72539 0.0011623012 -0.015786964  0.018445848 
   42000     303.4914    2012.0833        24389    28.300545  0.010430907 -0.0063472451 0.00068797645 
   43000    302.85096    7300.5222        24389    27.474521 0.0014947247  0.012274653  -0.01360483 
   44000    303.42597    6835.0663        24389    26.676524 -0.009182878 -0.018878032  0.020487104 
   45000    300.39557    3918.2743        24389    26.717048 0.0026154135 0.0078413674 0.0065011798 
   46000    299.87658    4471.1421        24389     27.65656 -0.00076360188 -0.0075989394  0.010080937 
   47000    297.92358    6737.2769        24389    28.225503 0.0029288702 -0.0080045388 -0.0082162503 
   48000    301.18309    6394.0746        24389    27.849771 0.0024460686 0.0083723694 -0.0020038472 
   49000    301.15839    4937.1039        24389    26.720668 0.0068240657 0.0034797368 -0.0052483163 
   50000    297.91735    4266.8313        24389    25.100455 -0.00079133759 -0.018578568 -0.0082575889 
   51000    302.51631    6105.8569        24389    24.178793 0.0063592983 -0.0029879955 -0.016867772 
   52000    295.06604    4903.2136        24389    24.249541 0.0032195001 -0.0076179531 -0.0064030169 
   53000    292.92269    5376.0638        24389    24.820556 -0.0033141315 -0.0050616198 0.0056067574 
   54000    293.53324    5038.7487        24389     25.20838 -0.00058971861 -0.010301614 0.00061651085 
   55000    296.91839    7825.2677        24389    25.643106 -0.00084391484  -0.00289982 -0.0012037411 
   56000    302.69271    4791.6135        24389     25.92633 -0.0043277906  0.011246239 -0.0034333165 
   57000     298.1619    5073.6107        24389    25.441672 0.0016691615  0.013076068 0.0027674754 
   58000    298.28172    5170.9612        24389    24.493486 -0.0033001409 -0.0026258831 -0.002952346 
   59000    302.06143    5909.0424        24389    24.311678 -0.016742264 -0.0049382631 0.0039836936 
   60000    294.89149    5426.9551        24389    24.677472 -0.0068959637 -0.0070991857 -0.0004337382 
   61000    300.36963    4779.8788        24389    25.257778 -0.0037773411 -0.010335606 -0.010757316 
   62000    302.93292    4907.4828        24389    25.736563 -0.019212978 -0.003054819 -0.00056871197 
   63000    302.58012    5857.8196        24389    26.201681 0.0051738941 0.0022713532  0.012490682 
   64000    298.11443     5228.301        24389    26.981882 -0.0023852311 -0.010157842 0.0036427968 
   65000    305.86277    3801.3063        24389    27.445791 0.0055410596 -0.012390203 0.0019641085 
   66000    301.92841    5595.7704        24389    27.314121 -0.0022888746 -0.0034206964 -0.0063327379 
   67000    301.77541    4709.1744        24389    26.866188 -0.0059764468 -0.0016315787 0.0058577663 
   68000    289.93978    6696.7098        24389    26.314294 0.0090178714 -0.014180064 -0.0061933416 
   69000    286.85657    5382.6362        24389    25.887273 0.0012605226 0.0047926147 -0.0031750639 
   70000    299.54156    397.44814        24389    26.367142 -0.0022310441 0.0012859104 -0.0029057868 
   71000    296.96876     5198.798        24389     27.15425 -0.0052103113  0.010947261 -0.0054244237 
   72000    299.89037    5478.1543        24389    28.016145 -0.0051410973 0.0080522855 0.0084021931 
   73000     295.5719    6606.3157        24389    28.080504 -0.003682894 -0.006125942 0.00075761121 
   74000    300.55856    5259.9712        24389    27.476297 -0.0031453238 -0.0023308227  0.011160291 
   75000    295.46767    3942.6465        24389    26.638538 0.0003660131 -0.0099686015 -0.0020831989 
   76000    293.85646    5300.7797        24389    26.349225 0.0055212953 -0.014465423 -0.0018140426 
   77000    297.85404    4547.3282        24389     26.12589 0.0018205124 -0.013863494 -0.0070196871 
   78000    291.24458    7526.4572        24389    26.368443 1.1168471e-05 -0.0098690496 0.0069870625 
   79000    299.11955    5115.0442        24389    26.124858 0.0016040838 0.00083193753 0.0058164816 
   80000    299.58805    1670.6579        24389    25.980012 -0.0095202593 0.0012265702 -0.00076892436 
   81000    298.29471    5581.8538        24389    26.085559  0.011913629  0.010385856 -0.0065639887 
   82000    296.03843    6370.0862        24389    26.818961 -0.0023213883 0.0085884401 0.0019989404 
   83000    298.41279    4245.5606        24389    27.641259 0.0095844024 -0.0073272489 -0.0040791381 
   84000    299.04805    4169.2834        24389    28.106004  0.009359782 -0.0064891492 -0.0011828683 
   85000    302.11529    6548.5248        24389    28.544883 0.0036326566 0.0018106527  0.016669996 
   86000    292.25713    6928.2057        24389    28.610817 -0.0021993581 0.0049383802 -0.012836886 
   87000    306.48001    4428.7293        24389    27.818073 -0.00072816609 0.00053116006  -0.01162587 
   88000    296.83913    5152.0867        24389    26.790123 0.0039260818 -0.00018432851 -0.0034641845 
   89000     295.3049    7914.7098        24389      26.3545 -0.0082335613 0.00067152775 -0.0057363308 
   90000    295.41158     4425.329        24389    26.056357 -0.011410785 -0.0020359483 -0.0045683968 
   91000    291.40808    2567.9502        24389    26.130193 -0.0070697252 -0.014941217 -0.00071177675 
   92000    297.18434    6284.5803        24389     26.23999 0.0038648061 -0.002990839  0.011323303 
   93000    301.84381    6591.5879        24389    26.692723 0.0052194798 0.0041055395 -0.015343495 
   94000    301.19499    4238.2133        24389    27.087089 -0.0064497084 -0.0014763403  0.011124227 
   95000    299.52222     3356.556        24389    27.298733 0.0015017521 -0.00098556457 -0.0071472307 
   96000    299.46857    5617.7448        24389    27.370717 -0.010925151  0.017625244 0.0016894223 
   97000    305.84838    5165.0147        24389    27.493716 0.0001547155 0.0097994197 -0.010512036 
   98000     301.6737    4498.7041        24389    27.973596   0.01005127 -0.0077548084 -0.003374333 
   99000    292.28369    3582.0325        24389    28.740717 0.0054606424 -0.0020299367 -0.010482739 
  100000    292.72134    3386.3305        24389    28.401144 0.0097468456 -0.0010933357 0.00038317266 
  101000    293.21513    4220.3164        24389    27.417244  0.005264611 0.0071443694 -0.0079283128 
  102000    297.02464    6287.4906        24389    26.765815 0.0012663941  0.020837814 0.0069028121 
  103000    297.97275    5006.9637        24389    26.584715 0.0041504841 -0.0048636795 -0.012374103 
  104000    294.39709    3106.7072        24389    26.058571 -0.010040754 0.00093398085 -0.0075146694 
  105000    296.38432    5978.3854        24389    25.830198 -0.0043644609  0.015531202 -0.0015746329 
  106000    309.19599    2859.6093        24389    25.963272 -0.0058490766 0.0047144746 -0.0039391976 
  107000    294.71553    4514.5312        24389    26.287569 0.0012067979 -0.0057460322 0.0082474421 
  108000     296.5197     6107.763        24389    26.694533 -0.00024855066 0.0066620674 -0.0017607877 
  109000    303.32927    2518.6233        24389    27.339295 0.0011569276 0.0015305194 -0.0039987306 
  110000    301.73116    4554.1318        24389    28.061281 -0.0076060286 -0.00038622853 -0.0050033833 
  111000    296.06674     5784.205        24389     28.53643 0.0062431702 0.0083815335 0.0015478705 
  112000    300.43817    5784.2828        24389    28.756423 0.0045645893 -0.0019550059 0.0033137793 
  113000    292.39349    3336.9792        24389    28.701031 -0.0021600798 -0.0083016023 -0.0066735119 
  114000    299.23082    5079.7598        24389    28.762496 -0.0061112619 -0.00048273503 0.00094575353 
  115000    298.57099     6404.734        24389     28.43078 0.0057119397 0.0034653695 -0.00055313887 
  116000    300.17273    4816.7734        24389     27.71285 0.00054955352 0.0014915418 -0.013478198 
  117000    302.46839     4723.097        24389    27.530873  0.005166495 -0.0025193437 -0.0026661993 
  118000    291.57463    5877.6191        24389    28.292161 0.0069511054 -0.007379885 -0.0054988638 
  119000    296.60532    4957.6203        24389    29.436864  0.002405905 -0.010645114 -0.011026304 
  120000    301.76624    3569.3718        24389    30.346718 0.0072967657 0.0045070789  0.001190436 
  121000    295.12438    7351.1312        24389    30.077255 0.0054066791 0.0089646325 -0.0037384182 
  122000     301.2335    5853.7921        24389    28.570591 0.00082626346 0.0002388026 0.0072339785 
  123000    298.12299    1832.7552        24389    26.756896   0.00483302   0.01070067 0.00041852486 
  124000    299.69287    4165.5475        24389    25.816458 0.0050791807 0.0082601496 -0.0006764562 
  125000    292.36087      8130.52        24389    25.727126 -0.016644459 -0.0060006264 -0.025406007 
  126000    291.79319     5747.494        24389    26.464106 0.0043644506 -0.013907822 -0.020695503 
  127000    295.23048    4124.7176        24389     27.02168 -0.0088073142 -0.0016105209 -0.0025971851 
  128000    295.93443     5477.291        24389    27.338407 0.00012847932 -0.0021075186 -0.0014679708 
  129000    299.86986    4837.2824        24389    28.314097 0.0020846515 -0.0013801358 -0.0062352556 
  130000    297.56252    3125.8716        24389    29.350985 -0.0017840159  0.010525049 -0.0068273784 
  131000    297.57692    5821.6297        24389    29.782195 -0.0076207203 0.0082614191 -0.015073166 
  132000    290.80105    5504.3768        24389    29.678775 -0.0024182208 -0.013668468 -0.011330498 
  133000    296.35836    5171.3395        24389    29.597795 0.00037701178 -0.0034671472 -0.0064795394 
  134000    299.56722    6641.8256        24389    28.639348 -0.0004608455  0.002044547 -0.0013474826 
  135000    297.09508    5240.4602        24389    27.738395 0.0074854433 -0.0035572034 0.0068940778 
  136000    300.61722    1043.5975        24389    27.458934 -0.017840243 0.0019158917 -0.007414179 
  137000    298.88806    4879.9713        24389    28.124738 -0.0059415072 -0.00090832196 -0.0032281988 
  138000    297.27227    7534.8045        24389    28.873183 -0.004922098 -0.004328893 0.0060976435 
  139000    301.42744    5162.6399        24389    28.885122 0.0031162215  0.006239106 0.0037147843 
  140000    295.94555    4071.8011        24389    28.674355 -6.6935076e-05 -0.010155207 -0.0039967585 
  141000    297.20108    6046.3671        24389    28.475083 -0.0065656829 0.0051293351    0.0122663 
  142000    297.96549    5672.4307        24389    28.031149 -0.0029478614 0.0033879879 -0.0076777568 
  143000     295.2829    4450.4772        24389    27.928831 -0.0046655495 0.0096920835 -0.018186937 
  144000    301.24678    5936.6285        24389    27.919941 0.0030229077 0.0061786035 -0.012575728 
  145000    300.07474    5293.1923        24389    28.438376 0.0019631752 0.0067204271 -0.0099919112 
  146000    295.04981    5933.2388        24389     29.30298 0.0081868216 0.0059276765 -0.0096883024 
  147000    295.10851    3976.6148        24389    30.041356 0.0083436227 0.00058108752 -0.011355282 
  148000    297.99067    5637.9882        24389    30.440895 0.0046423387 -0.0057530732  0.010747264 
  149000    299.07462    4789.7572        24389    29.987479  0.014973247 0.0067654707 0.00032823869 
  150000     297.6308    4371.0827        24389    29.445772 -0.015667874 0.0064119696 -0.0047307907 
  151000    306.94001    7213.4763        24389    28.972705   0.01648738 -0.0073146337 0.00045959452 
  152000    297.97618    6383.8251        24389    29.050154 0.0093396574 -0.0060285313 -0.0057948662 
  153000    295.32633    2873.0163        24389    29.643827  0.018837777 -0.0068524723 0.0059192695 
  154000    294.19718    2899.6023        24389    29.904565 -0.0065659711 -0.0014609283 0.0065564085 
  155000    294.87865    3631.4774        24389    29.278814 0.0057422193 -0.0099689584 0.0099716454 
  156000    305.85814     6566.124        24389    28.747295 0.0053504475 -0.0023489676 0.0021220929 
  157000    312.82057    7184.1379        24389    28.991957  0.012070235 -0.012413018 -0.0069052711 
  158000     294.5294    2572.3977        24389    28.943829 -0.0071050929 -0.0044085637 -0.0079669736 
  159000    298.21124    5332.8979        24389      29.1595 -0.0076275403 -0.0046656182 -0.0057912603 
  160000    309.84736    6876.3488        24389    28.641449 0.0057963862  0.014047311  0.002417382 
  161000    300.51043    848.21593        24389    28.224377  0.019796298 0.0055989313 0.00098398862 
  162000    302.70282     3192.504        24389    28.775609 0.0074623738 -0.00090333472  0.013612005 
  163000    303.51727    3862.1555        24389    29.563877  0.012844873 0.0037489606 -0.0021907401 
  164000    300.92763    6974.2171        24389    30.073577 -0.013278112 0.0035056333 0.00013519111 
  165000    291.94496    5251.8404        24389    29.343579 -0.0076425045  0.024789284 0.0031679964 
  166000    289.57127    3529.7354        24389    28.667048 -0.002502052 0.0011457775 0.0096707198 
  167000    297.88316    4217.8477        24389     28.21137 0.0011017792 0.0085238304 0.0052608488 
  168000    298.46747    7730.4399        24389    27.860374 0.0060729166 0.0020523301   0.01184531 
  169000     294.9221    6360.0401        24389    27.808201 -0.024725516 0.0041335483 0.0064546349 
  170000    299.22423    2886.5288        24389    27.573076 -0.00076683695 -0.0029100112 0.0069991273 
  171000    295.32999    4795.8537        24389     27.27955 -0.0019029345 0.0028744653 -0.0020543761 
  172000    302.18653    6486.2962        24389    26.730842  0.011693106 0.0056016258 -0.013017233 
  173000    297.49454    4981.5237        24389    26.564179 -0.00097892772 0.0069654767 -0.010995336 
  174000    297.55988    4808.6623        24389    26.912626 0.0010245294 0.0055739643 0.0053139858 
  175000     293.6664    6030.9245        24389    27.572671 -0.014354415 -0.0036281189 -0.0031060093 
  176000    294.97069    2689.9584        24389    27.950326 0.0037953749  -0.01019974 -0.0092319152 
  177000    297.39527    5035.1948        24389    27.548756 -0.0046013265 -0.0039389698 -0.0089215127 
  178000    295.59967    5712.6042        24389    26.983835 0.0044790709 0.00045792141 -0.0019880616 
  179000    293.29376    4987.4485        24389    26.558486 0.0036164866 -0.0045472955  -0.01301969 
  180000    307.57297    5488.1472        24389    26.134217  0.019043186 -0.0052192023 -0.0074971673 
  181000    303.33288    6948.4337        24389    25.951076 -0.0093346788 -0.00020733103 -0.006413107 
  182000    296.27841    2234.0831        24389    25.758441   0.01047608 0.0028888456 0.0029098542 
  183000    295.63113    4180.3836        24389    25.158662 -0.0031212276 0.0093311615 -0.0063552658 
  184000    299.20457    7174.7551        24389    24.935214 0.0025835816 -0.0074038153 0.0038787093 
  185000    295.21312    6136.5184        24389    25.097986 0.0026382534 0.0010877047 -0.0047824033 
  186000    291.70124    2451.0551        24389    25.973746 -0.0037626959 -0.011392281  0.015626655 
  187000    298.80098    5082.5667        24389    26.101691 0.0030986756 0.00092463054 -0.0071086312 
  188000    303.62672    5131.5318        24389    25.866045 0.0090824235  -0.01216877 0.00048618217 
  189000     305.5251    5852.6545        24389    25.601104 0.0034524932 -0.0065637478 0.0070887753 
  190000     291.8419    5612.5397        24389    25.660202 -0.0052616448 0.0010408995 -0.014330195 
  191000    295.11423     5888.688        24389    26.344916 0.0031111092 -0.0078111371 -0.0064942923 
  192000    299.40007    4580.8038        24389    26.833048 -0.0017893434 -0.0087107845 -0.017469215 
  193000    293.80147    2873.1119        24389    27.718403 0.00093441342 -0.0030052311 -0.0066989686 
  194000    302.03223    4860.5077        24389    27.918151 -0.0052789613 -0.0013330141 -0.0085615912 
  195000    293.59828     6578.718        24389    27.389752 -0.0078349542 -0.010810768 -0.024153112 
  196000     293.6386    5712.3954        24389    27.351064 -0.004195422  0.001738991  0.003416882 
  197000    291.33286    703.95562        24389    27.891254 -0.0037544215 -0.0025949346 -0.0019940083 
  198000    293.52608    2787.4834        24389    28.215036  0.014226621 0.0078668807 0.0016684183 
  199000    294.22627    7892.6068        24389    27.907015 0.0060970966 0.0070904346  0.012827484 
  200000    298.12747    4562.3787        24389    27.392681  0.001590018  0.010654568 0.0094807752 
  201000    295.03654    4351.7537        24389    27.039928 -0.0072661857 -0.0039633632 -0.00079785063 
  202000    296.73079     3936.883        24389    26.855717 0.0068179653 -0.0013242494 0.00036292523 
  203000    296.67982    4256.8663        24389    27.328923 -0.0082637862  0.010798833  0.011141529 
  204000    294.42015    6569.3229        24389    28.651758 0.0060898013   0.00921555 -0.012710574 
  205000    297.30102    5049.0779        24389     29.57826 -0.010730955 -0.0071019298 0.00069150317 
  206000    296.13362    2674.6993        24389    30.000358 -0.002699859 -0.0087719072 0.00033162189 
  207000    300.76892    6962.1509        24389    29.804843  0.010105063 0.0051246182  0.016295362 
  208000     290.8869    7169.5848        24389    28.802325 -0.0071871707  0.010447969  0.010229343 
  209000    289.47279    3801.1225        24389    27.433217 0.0013368649 -0.00037614632 0.00065827213 
  210000    297.77849    6435.8935        24389    26.403745 0.0060347189 -0.0036541245 0.00015765143 
  211000      298.283    5893.7125        24389    25.905298  0.011016522 -0.00014573974 0.00086074584 
  212000    297.21214    3336.2369        24389    26.365861 0.0097545278 -0.0020597762 0.0012225448 
  213000    295.46989    4480.4947        24389    26.710156 -0.015568671 -0.0013241972    0.0105536 
  214000    295.83771    5953.8116        24389    27.271831 0.0006907294 0.0037304827 0.0015891852 
  215000    301.80204    5764.7349        24389    28.181878 0.0012260891 -0.0030929241  0.010007734 
  216000    305.08935    3132.6781        24389     28.53132 0.0080820483 -0.0093193659  0.016341697 
  217000    301.76384     4862.184        24389     28.10801 0.0024369429 0.00012769871  0.005790334 
  218000    294.45146    6058.0231        24389    27.650184 0.0082092459 0.0075547114 -3.8947986e-06 
  219000    294.81685    5398.5838        24389    28.046598  0.001256018 0.0029345833  0.012477242 
  220000    297.17442    5300.5545        24389    29.424713 -0.015605977 0.0050581808 0.0066027072 
  221000    296.32847    5109.6683        24389    30.798965 0.0036023983  0.010819812 -0.0047849274 
  222000    296.12177    5861.6418        24389    31.358754 0.00063020851 -0.0076544856 -0.0078212534 
  223000     298.2397    3205.3991        24389    31.153471 0.0043101423 0.0012897407 -0.00087451594 
  224000    296.57804    2582.8571        24389    30.414905 0.0080894979 -0.0090889283 -0.0091720488 
  225000    303.69515    4244.8245        24389    28.738139 -0.0055006367 -0.015064715 0.0047603059 
  226000    299.32863    4750.6467        24389    27.028905 0.0012971346  0.003869494 -0.0079229465 
  227000    300.45616    3856.6466        24389    25.215753 -0.0010432555 0.0017857238 -0.0093369643 
  228000    297.12904    4920.0192        24389    24.701993  0.004089559 0.0021458133 -0.0026117495 
  229000    293.51126    5576.4134        24389    24.859569 0.0096882024   0.01099977 0.0084790186 
  230000    303.05504    5064.3139        24389    25.100133 0.0060893377 -0.0037064483 0.0046450722 
  231000    306.48732    2881.9117        24389    25.759125 -0.010846843 -0.013477643 -0.0088542234 
  232000    293.05753    3853.1936        24389    26.744817 0.0090816931 0.0019779507 -0.0099625817 
  233000    297.90085    3868.5718        24389    27.819987  0.014391263 -0.014068414 0.0032715892 
  234000    297.84273    5343.7774        24389    28.686897 -0.0029856402 0.00072548433 -0.00087929575 
  235000    294.77665    5477.5271        24389    29.171357 -0.0052949633 -0.0007091372   0.01647578 
  236000    292.92474    4474.2577        24389    29.146138 0.0095112505 -0.0035349606 0.0060999289 
  237000    302.82464    5698.9607        24389    28.963814 0.0032796376 -0.012757947  0.010107505 
  238000    302.80538    2165.4382        24389    28.760623  0.016570134  0.010915621 -0.0018855198 
  239000    298.91234    3645.0824        24389    28.418016 -0.010169683  0.008931435 -0.0010927981 
  240000    295.08548    4089.4967        24389    27.608618 0.0034120753 -0.0045238504 0.00015652745 
  241000    295.78644    5546.9074        24389    27.100515 -0.0015176944 -0.0013781033 -0.0028952735 
  242000    298.36103    3871.9151        24389    26.679614 -0.00066281228 0.0020305962  0.010213193 
  243000    301.62326    5868.0061        24389    26.733075 -0.0038293719  0.011245707   0.01425749 
  244000    299.71419    4118.8382        24389    26.476595  0.024818577  0.002247852 0.0062388968 
  245000    290.29762     3121.265        24389    25.725615 0.0023796912 -0.0068219645 0.0022859886 
  246000    297.49615    5358.1409        24389    25.248388  0.010208934 -0.0012317881 0.0081882836 
  247000    298.39258    5697.6043        24389    25.298522  0.014080487 0.00030874613 0.00042681128 
  248000    294.40318    4486.3401        24389     26.13518 0.0035801437 0.0054157768 -0.0033691005 
  249000    300.28081    3159.1712        24389    27.019664 -0.00090366151 -0.0088366391 -0.0027814395 
  250000    296.56629    4984.9752        24389    27.748001 -2.2807714e-05 0.0095323155   0.01465767 
  251000    298.33701    4333.4157        24389    28.603642 -0.010195234 -0.0032363884 -0.0056873542 
  252000    299.83804    3863.0661        24389    29.785747  0.001362927 0.0044978375 0.0088844421 
  253000    300.86909    4977.7197        24389    29.659636 0.0073315623 -0.0085731643 0.0072524144 
  254000    296.07246    7025.7607        24389    28.623221  0.007285277 0.0078143476 0.0012128611 
  255000    306.58492    3185.9797        24389    27.335637 -0.0049258048  0.013798399 -0.019161005 
  256000    297.45511    3322.8719        24389    27.163142 -0.00011750915 0.0086798863 -0.0026116419 
  257000    300.17215    4968.9695        24389    27.813357 0.0014045223 0.0085880825 -0.014865425 
  258000    298.88266    5105.0644        24389    28.523583 0.0055176859 -0.0060577657 0.0023704066 
  259000    295.72431    2643.7179        24389    29.160238 0.0076802323 0.0065574806  0.011014879 
  260000    299.36737    5588.2387        24389    29.574367 -0.0021734244 0.0081601408 -0.011723054 
  261000    298.01699    5189.8333        24389    29.810309 -0.0012101333 -0.0056358165 -0.0032281433 
  262000    298.49028    3045.1658        24389    29.375466  0.011503999 0.0063266572 -0.0039291686 
  263000     300.0442     3751.057        24389    28.189633 -0.0036318411 -0.0031147626 0.0051014121 
  264000    294.21933    6610.7497        24389    27.413577 0.0051065384 -0.0063567233 -0.0056530877 
  265000    301.17044    6124.3941        24389    26.712142  0.012050029 0.0068348595 -0.00057624531 
  266000    300.93482     3527.862        24389    26.399921 0.0014595688 -0.0046195665 -0.0066904373 
  267000    294.62471    3313.3454        24389    26.537471 0.0055087029 0.0063210122  0.002476243 
  268000    302.40094    5240.0826        24389     27.22299 -0.00073925048 0.0052419104 -0.013833093 
  269000    296.26843    6730.0088        24389    28.075261  0.015671262 0.0014946929  -0.01118308 
  270000    296.46147    3951.3971        24389    28.993458 0.0066207461 -0.0016413902 -0.00045848622 
  271000    300.92744    2477.8538        24389    29.894391 -0.0026954782 -0.014236511 0.0081920528 
  272000    293.49126     3677.401        24389    30.557567  0.015896266  0.019034517 0.00047559361 
  273000    295.35803     7785.145        24389    31.129382 -0.0017707163 0.0057938621  0.012058809 
  274000    294.35448    4568.7137        24389    31.346048 -0.0060418652 0.0057165838 -0.0018871046 
  275000    298.10169    3568.3413        24389    30.714429 0.0027578199 -0.0047478949 -0.0093447177 
  276000     293.2055     5924.917        24389    29.270305 0.0091667775  0.001869895 -0.0021478816 
  277000    298.56474    5766.4825        24389    28.693743 0.00011322758 -0.010216557  0.005358071 
  278000    299.83066    3832.3254        24389    29.114987 0.0097822137 0.0056749049 -0.018290354 
  279000     301.4129    3917.9893        24389    30.162262  0.017155738 -0.013234373 0.0059045656 
  280000    291.77961     3877.482        24389    30.959169 0.0035668525 0.0094067912 -0.0074624257 
  281000    299.53934    2514.7358        24389     30.18712 -0.0064212781 -0.0058480467 -0.0027788196 
  282000    288.94301    3700.3158        24389    28.057956 0.0025281747 -0.006185031 0.00045375481 
  283000    292.15699    5834.9518        24389    25.901772 0.0017776263  -0.01898507 -0.0051679362 
  284000    299.33378    8289.0775        24389    25.501131 0.0071460348 -0.0052001123  0.012326612 
  285000    299.73497    4983.9454        24389    26.323323 -0.0092973823 -0.0073228329 -0.00074952572 
  286000    296.33791    2573.6528        24389    27.305006 -0.0059973616 -0.0010362214 -0.0083688849 
  287000    294.01587    3847.6672        24389    27.841667 -0.00015006128 -0.0052144362 -0.0026949332 
  288000    301.04815    6896.3276        24389    28.061315 0.0069597056 -0.0010811979    0.0106012 
  289000     292.8016    2201.1795        24389    28.175328 -0.0094281802 0.0086871503 -0.0039622442 
  290000    297.51187    6178.8285        24389    28.063045 0.0018826008 0.0032176902 0.0044918048 
  291000    301.80723    6359.7051        24389    27.809161 -0.0058544504 0.0088844593 -0.006742763 
  292000    299.14052    4110.2963        24389    27.493342 -0.0096982674 0.0083151729 0.0077614877 
  293000    298.75996    2070.0928        24389    26.785407 0.0017837307  0.012121685  -0.00474634 
  294000    301.64184    2842.4339        24389    26.955813 -0.0040615118 0.0047738665 -0.012552876 
  295000    304.22924    8598.6239        24389    28.026613  0.016161642 0.0073819922 -0.016968032 
  296000    299.10101    5694.4558        24389    28.633322 -0.0075340564  0.013194015   0.00176169 
  297000    299.90447    3388.4619        24389    28.424696 -0.0067357738 0.0015968097 0.0054003054 
  298000    298.11536    2243.8696        24389    28.056057  0.004932195 0.0016631935 -0.0036191793 
  299000    303.22357    3901.3663        24389    27.366751 0.0056200034 -0.0019549189 0.0041597621 
  300000    306.71014    4984.9469        24389    26.405305 -0.010287781 -0.0027676485   0.01247917 
  301000    297.67181    5737.9862        24389    25.713794 0.0021897244 0.0093388852  0.004360961 
  302000    292.63585    5206.4347        24389    25.830791 -0.010808061 0.0016485568  0.011222921 
  303000    295.11635    2262.7105        24389     26.72467 -0.012850829 -0.0060027027 0.00070453582 
  304000    293.79312    3871.4964        24389     27.57299 -0.0085797472 0.00018013432 -0.0017473473 
  305000    296.63779    7181.6042        24389    27.740178 0.00086784538 -0.0017692899 -0.0019550811 
  306000    297.36889    6456.1429        24389    27.316659 -0.0027924823 -0.013194135 -0.0014597774 
  307000    298.85558    4261.2947        24389    27.011318 -0.0008086556 -0.0031935156 -0.010966512 
  308000    296.90648    2482.7748        24389    26.641447 -0.0035109022 -0.010579486 -0.001022193 
  309000    298.87882    4933.1589        24389    26.528391 -0.016778981 -0.002166518 -0.016416644 
  310000     299.2091    6953.2532        24389    26.231067  0.018503608 -0.010177834 -0.0052601727 
  311000    290.03771    4589.6812        24389    25.580252 -0.0060507174 0.0069829439 -0.0028993359 
  312000    293.67268    2437.1578        24389    24.972548  0.020439774 -0.0034914935 0.0061814399 
  313000    295.67472    4534.0626        24389    24.953737 0.0050379557 -0.005070406 -0.0055074327 
  314000      299.016    3989.7603        24389    26.442466  0.013090411 -0.014985235 -0.00013370606 
  315000    299.58626    4764.7521        24389    27.757534 0.0023697974 -0.011055115 0.0020536614 
  316000     298.6001    4815.6923        24389    28.019298  0.010244814 -0.0065015279 0.0062310911 
  317000    288.17441    1006.3252        24389    27.774956 -0.0094302776 -0.0085375154  0.010263167 
  318000    296.20723    6070.5273        24389    27.113947 -0.011767619 0.0020518456 -0.0018058827 
  319000    298.27059    4497.5672        24389    26.377155 0.00073592459 0.00054079003 0.00040695355 
  320000    294.64807    4906.5809        24389    26.029139 -0.0096427592 0.0028073402 -0.010707042 
  321000    299.48734    5525.9552        24389    26.376466 0.0043664077 -0.0045837914 -0.0047742098 
  322000     302.8894    6668.8782        24389    27.538925 0.0078055373  0.012436377 -0.0016031508 
  323000    295.99609    3400.9699        24389    28.503155 0.0082136941 -0.0080042932 0.0055441447 
  324000    292.84197    5311.3843        24389    28.933561  0.017448081  0.010893694 -0.0040238903 
  325000    300.03973    6829.8462        24389     28.40443  0.015987946 -0.012690515 -0.0012757279 
  326000    299.14484    2904.5873        24389    27.467951 -0.0022567382 -0.0011110097 -0.0057901955 
  327000    290.86792    592.20347        24389    26.719712 -0.002296743 -8.7405917e-05  0.015101962 
  328000    300.34129    3245.6145        24389    27.343755 -0.012182256  0.018492261 0.0076524167 
  329000    300.32351     7492.196        24389    28.361417 0.0033872525  0.013263184 0.0053846404 
  330000    294.78197    6113.7068        24389    29.171356 -0.010650142  0.011967301 0.00061710209 
  331000    294.84476    2749.8075        24389    28.789826 -0.0010110993 -0.008515308 0.00020718047 
  332000    299.27307    4878.1542        24389    27.610023 -0.0046061445 -0.010620822 -0.0061826842 
  333000    295.41108    6348.9746        24389    26.616771 -0.0027692915  0.013942054 -0.0052718768 
  334000    292.79569    6034.0926        24389    25.937543 -0.0039614114 -0.0022879525 0.0032132851 
  335000    292.20342    2954.0439        24389    26.367589  0.010688186  0.010688612 0.0018562545 
  336000    296.85683    2723.7204        24389    26.682239 0.0054526791 0.0013236019 0.0026024205 
  337000     299.1872    4154.9259        24389    26.966095 0.0049545916 -0.0014272628  0.012441432 
  338000    296.76733    6744.3363        24389    27.806076 0.0013895612  -0.00999686 0.0098359323 
  339000    292.61701    6748.4023        24389    28.771572 -0.0018567602 -0.00025540447 -0.012714174 
  340000    294.28606    2353.3901        24389    29.042161 0.0079798324 -0.001926348 -0.00016316668 
  341000    291.75063    2187.6915        24389    28.166917 -0.0086178463 0.0097448662 -0.00087867177 
  342000    300.42226    5505.3695        24389    27.119072  0.015503086 -0.0093954385 -0.0076165602 
  343000    299.08014    6121.4597        24389    26.759875 0.0043562168 -0.005337766 -0.0070873542 
  344000    298.20503    4610.3429        24389    27.365313 0.0016930012 -0.0081089902 0.0057450631 
  345000    299.09003    3311.4034        24389    28.346145  0.010935426  -0.01017909  0.006121599 
  346000    299.85525    4046.9426        24389    28.999183 0.0018318834 0.0018190795 -0.0091587034 
  347000    295.30529    6324.5158        24389    29.459173 -0.0050901278 0.00078801215  0.011795663 
  348000    298.22879    3633.0148        24389      29.6433 -0.0016530003 0.0021042164 -0.0047886538 
  349000    298.83017    3786.0521        24389    30.347671 -0.0040582575 -0.00025596441 -0.016947696 
  350000    305.68027    3325.7069        24389    30.717972 -0.014961533 -0.0086878251 0.0043288043 
  351000     298.2017    5665.5795        24389    30.528173 -0.017383942 0.00011177421 -0.0037864205 
  352000     301.5837    4614.8583        24389    29.799488 -0.00033199747 0.00056411594 -0.0030638466 
  353000    288.11639     3045.439        24389    28.846783 -0.014708879 0.0083769812 0.0015661109 
  354000    300.68162    5582.0993        24389    28.030424 -0.0046989729 0.0020496032 -0.0013464868 
  355000    291.70321    5610.6213        24389    27.676824 0.0015789619 0.0027027938 0.0047509817 
  356000    287.16858    5832.5155        24389    27.535433 0.0098155983 -0.0034547377  0.009045261 
  357000    298.84947    4309.7183        24389     27.45368 -0.0063492708 0.00053820548 -0.0033330701 
  358000    297.05338    5776.1427        24389    27.849709 0.0034287066 0.0057663984 -0.012990798 
  359000    296.16538     4774.966        24389    28.966285 -0.00051438876 -0.012705561 0.0069105975 
  360000    287.86866    3537.8944        24389    29.487642  -0.02298539  0.006751902 -0.027093818 
  361000     285.5685    3448.8618        24389    29.983206 -0.019525362 0.0017767686 -0.019470519 
  362000    287.81319    5810.2806        24389    30.702376 -0.0050475845 -0.00071931091 0.0057698142 
  363000     302.1917    4757.9657        24389    30.712837 -0.010558206  0.001250419 0.0063587543 
  364000     291.7482    3837.2782        24389    30.225546 0.0046741933  0.005892475 0.0086961251 
  365000    298.96086    3739.8525        24389    29.559885 -0.0047851733 0.0056558589 -0.0032931975 
  366000    297.37188    7460.2168        24389    29.156476 -0.0013452762 0.0078531907 -0.0084479311 
  367000    291.46792    3458.7591        24389    29.111144  0.013577393 0.0084045944 -0.0036394449 
  368000    290.61151      4735.86        24389    29.384995 0.0042079604 0.0033773899 -0.0060980436 
  369000    303.25408    3520.1266        24389    29.811408 -0.0051043643 0.0081994668 0.0019872511 
  370000    297.37763    5145.9431        24389    29.483033 -0.0046492293 0.0035421978 -0.013592808 
  371000    296.01362    3844.4669        24389    28.874028 -0.0022520657  0.011208972 0.0062684017 
  372000     296.6643    2508.1094        24389    28.085193 0.0032547497  0.019932838 0.0032518095 
  373000    292.27369    5132.2021        24389    27.453016 -0.0033407515  0.011358597 -0.010666494 
  374000    295.25974    4139.7401        24389    27.489803 -0.0033019333 0.0065046816 0.0080242524 
  375000    303.12508    2624.4587        24389    28.240658 -0.0074045292 0.0032720123   0.01245044 
  376000    302.05758    5024.0489        24389    28.992314  0.010187763 0.0043523987 -0.0087047513 
  377000    293.11122    4701.3933        24389    29.612349 -0.0064514234 -0.0053736843 -0.0019475344 
  378000    292.28066    3711.6975        24389    29.646638 0.0047607975 -0.007886136 0.0011970009 
  379000    294.15258    2685.2936        24389    29.255151 -0.021268148 0.0066829001 0.0088469143 
  380000    298.35795    3307.7955        24389    28.398679 0.00067127145 -0.0038233984 0.0041834878 
  381000     292.9153    4134.2201        24389    28.365322 -0.0044134162  -0.01324966  0.014795482 
  382000    300.70295    5540.9766        24389    29.198339 -0.0025040501  0.015415067 0.0071668788 
  383000    295.63206    6077.9882        24389    29.777179 -0.014934612 0.0094159241 0.0023484976 
  384000    295.93142    2558.3007        24389    29.740065 -0.007549038 -8.4362961e-05 -0.011655785 
  385000    301.30273    2927.4565        24389     28.85912 -0.017222408 -0.0033094548 0.0035842826 
  386000    301.53486    5924.1917        24389    28.508067 -0.012635654 0.0081134315  0.011790706 
  387000    300.81294    5855.0889        24389    28.596562  0.012006591 -0.010402705 -0.018069221 
  388000    297.06175    4154.9797        24389    28.983949 -0.0075432033   0.00558578 -0.0023825433 
  389000      300.579    2640.9206        24389    29.286279 0.0031690894 0.0036927173 -0.013231704 
  390000      301.145    3925.7706        24389    29.289092 -0.016274488 -0.0090517593 0.0078001506 
  391000     296.9051    5932.0793        24389    29.324763 0.0099314816 -0.0084295009 -0.0091650128 
  392000    301.07854    5287.8379        24389    29.741048 -0.0027868756 0.0013321431 0.0060472759 
  393000    292.78953    2850.7321        24389    29.703719 -0.012493902 -0.0013397439 -0.00094187112 
  394000    298.77696    5161.9242        24389     29.03201 0.0049596817 0.00044848673 0.0072759841 
  395000    300.46376    7147.6264        24389    28.070287 -6.9758819e-05  0.006103243 0.0064973006 
  396000     300.6062    2863.9825        24389    27.158236 -0.0014863132  0.007157457 -0.0044136637 
  397000    293.14533    4350.6884        24389    26.325376 0.0060483523 0.0054697299 0.0091467475 
  398000     298.4265    5196.9992        24389     25.73999 -0.00081938441 -0.0025966768  0.012212427 
  399000    293.15331     4444.775        24389    25.698189 0.0013115213 0.0020096962 0.0045360023 
  400000    297.81813    4755.4804        24389    26.077669 0.0012780637 0.0028892687 0.0028481685 
  401000    299.99882    5382.6773        24389     26.52997 0.0071540589  0.011292713 -0.013020683 
  402000    298.78402    3853.8665        24389    26.694289 0.0018496418 -0.010613127 -0.0089619661 
  403000    304.16429    5742.7618        24389    27.369869 -0.0040689739 0.0091512932 -0.008992247 
  404000    294.12612    3740.3747        24389    27.999173 0.0060757978  0.016937613 0.0084460911 
  405000    295.44598    4554.1896        24389    27.954203 -0.0081333893  0.001342877   0.00295602 
  406000    293.98469    4536.2897        24389     27.58275 0.0033311483 -0.0083247621  0.011825755 
  407000    297.19702      4199.72        24389    27.487522 -0.0010429762 -0.0015784786 0.0079137766 
  408000    300.84991    4544.0415        24389    27.277453 0.0081486887 -0.0053784455 -0.0026125215 
  409000    294.15405     6072.685        24389    27.257545 -0.00015256578 0.0014690311 0.00090691362 
  410000    298.41264    3842.0458        24389    27.043058 -0.0046246918 -0.0056098708 -0.021783858 
  411000    298.12018    4469.7972        24389    26.670059 0.0076457905 -0.0032066274    0.0140828 
  412000    294.44035    6138.7914        24389    26.816007 -0.0040947894 0.0052093841  0.004914094 
  413000    290.99553    5458.6848        24389    27.106435 0.0033877555 -0.006710848 -0.0027032793 
  414000    293.91081    2476.0687        24389    27.415309 0.0086689998 -0.0054474802 0.0031775719 
  415000    292.34062     2443.852        24389    27.969103 0.0049609788 -3.1253918e-05 0.0082801196 
  416000    296.32077    4923.8413        24389    29.081823 -0.0013322997 0.0018279906 -0.011499461 
  417000    292.56823    6916.2744        24389    30.108526 0.0052873323 0.0076573153 0.00051810049 
  418000    293.53229    6010.7531        24389    30.462562 -0.00029276279 0.0097071214 0.0033247092 
  419000    292.03182     4743.467        24389    30.139602 -0.0013031031 0.0066445232  -0.01154246 
  420000    295.58995     3691.831        24389    30.477111 -0.0041578147 -0.0080306821 -0.013863464 
  421000    295.68158    4325.3736        24389    30.947326 -0.010516569 -0.010500698 -0.0022574896 
  422000    289.54068    3319.2997        24389    30.868361 0.0051796447  0.011803903 0.0037880675 
  423000    298.70714    3947.8767        24389     29.94992 -0.0029012537  0.010639961 -0.010525023 
  424000    299.61929      5022.55        24389    29.395299 -0.0021678858  0.011578048 -0.010381014 
  425000    291.64961    2653.7167        24389    29.488057 0.0040928555 -0.00080778597 -0.0024722418 
  426000    294.87135    3047.7322        24389    29.568363 -0.0020393953 0.0039570412 -0.006764101 
  427000    299.91178    5822.8607        24389    29.415352  -0.00347832   0.01378435 -0.0031379937 
  428000    305.69425    4576.3387        24389    29.162555 -0.015312022  0.004190306 0.00078065273 
  429000    294.67813    4710.2464        24389    28.658702  0.001443482 0.0038532639 0.0011946437 
  430000    297.84591    4803.6984        24389    28.337398 -0.0027487567   0.01147142 0.0044053644 
  431000    298.66407    3226.8201        24389    28.214068 -0.0079352851   0.01230731 0.0043401971 
  432000    298.55566    3043.4355        24389    27.928519 -0.00054955456 -0.0076664856 -0.0013854711 
  433000    301.67075    4598.6628        24389    27.338437  0.006520602 -0.0069544191 -0.0015235179 
  434000    303.03725    4491.5514        24389    26.473467 -0.010603704 -0.00074770948 -0.0072819829 
  435000    296.84959    4424.3497        24389    26.295293 -0.014469612 -0.0087046128 -0.013214678 
  436000    295.79057    3386.3741        24389    26.697428 0.0019025853 0.00034885953 -0.00069946652 
  437000    297.67176      3726.17        24389    27.860228 -0.00077330679 -0.0020227411 -0.00090725779 
  438000    291.83982    4882.7399        24389    28.930538  0.012400863 -0.0066102143 -0.014581205 
  439000    301.67828    5230.6064        24389    28.830914 0.0076097777 0.0075731617 -0.010984352 
  440000    298.32021    3905.7097        24389    28.335196 0.0019711913 -0.003501586  0.010765201 
  441000    292.21794    6096.9571        24389    28.233472 0.0011186798  0.011311584 -0.0047612049 
  442000    296.82231    4270.9512        24389    28.259122 -0.002820176 -0.0070154778 -0.010822478 
  443000    303.88161    178.88145        24389    28.285485 -0.0039521664 0.0021867113 -0.0016757232 
  444000    299.67606    4429.0088        24389    28.705324 0.0056957728 0.0077032591 -0.0072493833 
  445000    298.37908    7594.2581        24389    28.597702 0.00071123753 -0.0066423744 -0.0042947808 
  446000    294.53214     3905.086        24389     28.59608 -0.00077343261 -0.0013228088 0.0059609802 
  447000      291.351    1441.8334        24389    29.250357 -0.0065889016 0.0011695117 -0.0068678861 
  448000    298.13543     3378.768        24389    29.947832 -0.014244787 -0.0080446613 -0.012168467 
  449000    296.45714     7257.069        24389    29.475133 0.0021941689  0.003728254 0.0022138084 
  450000    305.96046    2717.8086        24389    28.663647 -0.0059029128 0.00099023861  -0.01254196 
  451000    291.59619    2899.7617        24389    28.181887 -0.018591753 -0.0072697593 -0.0036958354 
  452000    293.94035    3854.4825        24389     28.33403 -0.00096577984 -0.0085379162  0.010224064 
  453000    300.41347    4375.5133        24389    28.583298 -0.0030073754 -0.0022593554  0.010668041 
  454000    299.30619    5354.8676        24389    28.239458 -0.003764658 0.0079088991  0.016795395 
  455000    298.22073    3511.3634        24389    27.303561 -0.0012864848 0.0027601994 0.0059858935 
  456000    294.18964    5933.3283        24389    26.862803 -0.00085636171 -0.0045097121 0.0093549627 
  457000    297.95101    2184.6974        24389     26.84548 -0.0089143622 -0.0074377194 0.0077614775 
  458000    300.70442    4858.3084        24389    27.063441 -0.00068334267 -0.0032462445 0.0079260483 
  459000    293.80638    5044.9286        24389    27.707261 -0.0039368616 0.0035478424 -0.0015119969 
  460000     289.7369    3752.9512        24389    28.195882  0.001461255  0.009711418 0.0021758028 
  461000     293.2066    3099.3423        24389    28.738681 -0.012791901 -0.0049946575  0.011226592 
  462000    299.09362    4935.0495        24389    28.937226 3.1974043e-05 -0.0037595778 -0.0025963162 
  463000    292.86535     4851.972        24389    28.828061 0.0090815244  0.005521298 0.00033915523 
  464000    298.56758    4115.7625        24389    29.196762 -0.0020951616 -0.002229572 -0.013855727 
  465000    295.79326    3728.7562        24389    29.459671 0.00016603096 -0.0049857679 -0.0033362873 
  466000    294.32043    3488.7637        24389    29.031744 -0.0068924002 0.0041991254  0.010118061 
  467000    293.16717    6415.7328        24389    27.760476 -0.0048236101 0.0061353751 -0.0090414169 
  468000    303.13977    5333.0078        24389    27.028107 -0.0064345564 -0.0088510241 -0.010406469 
  469000    293.81562    2320.9432        24389    26.499948 -0.0029941285 0.0010835029 -0.0042825994 
  470000    297.36297     4667.547        24389      26.4646 -0.011774122 0.0019469778  0.010973609 
  471000    296.82002     5100.407        24389    26.417693 -0.0011520522 0.0022440016 -0.014884447 
  472000    301.09017    5016.1284        24389    25.973724 -0.0060831312 -0.0053338523 -0.0024080919 
  473000    301.42504    4558.7006        24389      25.5899 0.0033461078  0.010071373 -0.001747035 
  474000    297.09951    1101.6188        24389    25.266636  0.011311495 -0.0035860522 0.0059446928 
  475000    297.41406    4039.5728        24389    25.607355 -0.0010022394 0.0034538138 0.00033055235 
  476000    295.32794    4627.0263        24389    26.978868  0.011085304 0.0065033336 0.0046542002 
  477000    293.20053     4844.986        24389    28.298608 -0.0041133024 -0.0076905153 -0.0021532695 
  478000    293.62796     4765.459        24389    28.709475 0.0020843909 -0.0041903453  0.012193399 
  479000    291.52527    5199.8092        24389    27.994061 -0.012290349 0.00032165881 -0.0059650765 
  480000    301.60997    5199.3754        24389    27.435541  0.015644792  0.012197557 -0.016732021 
  481000    299.82845    3511.5615        24389    26.674532 -0.0039902536 -0.006433623 0.0031555271 
  482000    295.80401    3361.3787        24389    26.373322 0.0033657978 0.0005063375  0.010189385 
  483000    297.90451    4761.8804        24389    26.267164 0.0066064092 0.0013353908 -0.0059474558 
  484000     291.0825    5207.7348        24389    25.735373 0.0092274592 -0.003371583  0.012872237 
  485000    286.72571    2668.5527        24389    25.825102 0.0025630474 -0.0041931606 0.0059907558 
  486000    291.33261    3078.6321        24389     25.80352  0.014825601 0.0066989432 0.0080327866 
  487000    297.96038    3180.4991        24389    25.944167 -0.0036380782 -0.0084766811 0.0055399583 
  488000    293.30544    5054.1607        24389    25.652054 -0.0079459209 0.0018200144  0.011668472 
  489000    293.73754    5379.9178        24389    25.350552 -0.00090232109 0.0037079327 0.0065695422 
  490000      298.952    4341.2564        24389    24.629434 -0.012281478 0.0026024413 -0.014798418 
  491000    290.34307     3458.087        24389    25.388977 -0.0066091606 0.0016124435   0.00282254 
  492000    297.61418    2980.4429        24389    27.158296   0.00614723  0.020060186  -0.01141124 
  493000    297.77857     5264.544        24389    28.580785 -0.0092496233 0.00040155713 0.0089384129 
  494000    299.76035    5465.1608        24389    28.796204 -0.0089955403 -0.00056637498 -0.0072925916 
  495000    300.97086     2283.821        24389    28.409054 0.0097838436 -0.003024799 -0.0030866281 
  496000    293.03757    3414.9308        24389    28.661868  -0.01279306 -0.0091461134 -0.0059729474 
  497000    290.65134    5146.9857        24389    28.544994   0.01501297 -0.0040738215 0.0057088275 
  498000    300.26781    4084.8337        24389    28.305821 0.0085193325 -0.0056165086 -0.0081859307 
  499000    296.27185    4022.5356        24389     27.91862    0.0118092 -0.0062919882 -0.0085137782 
  500000    297.50113    5884.9098        24389    27.734023 -0.0036407436  0.011354717 0.0068349737 
  501000     297.1313    5186.6616        24389    27.172193 -7.7420428e-05 0.00050961509  0.017254787 
  502000    295.57174    2449.8638        24389     26.29871 0.0075436017 -0.0003012717 -0.00022626165 
  503000    293.14676    3941.1346        24389    26.037709 -0.0016664842 0.0032844586 -0.002067349 
  504000    293.37077    6954.7674        24389    25.687428 0.0078277717 0.0011699828 0.0093322129 
  505000    295.95094    5199.3471        24389    25.068479 0.0019000274 -0.0046170459 -0.0075120039 
  506000    300.48661    1748.2748        24389    24.771881  -0.00215252 -0.007711828 -0.0079131047 
  507000    299.51181    3891.1029        24389    24.471252 -0.0035217171 -0.0068345737 -0.010345795 
  508000    298.79514    6033.7182        24389    24.289641 0.0059479268 -0.00072149038 -0.012736907 
  509000    302.41084      5250.18        24389     24.56723 0.0076843431 -0.0010066734 0.0047978152 
  510000     297.5238     3268.939        24389    25.649107 -0.0053304874  0.013479655 -0.0072255017 
  511000    294.07734    2362.1682        24389    26.279144 -0.0040362604  0.013691863 0.0031518452 
  512000    294.17636    4392.3646        24389    26.673538 -0.00023023807 -0.013908342 -0.017163112 
  513000    289.27526    4316.7014        24389    26.478065 0.0091328598  0.010290388  0.018239163 
  514000    296.65403    6032.0797        24389    26.219143 0.0099101428 0.0056382866 -0.0026095274 
  515000    290.86026    4030.9325        24389    26.296042 0.00031280015 -0.0008181373  0.018194922 
  516000     296.6968    2489.1152        24389    26.639964   0.01419373 0.0038283399 -0.0014801718 
  517000    301.95919    5118.0431        24389    27.528864 -0.00086624474 -0.010708705  0.019257285 
  518000    293.70968    3527.2639        24389    27.875707 -0.012672871 -0.015703038 -0.0049792302 
  519000    297.52468    5964.0085        24389    27.618783 -0.014014633 -0.021689938 -0.0030211723 
  520000    296.55895     3829.247        24389    27.007398 -0.0065482266 -0.00026805848 0.0028557667 
  521000    296.18232    186.12633        24389    26.390504 -0.00028603306 0.0044394101 -0.0068532058 
  522000    291.14565    5471.1421        24389    26.268796 -0.0082823807 0.00071247249  0.012547664 
  523000     285.9366     5800.798        24389    26.886023 0.00065556823 -0.001382225 -0.002691773 
  524000     298.9532    5479.0812        24389    27.702041 -0.0026453101 0.0095786685 -0.0059253648 
  525000    293.20314    4269.0017        24389     27.84124 0.0045142621 -0.0098634111 -0.017666096 
  526000    296.98631    1426.3662        24389    28.094675 -0.0020789172 0.0064601916 -0.0053110714 
  527000    304.42194    4814.2964        24389    28.625201 0.0076479624 0.00074232387 0.0022589962 
  528000    299.70116    7731.4336        24389     28.85406 -0.00044231302 -0.00065556907 0.0067621934 
  529000    288.67726    4980.5932        24389    28.616166 0.0054973818  0.010054474 -0.0025809986 
  530000    303.39882    1074.8157        24389    28.230855 0.0020163148 -0.0053653326 0.0025079323 
  531000     296.6571    1674.9574        24389    28.144414 -0.011430524 -0.0098580389 0.00044618641 
  532000    296.44913    5928.8327        24389    27.970926 0.0054474799 0.00087817956 -0.0036241107 
  533000    307.13855      5516.68        24389    27.837497  0.011232065 -0.00091471348 -0.0094675582 
  534000    295.96627    4691.4234        24389    28.099229 5.9181285e-05 -0.0088094923  0.014762602 
  535000    290.73573    1795.5135        24389    28.304542  -0.01913347 -0.0061329032  0.004841855 
  536000    296.27713    3687.4333        24389    27.908064 -0.0050923326 -0.012182311 0.0015412127 
  537000    300.23458    4967.9467        24389    27.799668 -0.0017351054 -0.011972851  -0.00969096 
  538000    300.29214    5707.1526        24389    28.407269 0.0022179216 -0.0082714502 0.0093721729 
  539000    300.82001    3564.4462        24389    28.847613 -0.0015313431 -0.0014935824  0.013193881 
  540000    300.62484    4274.1315        24389     28.49337 -0.015036334 -0.0053282291 0.0012339383 
  541000    292.54034    3850.5044        24389      27.7088 -0.0037068228 -0.0036342099 0.0068845233 
  542000    298.58489    3318.9555        24389    26.889483 -0.015611138  0.011510662 0.0059626477 
  543000    295.89845     7117.757        24389    26.018671 -0.0066115108 -0.003729779 0.0041904609 
  544000    291.23988    6032.1849        24389    24.760874 -0.0040434966 0.0053203355 0.0090911887 
  545000    297.50782    3939.4366        24389    24.287154 -0.0021021942 -0.0083060717 -0.0052208038 
  546000    299.43245    3179.0423        24389    24.941027 0.0044874505 -0.0016977888 -0.0010844119 
  547000    294.73716     3253.182        24389    25.563517 -0.00052598456 -0.016129901 -0.0047044458 
  548000    294.75579    4393.1908        24389    25.458881 0.00022972653 -0.0077061814 0.00035009404 
  549000    290.67778    5668.3147        24389     25.08922 -0.013168132 0.0056800032 -0.0095821297 
  550000    290.49309    4435.9168        24389     24.51399 0.00025215833 -0.002961144 -0.0032525914 
  551000    294.01881    2937.9879        24389    24.504007 -0.0093812273 -0.012032689 -0.0094469624 
  552000    301.50102    4312.1618        24389    25.143451  0.011340798 0.0014345294 -0.0043039785 
  553000    290.43927    8671.7525        24389    25.923844 -0.0073313764 0.00094244593  0.021399807 
  554000    292.23844    7688.2215        24389    26.782926 0.0064131884  0.020177254 0.0022230025 
  555000    299.93339    1094.4196        24389    27.347132 0.0096927059   0.01297447 0.00077843022 
  556000    302.22708    918.28942        24389     27.53209 -0.0065866098 0.0084735425 0.0090810299 
  557000      295.836    7460.8531        24389    27.225623 0.0048075817 -0.0052847757 0.0019504755 
  558000    296.61658    6486.8975        24389    26.613637 0.0045926154 -0.0014020484 0.0069655355 
  559000    294.30385    3921.1421        24389    26.187622 0.0049253023 0.0030039959 0.0042270248 
  560000    291.75337      2818.59        24389    26.230226  0.010961413 0.00039504761 -0.014331639 
  561000    297.22574    5326.3951        24389    26.640269 0.0040904981 -0.0015693982 -0.00027035871 
  562000    296.73249    7621.9752        24389     27.61318 -0.0049087518 0.0095736912 -0.0081324944 
  563000    294.46869    4717.9273        24389    27.588723   0.01719727 0.0024058747  0.014393587 
  564000    298.89869    4346.0314        24389    27.685822 0.0045110818 -0.0067309101 -0.0073241202 
  565000    292.69472    2576.5378        24389    27.910022 0.0030965858 -0.0029729942 0.00030666504 
  566000     296.7712    4056.5736        24389    28.095133 -0.0062762608 -0.0022533053 -0.0034006699 
  567000    302.28879    6628.0448        24389     28.06262 0.0091178109 0.0059440617 -0.0060829524 
  568000    304.34259     2582.775        24389    28.585067 0.0054265727 0.0044737117 -0.0087549585 
  569000    296.02886    1753.0653        24389    28.673618 -0.0045350106  0.011878212  0.010209879 
  570000    299.05153    4684.8516        24389    28.210641 0.0022453765 -0.011695707 0.0064555096 
  571000    299.06069     5332.379        24389    27.749146 0.0041683055 -0.0035815798 0.0026631292 
  572000    294.34628    4859.2745        24389    26.599371  0.012903548 -0.0094724375 -0.0033111905 
  573000     286.6683    3068.1169        24389    26.063726 -0.0015140932 0.0026593547 0.0032996245 
  574000    293.66255    2898.9013        24389    26.012652 0.0059513647 -0.0054932047 -0.00087869797 
  575000     294.1478     3908.668        24389     25.98774 0.0050666475 0.0036437055 -0.0084045844 
  576000    301.83715    4799.3148        24389    26.028435 -0.0043394767 -0.0043128281 0.0015595569 
  577000    293.18246    4241.6096        24389    26.620088 -0.009087323 -0.021015831 0.0041160606 
  578000    294.85336    4244.5108        24389     27.51207 -0.009533972 -0.0026111943 -0.0060777034 
  579000    298.51101    2750.9232        24389    28.299764 -0.0018173684  0.011925886 -0.0091118201 
  580000    292.34004    4084.4506        24389    28.192769 -0.0043731419 -0.0053885851 0.0013980072 
  581000    294.09951    6232.8017        24389    27.197088 -0.0083420059 0.0054781948 -0.0034392504 
  582000    290.81987    5228.0789        24389    26.149661 -0.0042345612 -0.010674376 -0.0059750952 
  583000    292.39943    4925.1399        24389    24.915322 -0.0053898906 -0.0013139639 0.0050527318 
  584000    298.39811    2021.3323        24389    23.644898  0.011415081  0.012480271 -0.0071573959 
  585000    293.17967    3523.2834        24389     23.33789 -0.0016941131  0.010228624 -0.0029709569 
  586000     297.6201    4800.4478        24389     24.10453 -0.015010604  0.020739909 0.0026512756 
  587000    298.76546      2698.83        24389    25.403692 0.0078609994 0.0044437728  0.010747775 
  588000    295.09873    6612.6384        24389    26.558992 0.0048346144 -0.0026311062  0.006288071 
  589000    296.05075    4750.5255        24389      27.9182 0.0072567546 -0.011183507 -0.0024496588 
  590000    291.80418    4803.9412        24389    28.134794 -0.0035634999 -0.0027341523 -0.0039809591 
  591000    295.92395     4948.473        24389    28.558991 0.0086195007 0.0055259374 0.0035664588 
  592000    291.44276    4014.7438        24389    28.849796 -0.00059210731  0.011947983 -0.0027764912 
  593000     299.1755    4541.4037        24389    28.671448 -0.0045524383 -0.0052710481 0.0094617417 
  594000    300.71757    5185.3783        24389    28.513545 0.0017064812 0.0062917534  0.014228854 
  595000    297.04819    3215.3255        24389    27.792744 -0.0062406281 0.0010278092 -0.010302366 
  596000    293.23206    2682.9101        24389    27.129693 -0.0034030928 0.0094367798 0.00048148371 
  597000    291.22625    4096.3621        24389    26.733748  0.015021509 -0.0016680521 -0.00028984162 
  598000     295.5136    4799.2169        24389    26.755187  0.010929818  0.017404159  0.015907038 
  599000    285.99225     3766.828        24389    26.739903  0.005083499 0.0061314112 -0.0073520183 
  600000    298.30372    5347.1336        24389    27.107764 -0.0038720804 -0.0030523766 -0.0004945869 
  601000    298.57397    3671.9466        24389    27.734667 -0.001893946 -0.0086248101 -0.0098607736 
  602000    298.03439    4802.9163        24389    28.235311 0.00030598636 -0.0056934327 -0.0074241117 
  603000    294.13823    4546.7068        24389    28.147686 -0.0035202465 -0.0089344286 0.0068857706 
  604000    290.75503    5069.5276        24389    27.833857 -0.0087022479  0.010802333 0.0078047612 
  605000    293.41371    4978.2869        24389    27.535848 -0.0050101209 -0.0046105101  0.010886065 
  606000     294.2316    3737.0571        24389    26.672664  0.013170375 -0.0018008556 0.0058857729 
  607000    302.82801    4161.6883        24389     26.05034 -0.0044724813 -0.0063639834 0.0029164305 
  608000    303.11968     6594.708        24389    25.169646 -7.2971087e-05 -0.0072827806 0.0020289245 
  609000    302.57231    5207.3481        24389    24.706508 -0.0041546879 -0.0092031784 -0.0016748589 
  610000    302.11769    3180.3526        24389    24.971428 0.0018534552 -0.002846341 0.0022440114 
  611000    294.48929    2048.1537        24389     24.74329  -0.00272831 -0.0032486285 -0.010508775 
  612000    296.31778    5611.1498        24389    24.672981 -0.019361983 -0.004532785 -0.00011269068 
  613000     296.8731    3584.2142        24389    25.541345 -0.010032819 -0.0081273179 -0.0094817658 
  614000    298.67558    4906.5995        24389    26.440795 -0.0092206036 0.0029049538 -0.002830307 
  615000     296.8156    4358.6815        24389    26.734114 -0.0031318945 0.0030199937 -0.00027766629 
  616000     298.1662    4185.3692        24389    26.532567 -0.0080671164 -0.0075335166 0.0058958357 
  617000    298.20949    6147.5698        24389    26.772857 0.0066403937 0.0025006435 -0.015261247 
  618000    297.65127    4605.6817        24389     27.31954   0.00878696 -0.0034453183 0.0050846545 
  619000    294.59027    2797.9532        24389    27.630852 -0.0084270577 0.0057020725 0.0061958568 
  620000     292.5479     6115.879        24389    27.714923  0.010252774 -0.011575502 -0.00084846438 
  621000    297.11688    1943.5204        24389    27.747394 0.0089203268 -0.0068155824 -0.0051789172 
  622000    301.53563    4921.9849        24389    27.273871 0.0034646904 -0.0044091319 -0.0033919752 
  623000    298.83721    6479.0204        24389    26.571119 -0.007490567 0.0042421042 -0.0089875871 
  624000    286.37717    5658.6319        24389    26.285448 -0.0087049339 -0.010342962  -0.01505614 
  625000      286.988    2121.4335        24389    25.820532 -0.0070265754  0.010129026 0.0010165634 
  626000    298.10756    5011.5838        24389    25.442502 0.0014728919 0.0034243006 0.0061645236 
  627000    292.65433    6593.1111        24389    25.710289 -0.0057339767 -0.0017844273 0.0046924632 
  628000    292.80618    3232.2569        24389    26.236182 0.0040810028 -0.00054043912 0.0044707141 
  629000    292.89724    2109.2696        24389    26.368291 -0.00066859986 -0.0040552014   0.01248897 
  630000    296.57157    4785.1172        24389    26.484784  0.015374046 -0.0058248149 -0.0012279851 
  631000    290.96096    6812.6245        24389    26.594406 0.0011928352 -0.0011105815 -0.005344962 
  632000    296.10925    4363.9141        24389    27.063438  0.005002865   0.00973826 0.0024323474 
  633000    295.75202    1473.7024        24389    26.957191 -0.0010009923 0.0040849067 -0.0098282656 
  634000    290.11038    3073.3527        24389    27.012826 -0.0083501588 -0.0051791943 0.0061725155 
  635000    303.48865    5958.5152        24389    27.634298 -0.00077420911  -0.01012101   0.01220994 
  636000    290.08357    6249.3046        24389    28.350235 0.0010036525 0.0017433811  0.002777485 
  637000     296.2274    2176.9516        24389    28.982307 0.0091075441 -0.0089546344 -0.0069017143 
  638000    297.65717    2923.4788        24389    29.009625 -0.012920576 -0.0089254942 -0.0010756185 
  639000    299.91129    5336.4614        24389    28.956405  0.002981964 -0.0022175101  0.018377966 
  640000    293.67822    4495.6044        24389    28.046767 -0.0027877599  -0.01391084 -0.005453665 
  641000    286.32323    3778.2204        24389     26.84149 0.0058360672 0.0050766102 -0.0033321229 
  642000    300.60714    6219.9193        24389    25.671153 -0.012406601 -0.0079196363 0.00093112707 
  643000    292.53103    6552.8965        24389    25.114001 -0.0031004076 -0.0093167455 0.0051594042 
  644000     297.5978    3028.1194        24389    25.850295 -0.0047225533  0.010119624 0.0056719225 
  645000    290.74162    2179.4119        24389    26.719858 -0.0050212088 0.0084293981 0.0067074006 
  646000    297.38961    6521.0723        24389     27.45911 0.0025451129  0.004086698 -0.0052408618 
  647000    298.84449    6998.7939        24389    27.731182 -0.004399756 0.0010713293 -0.00042791129 
  648000    288.21856     5040.172        24389    27.700297 0.0053538883 0.0033597517 -0.0067285809 
  649000    292.87635    2453.2875        24389    27.849146 0.0018800316 -0.0015773668 -0.0067360615 
  650000    296.45655    669.67002        24389    28.482837 0.0013997747 0.0050318642 -0.010336277 
  651000    297.53757    2865.2239        24389    29.359003  0.004877232 0.0056819639 3.3941377e-05 
  652000    296.93934    5919.9809        24389    29.602184 -0.00088377299 -0.007130413 -0.020559638 
  653000    294.47843    5187.7907        24389    29.647306 0.0052197021 0.0020615103  0.008811988 
  654000    297.87925     2272.878        24389    29.711589  0.001170055 -0.0070195146 -0.00080563456 
  655000    299.63926    2982.3364        24389    30.201552 -0.0053150648 -0.0074019267 0.0027349604 
  656000    299.27835     3779.431        24389    30.561615  0.006435873 -0.0069828603 -0.011360927 
  657000    296.46425    4427.8082        24389    30.216653 0.0048635555 -0.011289976  0.011850072 
  658000    289.51751    1632.5911        24389    29.307551 0.0066581657 -0.0078489463 -0.0044061223 
  659000    298.57426    3012.9443        24389    28.332995 -0.0027121821 -0.0010213768 -0.0079999339 
  660000    286.84951    3531.9102        24389    27.719291 0.0025846631 0.0068574994 -0.0075106448 
  661000    289.73096    5363.2544        24389    27.592308 -0.0082034455 -0.0022202826 0.0017879769 
  662000    297.92934    4455.6663        24389    27.574781  0.011120825  0.016295108 -0.018454229 
  663000    289.88176    5094.7907        24389    27.723021 0.0034799627 -0.0047466954 -0.0098978843 
  664000    302.31398    3451.6347        24389    27.775244 -0.0083955774 -0.0035186403 -0.0099754348 
  665000    296.72226    3045.9156        24389    27.656894  0.012006546 -0.0061198304 -0.0085152728 
  666000    293.78258    3205.9942        24389    28.090043 -0.0019722135 -0.0011947016 -0.0030332494 
  667000    297.94943    4627.8631        24389    28.822464 -0.0037406474 0.0055793172 -0.013845306 
  668000    300.32264    3686.7004        24389    28.469468 -0.0024677989 0.0056887008 -0.0066694053 
  669000    299.00128    2412.6014        24389    27.618593 -0.0094819687 -0.0021856903 0.00046480503 
  670000    298.41285    4094.1134        24389    27.226385 0.0040133141 -0.0036965282 -0.0068504251 
  671000    292.38286    5789.1847        24389    27.409021 0.0041760848 0.00036788997 -0.0027986621 
  672000    291.92457    4306.1026        24389    27.790977 0.0012640593 -0.010918339 -0.0049694565 
  673000    297.63347    2519.9192        24389    28.311403 0.0015804407 -0.010292294  0.014671481 
  674000     298.3836    2164.2692        24389     28.78963 0.0081519013 0.0027045153  0.010811591 
  675000    290.53133    4131.4087        24389    28.621883 -0.0030811749 0.0039550973 0.0015338755 
  676000    286.99674    5192.7456        24389    28.056202 0.0086619608 0.0043669631 -0.007257568 
  677000     294.1732     3939.647        24389    27.879722 0.0021334065  0.014656081 0.00081935731 
  678000    290.59275    4999.1303        24389    28.165292 -0.012833217  0.014523619 -0.0020214978 
  679000    296.48396     5679.306        24389    28.793278 -0.020222166 0.0079424695 0.0066046758 
  680000     299.4346    4242.7401        24389    29.111657 0.0091341087 -0.0039156061 -0.0028830627 
  681000    293.91324    2524.6882        24389    28.473385 -0.0046170961 -0.00040949162 -0.0058515016 
  682000    297.60174    3355.5327        24389    27.387544 -0.00070204144  0.012278853 -0.006675749 
  683000    295.41664    6951.2419        24389     27.08299 0.00084356159 -0.0035728871 -0.0022841016 
  684000    295.48801    7522.9276        24389    27.594876 -0.0079485383 0.0048290645 0.0063157309 
  685000     297.4718    3792.4809        24389    28.603077 -0.00094740213  0.011963224 0.0016932658 
  686000    301.55233    3144.4951        24389    29.277188  0.016335485 0.0089171713 0.0016122827 
  687000    297.41138    5188.7183        24389    29.260819  0.012963991 -0.00060310202 -0.0018922481 
  688000    285.69656    5892.2363        24389    28.476509 -0.0013442755 -0.0034155476 -0.015689667 
  689000    297.89523    1859.9193        24389    27.564924 0.0062463467 -0.003049578 0.0042934021 
  690000    290.49753    3266.1072        24389    27.048124 -0.00043178394 -0.0018849203 -0.0010666402 
  691000    303.82597    4583.6784        24389    27.398546 -0.0076403067  0.011170004 0.0076638338 
  692000    296.43757    4769.1349        24389    28.455942 -0.0027859833 -0.0051742313 -0.00054483242 
  693000    287.52913      3659.65        24389    29.285209 0.0029113617  0.012129143 0.0056227439 
  694000    294.34836    7028.9028        24389    29.631882 -0.0001714015 -0.0043593574 -0.012777241 
  695000    296.38266    3766.1241        24389    29.356933 -0.0062815179 -0.014783532  0.011678377 
  696000    297.54033    2846.4115        24389    28.818363  0.001889292 -0.00080029106 -0.002129743 
  697000    294.13217    2415.6384        24389    28.336132 0.0023791025 -0.0082237204 0.0025262667 
  698000    297.56938    4518.8229        24389    28.004601 0.0011288963 0.0044717747 0.00012573123 
  699000    294.35604    5665.2886        24389    27.215959 -0.0025734741 0.0062042004 -0.00087277772 
  700000     296.9139    5611.8521        24389    25.969823 0.0028875588 -0.0077341294 -0.0032972586 
  701000    288.50065     4128.276        24389    25.032251 0.00084158116 0.00011282799 0.0048582452 
  702000    289.59182    2600.1244        24389    24.654658 0.0090416482 0.0028499831 0.0059941749 
  703000    297.91289    4163.0593        24389    25.200962 0.0043751478 -0.0058051649 -0.0078912478 
  704000    293.11655    6487.5319        24389    26.230413 -0.0061880895 -0.0056898461 -0.0074437641 
  705000    301.96027    4899.1126        24389    27.862421  0.012309963 0.0022028018 0.0017298046 
  706000    295.79188    3305.1538        24389    28.802894 -0.020047594  0.012509278 -0.0045032247 
  707000    297.74765    2659.3691        24389    29.325105 -0.014574139 -0.0064228839 -0.0071895083 
  708000    301.29577    5424.3951        24389    28.543884 0.0031486543 -0.0052093751 0.0062816937 
  709000    296.90444    5480.1368        24389    27.905113 -0.0048187708 0.0067646115 -0.0022053475 
  710000    296.45576    4295.7191        24389    27.372126 0.0077269569 -0.0037316204 -0.015394164 
  711000    291.96694    1163.0353        24389    27.078139 -0.0031620582  0.018234759 -8.7661453e-06 
  712000    298.54654    3015.4483        24389    26.267777 -0.011961145 0.00013623322 -0.0037555891 
  713000    297.74812     6295.786        24389    25.999119 0.0047897021 0.0042651629 -0.0045701284 
  714000    285.51386    6847.4969        24389     25.91073 -0.0053804913  0.014080716  0.016520786 
  715000    294.63684    3708.0013        24389    26.327559 -0.0033976026 0.0029402237 0.0078082922 
  716000    293.85249    2449.5143        24389    27.455788 -0.0056585505  0.022809277 -0.0063784962 
  717000    291.22109    2581.4764        24389    27.544566 0.0010210426 -0.0052007408 -0.0010311718 
  718000    300.58217    4603.4764        24389    27.466354 -0.011015303  0.003910375 -0.0047555926 
  719000    293.81341    6601.1804        24389    27.328158 0.0074301916 0.0069199576 0.0044417277 
  720000    291.63977    4746.4638        24389     28.19153 -0.0023037409 -0.012892113 0.0063275947 
  721000    292.83781    1003.4013        24389    28.334056 0.0061288822 -0.0080242573 -0.014783258 
  722000    296.84881    3424.4258        24389     27.70662 -0.0047189397 -0.0071401491 0.0035268739 
  723000    294.43851    5700.3967        24389    26.887426 0.0097369265 -0.013727842 -0.0015878219 
  724000    299.40065     6213.433        24389    26.231344 0.0087082288 0.0035767318 0.0021503931 
  725000    294.90832    2624.7436        24389    26.367243  0.003048854 -0.0074707713 -0.0068091328 
  726000    298.68795    2818.5792        24389    26.537235  -0.01564734  0.005212782 -0.011119978 
  727000    297.17479    6204.0133        24389    26.497538 -0.0033892508   0.01434713 -0.00099559429 
  728000    295.22641    5446.5483        24389    26.042134 0.0029521257  0.004562017  0.020745295 
  729000    298.09387    4332.9283        24389     26.33159  0.008725219 -0.0090575627 -0.00020074442 
  730000    299.73154    4070.1291        24389    26.710791 -0.010939166 0.0060223769 -0.00042001334 
  731000    294.47092    4316.0095        24389    26.995134 -0.014886543 -0.0021803812 0.00063500386 
  732000    296.24346    2702.6998        24389    27.633364 5.5782151e-05  0.016442274 -0.0019865316 
  733000    290.90386    4981.1433        24389    28.123852 0.0019932011 0.0051797189 0.0034761195 
  734000    292.81536    6024.1923        24389    28.764489 0.0092730288  0.011277896 0.0018200226 
  735000     300.7246    4570.3091        24389     28.31481 0.00070782172 -0.0027837564 -0.003152593 
  736000    295.34676    1963.9452        24389    27.328142 0.0011001223 0.0070189413 0.0084637871 
  737000    296.29232    3601.6363        24389    26.860316 -0.023555158 0.0037450958  0.004282244 
  738000    298.09489    4867.1152        24389    26.581916 -0.0086409323 0.0025269341 0.0037824503 
  739000    285.41571    5050.0043        24389    26.343515 -0.0005115181 -0.011328515 -0.0024474656 
  740000    288.52093    2544.8465        24389    26.124925 -0.0034052846  -0.00208576 0.0023376886 
  741000    291.78936    1887.3411        24389    25.425085 -0.0017901497 0.0085853526 0.0044774277 
  742000    298.19965    3779.4243        24389    24.715843 0.00029558383 0.00097957684 -0.0027972064 
  743000    295.61496    4746.9399        24389    24.002808 -0.0092597289  0.013228605 -8.3987176e-05 
  744000     295.5958    3583.4823        24389     23.95631 -0.015442811 -0.009446626 0.0048691624 
  745000    294.21635    5186.1738        24389    24.058473 0.0043575978 0.0030219565 -0.0084314616 
  746000    302.82517     4837.777        24389    24.775848 -0.008103622  0.014244705 -0.0021635568 
  747000    291.57609    4585.8208        24389    26.615315   0.01334603 0.0082265141 0.0098118807 
  748000    296.09429    2982.2816        24389    28.476457  0.008873739 0.0032387601 -0.0087020378 
  749000    295.42376    4996.2056        24389    29.344989 -0.0006261284 0.0022064779 -0.0027387079 
  750000    291.20111    6030.7203        24389    29.096236 -0.011676768 -0.0090954792  0.004657729 
  751000    292.76182    4733.4723        24389    28.327822 -0.014598967 0.0035683532 -0.0055022152 
  752000    295.63694    3624.8074        24389    27.651533  0.005843002 0.0014915857 -0.0088644599 
  753000    293.14216    1507.2956        24389    26.878329 -0.0031614666 -0.0092971756  0.007422412 
  754000    299.58957    2551.7932        24389    25.644917 0.0042929873 -0.013357729 0.0015283695 
  755000    304.81086    3648.8836        24389     24.73982  0.015025079  0.016937316 0.0035604622 
  756000     303.7802    5960.3698        24389    25.236255  0.009670882 0.0067877936 0.0013840473 
  757000    300.08148    2675.1208        24389    27.092256 0.0042663347  0.006753434  0.011838037 
  758000    291.35712    1502.6931        24389    28.909769 0.0039650027 0.0084422535  0.010135532 
  759000    292.91756    5065.5455        24389    29.734328 -0.014627145 -0.0021643007 0.0053076352 
  760000    288.94213    5825.9403        24389    29.294052 0.0027970956 -0.0051845829 -0.0059322985 
  761000    296.52909    2868.4356        24389    28.271903 0.0050912624 -0.010918844 0.0077927479 
  762000    295.78708    2686.2708        24389    27.030283 0.0016642246 0.0019029292 0.0060314917 
  763000    296.43045    5287.3592        24389     26.07296 -0.0049843763 -0.0099309699  0.012828231 
  764000    296.98777    4410.9656        24389    25.068127 -0.0019693179 0.0092649553 -0.011190846 
  765000    303.24442    3992.0776        24389    24.616553 0.0089040252 -0.0017637091 -0.0037748005 
  766000    299.07616    3640.9938        24389     24.99687 -0.0077245184 0.0042238745 0.0044365502 
  767000     300.7322    3283.6161        24389    25.660311 0.0037517969  0.003898859 0.0056706883 
  768000    298.77244    4273.0692        24389     26.03638 -0.010077547 0.0051327475 0.0087110544 
  769000    299.21016     4356.251        24389    26.137708 -0.0034861664 -0.0010606781 0.0032418993 
  770000    296.24198    3825.7093        24389    26.464016 0.0060983566 -0.0068285717 0.00086582201 
  771000    288.00277    4110.6724        24389    26.735621 0.0019515901 -0.0059520906 -0.0029050541 
  772000    293.15444    5603.4804        24389    27.291171 -0.0069602456 -0.0088377975 -0.00013391589 
  773000    296.48795    3808.0683        24389    27.368105 -0.00063308502 -0.0015616038 0.0089932676 
  774000    297.25353    3941.8934        24389    27.696991  0.017516555  0.009439003 0.0012616211 
  775000    294.59362    5008.1822        24389    28.506435 0.0038439747 -0.0057057297 -0.0031045869 
  776000    294.00472    4744.4574        24389    28.939553 -0.0039250137 0.0012782257 -0.00072475885 
  777000     292.7587    2248.5509        24389    28.634881 0.0089758954 -0.012478481 -0.0025457257 
  778000    291.26172    3161.1002        24389    27.457087 0.0029575109 -0.011366823 -0.0056854028 
  779000    296.42194    7369.4063        24389    26.495994  0.012534037 -0.0052172709 -0.0051161394 
  780000    294.92618    5541.1886        24389    25.646641 0.0099433948 0.0093539567 0.00011233231 
  781000    286.76677    4582.4456        24389    25.414678  0.011073741 -0.00029236734 0.00073622503 
  782000    294.37635    4270.9889        24389    25.580106 -0.013176469  0.000471388 0.0080582376 
  783000    289.12619    2877.1308        24389    26.131648 -0.011204298 0.00090310745 -0.006798095 
  784000    294.60328    2588.9162        24389    26.473477 -0.00041308151   0.01450046 -0.0062209543 
  785000    291.86692     4546.302        24389    26.538706 0.0090779608  0.010119303 -0.0045213764 
  786000    301.68901    4442.0678        24389    26.872863 -0.0043368638 0.0030912698 0.0020384585 
  787000    297.23786    2102.3158        24389    26.978959 0.0068884151 -0.0033790146 -0.0045064322 
  788000     297.4097    2282.8805        24389    26.528409 -0.0015464419 0.0002901874 0.0014943517 
  789000    298.89941    7105.3321        24389    25.528481 0.0064075108  0.005421948 0.0071724346 
  790000    296.51851    5502.7919        24389    24.832438 0.0022455423 -0.0023287993  0.012288217 
  791000    297.11464    2494.4568        24389    25.340592 0.0069780141 -0.0028693623 -0.0031291337 
  792000    296.26579    2314.2773        24389     26.28268 -0.0039142979 0.0015295738 -0.00045808644 
  793000    290.80015    4674.0237        24389    27.688406 -0.004210449 -0.00085458076 0.0065529659 
  794000    294.73226    5300.5558        24389    29.496634 7.2250651e-05  0.017050902 -0.0047722153 
  795000    296.27418    4612.1018        24389    30.837016 0.0044353699 0.0028941996  0.010673816 
  796000    294.57722    3524.3684        24389    31.291175 -0.0073583659 0.0071115301  0.013046965 
  797000    298.96118    4019.1716        24389    30.559925 0.00020957287  0.013731101 0.0071649138 
  798000    301.25158    3120.2411        24389    29.558227 -0.011695745  0.014543454 0.0043147598 
  799000    298.75784    3585.7672        24389    28.808846 -0.003258952 -0.003555355 0.0096682451 
  800000     291.4892    5049.0431        24389    28.115481 0.0054544438  0.002009045  0.006876167 
  801000    292.96134    4202.9067        24389    27.093783 -0.0016430558 -0.002757419 -0.0076490554 
  802000    299.28767    3524.3885        24389    26.336649 -0.0071992962 -0.0065415762 -0.0028769331 
  803000    293.07936    3639.6851        24389    25.617865 -0.010059575 -0.013042036  0.010101128 
  804000    294.88648    1610.5263        24389    26.009954 -0.0057280997 0.0080137757 -0.0038733412 
  805000      295.495     2401.894        24389     26.71276 0.0061080753  0.001743539 0.0019304644 
  806000    296.01239    6674.4088        24389    27.880622 0.0012861178 -0.0049528599 -0.0069117475 
  807000    299.40591    6140.8788        24389    29.090195 0.0088012086  0.012801891 -0.0010551525 
  808000    306.08365    4399.3965        24389    29.468654 0.00012456308 -0.006791803 0.0092000668 
  809000    296.20636    1848.8575        24389    29.498237 -0.0067917075 0.0058632685 -0.0015565807 
  810000    298.19488    4431.7783        24389    28.895558 -0.0068708102   0.00927367 -0.00046293323 
  811000    290.88413    6806.3613        24389    28.044849 -0.017618077 0.0070383055 -0.010178002 
  812000    299.56578     2804.604        24389    27.518793 -0.0043990353 0.0072053972 -0.013796946 
  813000    291.96086    3776.3813        24389    27.303911 -0.0096535262 0.0033033017 9.7866826e-05 
  814000    292.88415     3803.306        24389    27.503481 -0.0046049184 0.0086142619  -0.00636389 
  815000    294.32412    3843.5237        24389    27.929757 -0.0059352609 0.0081082719 -0.0020407365 
  816000    299.40708    5153.7304        24389    28.210117  0.010224879 0.0016994409 -0.0089104855 
  817000    301.27731    2483.7815        24389    28.402195 0.0065769145 -0.0061864219 -0.0071698706 
  818000    295.99413    2573.8578        24389    28.354085 0.0016390258 0.0070017172 -0.0088516772 
  819000    297.45261    6289.5419        24389     28.37032 -0.004143033 0.0088763389 -0.017060312 
  820000    294.00245     4193.414        24389    28.692012  0.010352472 -0.011463337 -0.010006228 
  821000    299.31588    2871.5479        24389    28.623417   0.01258341 -0.0028595168 -0.0080939053 
  822000    296.87546    3281.6539        24389    28.046623  0.013847499 -0.00042164167 0.0034678543 
  823000     289.0489    3199.1547        24389    26.655174  0.014269589 -0.0060590586 -0.0094247401 
  824000    293.63107    4049.8181        24389     25.35921 -0.0077375187 -0.0014194497 -0.002353254 
  825000    297.06461    4934.9489        24389    24.722176 -0.0085373929 0.0030324459 0.0011824099 
  826000    296.96525    2417.4359        24389    24.825779 -0.0068309351 -0.0045099021 0.0018733308 
  827000    293.56321    3701.0585        24389    25.651211 -0.0063806638 -0.0075875965 0.00043464861 
  828000    297.34903    6164.8364        24389    26.384559 0.0060302917 -0.0025852817 -0.017257519 
  829000     291.3674    6829.7678        24389    27.364041 -0.0020188096 -0.0052984453 -0.00068479155 
  830000    295.87742    2474.7438        24389    27.765938 0.0063882255 0.0060367318  -0.00303209 
  831000    295.30964    3048.8056        24389    27.838488 0.0082583711 -0.0056283436  0.008711255 
  832000    291.63218    5971.3821        24389    27.286427 0.0045346332 0.0015318723 0.0018683167 
  833000    288.83033    4784.1892        24389    26.746808 -0.011403578 -0.014449261 -0.0036521313 
  834000    291.92215    1679.9684        24389    26.483229 -0.011892006 0.0010422839 -0.0018181142 
  835000    296.34138    2381.4841        24389    25.627468 -0.022546911 -0.018829776 -0.011494645 
  836000    289.97538    5564.1498        24389    24.487157   0.00862948 0.0029592742 -0.0033291068 
  837000    292.36663    5325.5444        24389    23.498125 -0.0013990174 -0.00041347474 0.0035476341 
  838000    292.14831    2673.4449        24389    23.074592 -0.012199687 -0.010254422 0.00092260188 
  839000    298.64921     910.0931        24389    23.661852 -0.0041015166 0.0079847415  0.002918065 
  840000    302.29682    4645.1017        24389    24.575194   0.00697295 -0.0014829052 0.0022958924 
  841000    297.20278    5068.4444        24389    25.883505 -0.0011710503  0.013817036 -0.0043482015 
  842000    301.28451    5866.3559        24389    27.257802 -0.004829302 -0.0023977122 -0.00047692265 
  843000     300.5538    3488.9459        24389    27.626227 0.0034414132  0.001155841 -0.010220898 
  844000    291.11154    2988.7948        24389    26.972489  0.009399318 -1.0163875e-05 7.3321375e-05 
  845000    295.55165    4363.3582        24389    25.735829 0.0078044381  0.011330432 0.0060282294 
  846000    292.44002    5351.4734        24389    25.097534 -0.014340415 -0.001144022 0.0033135158 
  847000    289.63135    5722.1314        24389    25.077263 -0.011612146 -0.0048329547 0.0040082223 
  848000    292.90971    3424.6221        24389    25.560639 0.00023985994 -0.012926441 0.0088765702 
  849000    290.31326    4497.4486        24389    26.213824 -0.0049526134 -0.0035549092 -0.0042731589 
  850000    291.24157    3996.1463        24389    26.422041  0.011369671 0.0048735958 0.0027543039 
  851000    299.27205    4794.8504        24389    26.600522 0.0046822234 -0.004238646 0.00024836237 
  852000    293.38284    5799.4351        24389    26.765469  0.012965285 -0.005498671  -0.01176619 
  853000    296.34813    5576.3962        24389     27.16118 -0.0036248032 -0.0011116678 0.0077015091 
  854000    297.31106    2946.0338        24389    27.572085 0.0040749223 -0.003310492 0.0039687684 
  855000    290.58191    2973.0122        24389    27.627487 -0.0028199158 -0.0058628067 -0.0017987829 
  856000    298.45555    6794.3141        24389     27.15292 -0.019038773  0.009783912 0.00087644161 
  857000    297.62456    3094.5854        24389     26.54812 -0.003562822 -0.011268166 -0.0075755352 
  858000    296.44328    3992.7196        24389     26.38488 -0.0069577364  0.013405648 0.0030546397 
  859000    292.42972    2235.5156        24389      26.2431 0.00040417232 -0.0057881767 0.0088443114 
  860000    298.39604    6536.8517        24389    26.174397 1.3379491e-05 -0.0051466787 0.0057713733 
  861000    295.75254    5934.5245        24389     26.31328  0.008728651 -0.012550625 0.0042743665 
  862000    288.86697    4610.2145        24389    26.427666 -0.0050351517 0.0058911376 -0.018134881 
  863000    292.83915    2782.0813        24389    26.982443 -0.0012461786 0.0028267575 0.0045231922 
  864000    297.31668    3033.7499        24389     27.39769 0.0085054339 -0.0054051508  0.003077331 
  865000    291.07469    3412.9305        24389    28.083205  0.012185331 -0.0099034214 -0.010986143 
  866000    292.05877     3014.002        24389    28.562882 0.0035075998 -0.0033804693 0.0028476743 
  867000    294.88433     4183.079        24389     28.70028  0.011768009 0.0098125488  0.003865048 
  868000    300.93319    4190.6447        24389    28.820319 -0.010525434 0.0030474848 0.0059309189 
  869000    291.91556      1715.46        24389    28.862232 0.0070170813 0.0041593718 -0.014694167 
  870000    298.05706    4917.5259        24389    28.501791  0.003163657  0.009880773 0.0043296877 
  871000    297.23565    6581.9248        24389    27.990783 0.0085448412 -0.0029264381 -0.0055844368 
  872000    301.15847    3078.0956        24389    27.951899  0.006890332 0.00058550221 0.0081762917 
  873000    298.03766    2794.7935        24389     28.85444 -0.0059291601 7.9273743e-05   0.01058046 
  874000    290.19056    3526.4969        24389    29.852032 -0.0059697984 -0.007594375 0.0054409178 
  875000    287.81102    5663.2116        24389    30.412999 0.0077024084 -0.0014908611 0.0054593115 
  876000    302.35395    5886.3346        24389    30.706921 -0.0018284012 0.0013246297 0.0098422983 
  877000    297.54918    1998.5766        24389    30.153821 0.0059428807 0.0064787181 -0.0057190292 
  878000    286.70492    2863.6657        24389    29.386953 -0.013641678 -0.0012808385 -0.0047143979 
  879000    292.91525    5651.0936        24389    28.206597 -0.00072668584 0.0040294264 0.0034743556 
  880000    295.43347    4515.1072        24389    27.273697 0.0023651495 -0.0096975678 0.0041333465 
  881000    286.47561    4668.7658        24389    26.596314 -0.0071789977 0.0037908774 -0.0040919678 
  882000    294.20893    2860.2275        24389    25.864519  0.006127808 0.0079359083  0.011516929 
  883000    293.49993    3537.0985        24389    25.875305 0.0017578589 -0.0044765604 -0.0004354342 
  884000    297.02609    7167.1347        24389    25.756062 -0.0091327685 -0.0047339897 0.0021082066 
  885000    290.22965    4012.0023        24389    25.550428 0.0071356238 0.0073580616 0.0011177729 
  886000    293.94469    1738.9535        24389    25.634852 0.00091220163 -0.010970247 0.0020745859 
  887000    292.56185    3957.7381        24389    25.952064 -0.020092598 -0.0055676371 0.0068133543 
  888000    298.63675    2398.9134        24389    25.920816 0.0025931409 -0.00053290946 0.0018112123 
  889000    296.31355    3112.9708        24389    26.396698 -0.0041503145  0.010719102  -0.01884441 
  890000    296.29587     5884.421        24389    26.751851 0.0013947806  0.012226531 -0.0041896082 
  891000    294.02042    4802.6369        24389     26.86842 -0.00052016496 0.00025826116  0.020812729 
  892000    292.22253    3880.2743        24389    26.643947 -0.0041395665 0.0042971177 -0.00017412115 
  893000    299.75501    5147.6203        24389    27.561497 -0.0011863115 0.0041417113 0.0051218538 
  894000    290.39887    2279.3614        24389    28.733299 0.0077607951 0.0054005878 0.0063629775 
  895000    296.71026     2288.428        24389    29.373197 0.0094476459 -0.0086810712 0.0075306883 
  896000    292.80227    4544.3453        24389     29.06791 -0.0028083181 -0.00054959122  0.020933716 
  897000    291.56742    4692.4774        24389    29.244015 0.0077527458 -0.0072354933 0.0062378922 
  898000    293.12245     3761.083        24389    29.349576 -0.0012993233 -0.003334223 -0.0024059681 
  899000    289.83835    2921.2115        24389    29.340556 -0.003436169 -0.0037189611 -0.002029059 
  900000    295.59234    3644.0668        24389    29.023804 0.0017826029 0.0088590513 -0.0015860964 
  901000    294.73784    4365.7827        24389    28.410946 0.0036591061 0.0063658598 -0.0071537984 
  902000    297.32656    2788.0848        24389    28.523895 -0.0079492254 0.0070704556 0.0085359326 
  903000     293.7998     5943.284        24389    28.163768 -0.0082411768  0.015534746 -0.0010498488 
  904000    298.08183     6216.565        24389      27.8823  0.003092364  0.013203922  0.006347177 
  905000     297.1466    1310.2091        24389    27.854589 0.0013773276 0.0029609016 -0.012480181 
  906000    293.88377    1608.4715        24389    27.908897  0.010474879  0.016579887 -0.012247747 
  907000    297.84762    4295.4805        24389    28.319358 -0.0014995704 -0.0019756662 -0.0057676369 
  908000    285.30228    3470.3494        24389    28.624867 0.0019571223 -0.0044855453  0.008988126 
  909000    292.52103    2699.4664        24389    28.815808 -0.013629737 0.0056650704  0.012165966 
  910000    292.14479    5170.8214        24389    28.560327 0.00056455681 -0.0046660323 -0.0045575267 
  911000    297.15241    5109.5861        24389    27.680933 0.0026723051 -0.00050995832 0.0027268728 
  912000     293.6517    2117.8009        24389    26.884347 -0.0039881107 0.0070613366 -0.0030449106 
  913000    296.14569    3022.7143        24389    26.285371 0.0047348308 -0.0083323573 -0.0070123848 
  914000    299.13866    3911.3943        24389    26.138772 -0.0045986429 -0.0070174068  0.019514899 
  915000    304.64112    6610.3323        24389     26.31604 -0.005644652 0.0072438235 0.00064291051 
  916000    295.31949    3313.8255        24389    26.737578 -0.028921876  0.012133953  0.006253428 
  917000    291.09112    3321.2914        24389    26.977915 0.0019105083  0.019043343  0.011444516 
  918000    296.86127    3005.0862        24389     26.46077 0.0055979135 -0.0014525298 0.0024258605 
  919000    287.55266    5383.7339        24389    25.919818 0.0086750404 0.0068258283 -0.0038932279 
  920000    295.93531     5404.562        24389    25.522643 0.0038295924 0.0068717055 -0.0060636107 
  921000    298.73995    1115.1658        24389    25.861925 -0.0094793161 0.0043796138 -0.0029508269 
  922000     296.8626    2009.2829        24389    26.814932 -0.0077850158 -0.011729266 -0.0072523567 
  923000     294.2743    5118.6342        24389    26.879965 0.0032678175 -0.012096901 0.0021692661 
  924000     290.4024    6046.2748        24389    26.148527 0.0026905874 -0.003050161 -0.0038473064 
  925000    295.90772    3320.3859        24389    25.106658 -0.00060091272 -0.021894712 -0.0056162905 
  926000    290.88248    3468.3909        24389     24.87062 -0.0030810573 -0.0086118894  0.003699103 
  927000    300.41624    3383.9991        24389    25.439862 -0.0064101698 0.0033447756 -0.0097653488 
  928000    300.67969    6194.4355        24389     25.55456 0.00011226111 -0.00053521285 -0.0046666854 
  929000    292.67399    4288.4852        24389    25.317601 -0.00065092355 -0.0033103335 0.0070130224 
  930000    295.60843    3111.7672        24389    25.523745 0.0054190588 0.0023021369 -0.0067926887 
  931000    303.21222     2969.192        24389    26.484769  -0.01692164   0.01492194 0.00037039442 
  932000    292.51849    3104.6427        24389    27.650221 0.0079364138 0.0083748625 -0.014616083 
  933000    297.02551    4249.7802        24389    28.739324 -0.0081167428 -0.0082539106 0.0040323272 
  934000    297.14231    4230.8347        24389    28.867609 0.0040373021 -0.004282229 -0.0077269862 
  935000    294.67794    5345.5796        24389    28.297695  0.004884608 -0.0044826163 -0.0080608153 
  936000    291.62548    4385.7298        24389    27.338862 0.0026976781 -0.017831709 0.0028488036 
  937000    296.73937    2286.5173        24389    26.290819 0.0027582881 0.0048075799 -0.0017020714 
  938000     286.2519    4074.8116        24389    25.589708 -0.009782128 -0.0065835265  -0.01253173 
  939000    294.12731    4562.1276        24389    25.020027  0.019481602 0.0014390781 -0.00081315499 
  940000    294.02541    3848.4867        24389    25.097584 0.0061032483 -0.0027160111 -0.0051368126 
  941000    293.08301    3468.1893        24389    25.588474  0.010372358 0.0010959481 0.0085728011 
  942000    295.23674    5769.2767        24389    25.869119 -0.0028250042  0.021276843 -0.0045172838 
  943000    300.51895    4991.8151        24389    25.796565 -0.006710104 0.0040792934 -0.0078315724 
  944000    293.78829    4124.8653        24389    26.326865 -0.0038591382 0.0044968154 -0.0064051818 
  945000    292.18949    4347.2069        24389    26.873549 -0.0077939003 -0.0094763075 -0.0021203162 
  946000    294.95659    1915.6154        24389    27.977533  -0.01276193  0.014989691 0.00091460235 
  947000    299.30571    4975.6219        24389    28.928669 -0.011907872 -0.0037501647  0.006717826 
  948000    293.21032    5900.7368        24389    28.881845 -0.011937671 -0.011397892 -0.0023454032 
  949000    297.98587    3441.6725        24389    28.022752 0.0031436969 0.0060053581 -0.0056816349 
  950000    299.24272    3096.7455        24389    26.914322 0.00084425653 0.0093647639 -0.012138615 
  951000    299.11113    2965.1192        24389    25.865112 0.0035608941 -0.015270174 0.0014239146 
  952000    294.79044    4662.0089        24389    25.193945 -0.0039049558 -0.0023835776 -0.0011822878 
  953000    289.93689    4857.1437        24389    25.326927  0.021068458  0.021878494 -0.012565998 
  954000     297.2199    4528.7141        24389    25.670751 -0.0031409129 0.0074923834  -0.00036364 
  955000    288.98732     4268.285        24389    25.894441 -0.0079141697 0.0074463822 -0.0090255185 
  956000    299.63268    4645.2679        24389    26.160671 -0.0044363613 0.0047811083   0.00275694 
  957000    296.17092    4153.9022        24389    26.780003 0.00076805226 -0.0075558446 0.0051928246 
  958000    287.79411    5156.6939        24389    27.548747 -0.00013378168 0.0005791674 0.0091397678 
  959000    297.50038      4317.71        24389    27.773365 0.0040084043 -0.010937319 0.0039672665 
  960000    298.45302    3095.2059        24389    27.962054 -0.0044908545  0.015067987 0.0090116195 
  961000    292.32348    2862.5288        24389    28.544213 -0.016133795 -0.0099582241 -0.010857117 
  962000    290.33653    7655.4143        24389    29.033837 0.0032220201 -0.011466159 -0.00020281382 
  963000    292.52379    7055.6363        24389    29.449659 -0.0013005973 -0.0088328571 0.0083430857 
  964000    295.47645    3526.5236        24389    29.462315 -0.006797935 0.0087165597 -0.0055979809 
  965000    298.65342    1782.8046        24389    28.867749 -0.0035042507 0.0068974949 -0.005390778 
  966000    299.53061    1912.1533        24389    28.937001 -0.0036892928 -0.0018766744 -0.011315535 
  967000    300.34929    5198.7246        24389    29.355705 -0.004688144 0.0042869082   0.01130709 
  968000    294.50052    8119.2386        24389    29.001586 0.0056455081 0.0063385284 -0.0059319409 
  969000    296.69149    4652.2103        24389    28.074335 -0.00049353249 -0.0037941253  0.015332362 
  970000    298.93615    399.83989        24389    26.857467 -0.0049143807 -0.00076146153 0.0003656109 
  971000    301.62495    2678.2909        24389    25.613177 -0.0014187608 -0.011056525 0.0020636177 
  972000    289.15299    5899.8799        24389    25.440537 -0.0053124257 -0.00042687126 -0.00029021286 
  973000    288.58122    4088.9564        24389    25.183808 -0.0040496853 -0.012845682 -0.0034441327 
  974000    300.24455    2483.7844        24389    24.857453 -0.019382911 0.0056977088 -0.0015923921 
  975000    293.91041    2306.1238        24389    25.842088 0.0048962954 0.0028295674 0.0078908627 
  976000    302.54014    4727.1622        24389    27.204788 -0.011588579  0.020800098  0.016398689 
  977000    298.72191    4507.5086        24389     28.67463 -0.0063191575 0.00084154857  -0.01351943 
  978000    299.38096     3778.267        24389    29.244211 -0.0052917886 -0.0033453969 0.00046582863 
  979000    298.13987    6360.1337        24389    29.218784 0.0096579129 -0.011745631 -0.0097381469 
  980000    291.69961    2471.6165        24389    28.684782 -0.0070608038 -0.0070505937 -0.0074392734 
  981000     291.7941    2515.1355        24389    28.395851 -0.0024174579 6.4741635e-05 -0.0020643189 
  982000    295.53437    6816.2379        24389    27.970653 6.8477191e-06  0.012664751 0.0028331299 
  983000    295.64765    6414.5874        24389    27.858518  0.011354947 0.0048313518 -0.014083321 
  984000    295.57531    4735.4337        24389    27.612371 0.0043190686 0.0044618526 0.00010424978 
  985000    299.38373     4079.705        24389    27.958774 -0.0004177043 0.0068918736 -0.0076303499 
  986000    301.67868    2234.5294        24389    28.062868 0.0059886063 0.0080320922 -0.0089512703 
  987000    296.94476    4033.0202        24389     27.74729  0.010536141 0.0072703737 0.0010977069 
  988000    294.90908    5372.2725        24389    27.924921 -0.00013248389 0.0014215484  0.014778126 
  989000    296.00287    3186.5524        24389    27.893853  -0.00559327  0.010174036 -0.0013742505 
  990000    293.29491    2085.2751        24389      27.3905 0.0056576952 -0.0039629105 -0.0061189666 
  991000    290.30964    1376.1952        24389     26.13734 -0.0047345808 0.00047222641 -0.0068575576 
  992000    287.00715    3871.7003        24389    24.887313 -0.00027055139 0.0095206482  0.004780083 
  993000    297.21862     5566.606        24389    24.791328 -0.0018432413 -0.0095275001  0.015001097 
  994000    300.41977    4192.2446        24389    25.408257 -0.023379132 0.0013002443 0.0078217138 
  995000    299.50061    4073.9404        24389    26.318382 0.0010248496  0.012717119 0.00061808702 
  996000    302.88777    3824.9917        24389    26.842497 -0.0011016881  0.011502012 -0.003417818 
  997000    300.01691    4266.5842        24389     27.36945 -0.0035439769  0.012073686 -0.0099989358 
  998000    298.77312    3761.5821        24389    27.111208 0.0026271372 -0.00020762047 -0.0042718472 
  999000    287.54905    2377.4001        24389    26.810628 -0.0003116918 -0.0033281367 -0.0060853226 
 1000000    294.78274    5089.7153        24389    26.559408 0.0020203022 0.0028943928 0.0092463243 
Loop time of 23700.5 on 16 procs for 1000000 steps with 1920 atoms

Pair  time (%) = 18989.9 (80.1245)
Bond  time (%) = 0.454539 (0.00191785)
Neigh time (%) = 43.7325 (0.184522)
Comm  time (%) = 4184.73 (17.6568)
Outpt time (%) = 2.74473 (0.0115809)
Other time (%) = 478.913 (2.02069)

Nlocal:    120 ave 126 max 109 min
Histogram: 1 0 0 1 0 6 0 4 1 3
Nghost:    4882.06 ave 4938 max 4844 min
Histogram: 2 2 3 2 2 1 0 2 1 1
Neighs:    51757 ave 54311 max 46460 min
Histogram: 1 0 0 1 0 1 6 3 1 3
FullNghs: 103514 ave 108846 max 93695 min
Histogram: 1 0 0 1 0 4 3 3 1 3

Total # of neighbors = 1656224
Ave neighs/atom = 862.617
Ave special neighs/atom = 0
Neighbor list builds = 5194
Dangerous builds = 0
#	run			10000
	unfix			1
	uncompute		myKE
	uncompute		myPE
	uncompute		myStress
	uncompute		flux
	uncompute		myDis
	unfix			JJ

	next seed
	next iseed
jump lmp.in.gk loop_seed
variable iseed loop 10
variable seed index 11111 22222 33333 44444 55555 66666 77777 88888 99999 11110
clear
###########################################################################
#x0
###########################################################################
units 			metal
atom_style		full
read_data		fort.26
  0 = max bonds/atom
  0 = max angles/atom
  0 = max dihedrals/atom
  triclinic box = (0 0 0) to (29 29 29) with tilt (0 0 0)
  2 by 2 by 4 processor grid
  1920 atoms
  0 bonds
  0 angles
  0 dihedrals
  0 = max # of 1-2 neighbors
  0 = max # of 1-3 neighbors
  0 = max # of 1-4 neighbors
  1 = max # of special neighbors
group         		C type = 1
60 atoms in group C
###########################################################################
#OLPS
###########################################################################

################################################################################
#### Pair potentials
################################################################################
pair_style hybrid/overlay tersoff lj/cut 12.0
pair_coeff * * tersoff C.temp.tersoff 1 2 3 4 5 6 7 8 9 10 11 12 13 14 15 16 17 18 19 20 21 22 23 24 25 26 27 28 29 30 31 32
pair_coeff 1 2 lj/cut 0.00070000000 3.5500000000
pair_coeff 1 3 lj/cut 0.00070000000 3.5500000000
pair_coeff 1 4 lj/cut 0.00070000000 3.5500000000
pair_coeff 1 5 lj/cut 0.00070000000 3.5500000000
pair_coeff 1 6 lj/cut 0.00070000000 3.5500000000
pair_coeff 1 7 lj/cut 0.00070000000 3.5500000000
pair_coeff 1 8 lj/cut 0.00070000000 3.5500000000
pair_coeff 1 9 lj/cut 0.00070000000 3.5500000000
pair_coeff 1 10 lj/cut 0.00070000000 3.5500000000
pair_coeff 1 11 lj/cut 0.00070000000 3.5500000000
pair_coeff 1 12 lj/cut 0.00070000000 3.5500000000
pair_coeff 1 13 lj/cut 0.00070000000 3.5500000000
pair_coeff 1 14 lj/cut 0.00070000000 3.5500000000
pair_coeff 1 15 lj/cut 0.00070000000 3.5500000000
pair_coeff 1 16 lj/cut 0.00070000000 3.5500000000
pair_coeff 1 17 lj/cut 0.00070000000 3.5500000000
pair_coeff 1 18 lj/cut 0.00070000000 3.5500000000
pair_coeff 1 19 lj/cut 0.00070000000 3.5500000000
pair_coeff 1 20 lj/cut 0.00070000000 3.5500000000
pair_coeff 1 21 lj/cut 0.00070000000 3.5500000000
pair_coeff 1 22 lj/cut 0.00070000000 3.5500000000
pair_coeff 1 23 lj/cut 0.00070000000 3.5500000000
pair_coeff 1 24 lj/cut 0.00070000000 3.5500000000
pair_coeff 1 25 lj/cut 0.00070000000 3.5500000000
pair_coeff 1 26 lj/cut 0.00070000000 3.5500000000
pair_coeff 1 27 lj/cut 0.00070000000 3.5500000000
pair_coeff 1 28 lj/cut 0.00070000000 3.5500000000
pair_coeff 1 29 lj/cut 0.00070000000 3.5500000000
pair_coeff 1 30 lj/cut 0.00070000000 3.5500000000
pair_coeff 1 31 lj/cut 0.00070000000 3.5500000000
pair_coeff 1 32 lj/cut 0.00070000000 3.5500000000

pair_coeff 2 3 lj/cut 0.00070000000 3.5500000000
pair_coeff 2 4 lj/cut 0.00070000000 3.5500000000
pair_coeff 2 5 lj/cut 0.00070000000 3.5500000000
pair_coeff 2 6 lj/cut 0.00070000000 3.5500000000
pair_coeff 2 7 lj/cut 0.00070000000 3.5500000000
pair_coeff 2 8 lj/cut 0.00070000000 3.5500000000
pair_coeff 2 9 lj/cut 0.00070000000 3.5500000000
pair_coeff 2 10 lj/cut 0.00070000000 3.5500000000
pair_coeff 2 11 lj/cut 0.00070000000 3.5500000000
pair_coeff 2 12 lj/cut 0.00070000000 3.5500000000
pair_coeff 2 13 lj/cut 0.00070000000 3.5500000000
pair_coeff 2 14 lj/cut 0.00070000000 3.5500000000
pair_coeff 2 15 lj/cut 0.00070000000 3.5500000000
pair_coeff 2 16 lj/cut 0.00070000000 3.5500000000
pair_coeff 2 17 lj/cut 0.00070000000 3.5500000000
pair_coeff 2 18 lj/cut 0.00070000000 3.5500000000
pair_coeff 2 19 lj/cut 0.00070000000 3.5500000000
pair_coeff 2 20 lj/cut 0.00070000000 3.5500000000
pair_coeff 2 21 lj/cut 0.00070000000 3.5500000000
pair_coeff 2 22 lj/cut 0.00070000000 3.5500000000
pair_coeff 2 23 lj/cut 0.00070000000 3.5500000000
pair_coeff 2 24 lj/cut 0.00070000000 3.5500000000
pair_coeff 2 25 lj/cut 0.00070000000 3.5500000000
pair_coeff 2 26 lj/cut 0.00070000000 3.5500000000
pair_coeff 2 27 lj/cut 0.00070000000 3.5500000000
pair_coeff 2 28 lj/cut 0.00070000000 3.5500000000
pair_coeff 2 29 lj/cut 0.00070000000 3.5500000000
pair_coeff 2 30 lj/cut 0.00070000000 3.5500000000
pair_coeff 2 31 lj/cut 0.00070000000 3.5500000000
pair_coeff 2 32 lj/cut 0.00070000000 3.5500000000

pair_coeff 3 4 lj/cut 0.00070000000 3.5500000000
pair_coeff 3 5 lj/cut 0.00070000000 3.5500000000
pair_coeff 3 6 lj/cut 0.00070000000 3.5500000000
pair_coeff 3 7 lj/cut 0.00070000000 3.5500000000
pair_coeff 3 8 lj/cut 0.00070000000 3.5500000000
pair_coeff 3 9 lj/cut 0.00070000000 3.5500000000
pair_coeff 3 10 lj/cut 0.00070000000 3.5500000000
pair_coeff 3 11 lj/cut 0.00070000000 3.5500000000
pair_coeff 3 12 lj/cut 0.00070000000 3.5500000000
pair_coeff 3 13 lj/cut 0.00070000000 3.5500000000
pair_coeff 3 14 lj/cut 0.00070000000 3.5500000000
pair_coeff 3 15 lj/cut 0.00070000000 3.5500000000
pair_coeff 3 16 lj/cut 0.00070000000 3.5500000000
pair_coeff 3 17 lj/cut 0.00070000000 3.5500000000
pair_coeff 3 18 lj/cut 0.00070000000 3.5500000000
pair_coeff 3 19 lj/cut 0.00070000000 3.5500000000
pair_coeff 3 20 lj/cut 0.00070000000 3.5500000000
pair_coeff 3 21 lj/cut 0.00070000000 3.5500000000
pair_coeff 3 22 lj/cut 0.00070000000 3.5500000000
pair_coeff 3 23 lj/cut 0.00070000000 3.5500000000
pair_coeff 3 24 lj/cut 0.00070000000 3.5500000000
pair_coeff 3 25 lj/cut 0.00070000000 3.5500000000
pair_coeff 3 26 lj/cut 0.00070000000 3.5500000000
pair_coeff 3 27 lj/cut 0.00070000000 3.5500000000
pair_coeff 3 28 lj/cut 0.00070000000 3.5500000000
pair_coeff 3 29 lj/cut 0.00070000000 3.5500000000
pair_coeff 3 30 lj/cut 0.00070000000 3.5500000000
pair_coeff 3 31 lj/cut 0.00070000000 3.5500000000
pair_coeff 3 32 lj/cut 0.00070000000 3.5500000000

pair_coeff 4 5 lj/cut 0.00070000000 3.5500000000
pair_coeff 4 6 lj/cut 0.00070000000 3.5500000000
pair_coeff 4 7 lj/cut 0.00070000000 3.5500000000
pair_coeff 4 8 lj/cut 0.00070000000 3.5500000000
pair_coeff 4 9 lj/cut 0.00070000000 3.5500000000
pair_coeff 4 10 lj/cut 0.00070000000 3.5500000000
pair_coeff 4 11 lj/cut 0.00070000000 3.5500000000
pair_coeff 4 12 lj/cut 0.00070000000 3.5500000000
pair_coeff 4 13 lj/cut 0.00070000000 3.5500000000
pair_coeff 4 14 lj/cut 0.00070000000 3.5500000000
pair_coeff 4 15 lj/cut 0.00070000000 3.5500000000
pair_coeff 4 16 lj/cut 0.00070000000 3.5500000000
pair_coeff 4 17 lj/cut 0.00070000000 3.5500000000
pair_coeff 4 18 lj/cut 0.00070000000 3.5500000000
pair_coeff 4 19 lj/cut 0.00070000000 3.5500000000
pair_coeff 4 20 lj/cut 0.00070000000 3.5500000000
pair_coeff 4 21 lj/cut 0.00070000000 3.5500000000
pair_coeff 4 22 lj/cut 0.00070000000 3.5500000000
pair_coeff 4 23 lj/cut 0.00070000000 3.5500000000
pair_coeff 4 24 lj/cut 0.00070000000 3.5500000000
pair_coeff 4 25 lj/cut 0.00070000000 3.5500000000
pair_coeff 4 26 lj/cut 0.00070000000 3.5500000000
pair_coeff 4 27 lj/cut 0.00070000000 3.5500000000
pair_coeff 4 28 lj/cut 0.00070000000 3.5500000000
pair_coeff 4 29 lj/cut 0.00070000000 3.5500000000
pair_coeff 4 30 lj/cut 0.00070000000 3.5500000000
pair_coeff 4 31 lj/cut 0.00070000000 3.5500000000
pair_coeff 4 32 lj/cut 0.00070000000 3.5500000000

pair_coeff 5 6 lj/cut 0.00070000000 3.5500000000
pair_coeff 5 7 lj/cut 0.00070000000 3.5500000000
pair_coeff 5 8 lj/cut 0.00070000000 3.5500000000
pair_coeff 5 9 lj/cut 0.00070000000 3.5500000000
pair_coeff 5 10 lj/cut 0.00070000000 3.5500000000
pair_coeff 5 11 lj/cut 0.00070000000 3.5500000000
pair_coeff 5 12 lj/cut 0.00070000000 3.5500000000
pair_coeff 5 13 lj/cut 0.00070000000 3.5500000000
pair_coeff 5 14 lj/cut 0.00070000000 3.5500000000
pair_coeff 5 15 lj/cut 0.00070000000 3.5500000000
pair_coeff 5 16 lj/cut 0.00070000000 3.5500000000
pair_coeff 5 17 lj/cut 0.00070000000 3.5500000000
pair_coeff 5 18 lj/cut 0.00070000000 3.5500000000
pair_coeff 5 19 lj/cut 0.00070000000 3.5500000000
pair_coeff 5 20 lj/cut 0.00070000000 3.5500000000
pair_coeff 5 21 lj/cut 0.00070000000 3.5500000000
pair_coeff 5 22 lj/cut 0.00070000000 3.5500000000
pair_coeff 5 23 lj/cut 0.00070000000 3.5500000000
pair_coeff 5 24 lj/cut 0.00070000000 3.5500000000
pair_coeff 5 25 lj/cut 0.00070000000 3.5500000000
pair_coeff 5 26 lj/cut 0.00070000000 3.5500000000
pair_coeff 5 27 lj/cut 0.00070000000 3.5500000000
pair_coeff 5 28 lj/cut 0.00070000000 3.5500000000
pair_coeff 5 29 lj/cut 0.00070000000 3.5500000000
pair_coeff 5 30 lj/cut 0.00070000000 3.5500000000
pair_coeff 5 31 lj/cut 0.00070000000 3.5500000000
pair_coeff 5 32 lj/cut 0.00070000000 3.5500000000

pair_coeff 6 7 lj/cut 0.00070000000 3.5500000000
pair_coeff 6 8 lj/cut 0.00070000000 3.5500000000
pair_coeff 6 9 lj/cut 0.00070000000 3.5500000000
pair_coeff 6 10 lj/cut 0.00070000000 3.5500000000
pair_coeff 6 11 lj/cut 0.00070000000 3.5500000000
pair_coeff 6 12 lj/cut 0.00070000000 3.5500000000
pair_coeff 6 13 lj/cut 0.00070000000 3.5500000000
pair_coeff 6 14 lj/cut 0.00070000000 3.5500000000
pair_coeff 6 15 lj/cut 0.00070000000 3.5500000000
pair_coeff 6 16 lj/cut 0.00070000000 3.5500000000
pair_coeff 6 17 lj/cut 0.00070000000 3.5500000000
pair_coeff 6 18 lj/cut 0.00070000000 3.5500000000
pair_coeff 6 19 lj/cut 0.00070000000 3.5500000000
pair_coeff 6 20 lj/cut 0.00070000000 3.5500000000
pair_coeff 6 21 lj/cut 0.00070000000 3.5500000000
pair_coeff 6 22 lj/cut 0.00070000000 3.5500000000
pair_coeff 6 23 lj/cut 0.00070000000 3.5500000000
pair_coeff 6 24 lj/cut 0.00070000000 3.5500000000
pair_coeff 6 25 lj/cut 0.00070000000 3.5500000000
pair_coeff 6 26 lj/cut 0.00070000000 3.5500000000
pair_coeff 6 27 lj/cut 0.00070000000 3.5500000000
pair_coeff 6 28 lj/cut 0.00070000000 3.5500000000
pair_coeff 6 29 lj/cut 0.00070000000 3.5500000000
pair_coeff 6 30 lj/cut 0.00070000000 3.5500000000
pair_coeff 6 31 lj/cut 0.00070000000 3.5500000000
pair_coeff 6 32 lj/cut 0.00070000000 3.5500000000

pair_coeff 7 8 lj/cut 0.00070000000 3.5500000000
pair_coeff 7 9 lj/cut 0.00070000000 3.5500000000
pair_coeff 7 10 lj/cut 0.00070000000 3.5500000000
pair_coeff 7 11 lj/cut 0.00070000000 3.5500000000
pair_coeff 7 12 lj/cut 0.00070000000 3.5500000000
pair_coeff 7 13 lj/cut 0.00070000000 3.5500000000
pair_coeff 7 14 lj/cut 0.00070000000 3.5500000000
pair_coeff 7 15 lj/cut 0.00070000000 3.5500000000
pair_coeff 7 16 lj/cut 0.00070000000 3.5500000000
pair_coeff 7 17 lj/cut 0.00070000000 3.5500000000
pair_coeff 7 18 lj/cut 0.00070000000 3.5500000000
pair_coeff 7 19 lj/cut 0.00070000000 3.5500000000
pair_coeff 7 20 lj/cut 0.00070000000 3.5500000000
pair_coeff 7 21 lj/cut 0.00070000000 3.5500000000
pair_coeff 7 22 lj/cut 0.00070000000 3.5500000000
pair_coeff 7 23 lj/cut 0.00070000000 3.5500000000
pair_coeff 7 24 lj/cut 0.00070000000 3.5500000000
pair_coeff 7 25 lj/cut 0.00070000000 3.5500000000
pair_coeff 7 26 lj/cut 0.00070000000 3.5500000000
pair_coeff 7 27 lj/cut 0.00070000000 3.5500000000
pair_coeff 7 28 lj/cut 0.00070000000 3.5500000000
pair_coeff 7 29 lj/cut 0.00070000000 3.5500000000
pair_coeff 7 30 lj/cut 0.00070000000 3.5500000000
pair_coeff 7 31 lj/cut 0.00070000000 3.5500000000
pair_coeff 7 32 lj/cut 0.00070000000 3.5500000000

pair_coeff 8 9 lj/cut 0.00070000000 3.5500000000
pair_coeff 8 10 lj/cut 0.00070000000 3.5500000000
pair_coeff 8 11 lj/cut 0.00070000000 3.5500000000
pair_coeff 8 12 lj/cut 0.00070000000 3.5500000000
pair_coeff 8 13 lj/cut 0.00070000000 3.5500000000
pair_coeff 8 14 lj/cut 0.00070000000 3.5500000000
pair_coeff 8 15 lj/cut 0.00070000000 3.5500000000
pair_coeff 8 16 lj/cut 0.00070000000 3.5500000000
pair_coeff 8 17 lj/cut 0.00070000000 3.5500000000
pair_coeff 8 18 lj/cut 0.00070000000 3.5500000000
pair_coeff 8 19 lj/cut 0.00070000000 3.5500000000
pair_coeff 8 20 lj/cut 0.00070000000 3.5500000000
pair_coeff 8 21 lj/cut 0.00070000000 3.5500000000
pair_coeff 8 22 lj/cut 0.00070000000 3.5500000000
pair_coeff 8 23 lj/cut 0.00070000000 3.5500000000
pair_coeff 8 24 lj/cut 0.00070000000 3.5500000000
pair_coeff 8 25 lj/cut 0.00070000000 3.5500000000
pair_coeff 8 26 lj/cut 0.00070000000 3.5500000000
pair_coeff 8 27 lj/cut 0.00070000000 3.5500000000
pair_coeff 8 28 lj/cut 0.00070000000 3.5500000000
pair_coeff 8 29 lj/cut 0.00070000000 3.5500000000
pair_coeff 8 30 lj/cut 0.00070000000 3.5500000000
pair_coeff 8 31 lj/cut 0.00070000000 3.5500000000
pair_coeff 8 32 lj/cut 0.00070000000 3.5500000000

pair_coeff 9 10 lj/cut 0.00070000000 3.5500000000
pair_coeff 9 11 lj/cut 0.00070000000 3.5500000000
pair_coeff 9 12 lj/cut 0.00070000000 3.5500000000
pair_coeff 9 13 lj/cut 0.00070000000 3.5500000000
pair_coeff 9 14 lj/cut 0.00070000000 3.5500000000
pair_coeff 9 15 lj/cut 0.00070000000 3.5500000000
pair_coeff 9 16 lj/cut 0.00070000000 3.5500000000
pair_coeff 9 17 lj/cut 0.00070000000 3.5500000000
pair_coeff 9 18 lj/cut 0.00070000000 3.5500000000
pair_coeff 9 19 lj/cut 0.00070000000 3.5500000000
pair_coeff 9 20 lj/cut 0.00070000000 3.5500000000
pair_coeff 9 21 lj/cut 0.00070000000 3.5500000000
pair_coeff 9 22 lj/cut 0.00070000000 3.5500000000
pair_coeff 9 23 lj/cut 0.00070000000 3.5500000000
pair_coeff 9 24 lj/cut 0.00070000000 3.5500000000
pair_coeff 9 25 lj/cut 0.00070000000 3.5500000000
pair_coeff 9 26 lj/cut 0.00070000000 3.5500000000
pair_coeff 9 27 lj/cut 0.00070000000 3.5500000000
pair_coeff 9 28 lj/cut 0.00070000000 3.5500000000
pair_coeff 9 29 lj/cut 0.00070000000 3.5500000000
pair_coeff 9 30 lj/cut 0.00070000000 3.5500000000
pair_coeff 9 31 lj/cut 0.00070000000 3.5500000000
pair_coeff 9 32 lj/cut 0.00070000000 3.5500000000

pair_coeff 10 11 lj/cut 0.00070000000 3.5500000000
pair_coeff 10 12 lj/cut 0.00070000000 3.5500000000
pair_coeff 10 13 lj/cut 0.00070000000 3.5500000000
pair_coeff 10 14 lj/cut 0.00070000000 3.5500000000
pair_coeff 10 15 lj/cut 0.00070000000 3.5500000000
pair_coeff 10 16 lj/cut 0.00070000000 3.5500000000
pair_coeff 10 17 lj/cut 0.00070000000 3.5500000000
pair_coeff 10 18 lj/cut 0.00070000000 3.5500000000
pair_coeff 10 19 lj/cut 0.00070000000 3.5500000000
pair_coeff 10 20 lj/cut 0.00070000000 3.5500000000
pair_coeff 10 21 lj/cut 0.00070000000 3.5500000000
pair_coeff 10 22 lj/cut 0.00070000000 3.5500000000
pair_coeff 10 23 lj/cut 0.00070000000 3.5500000000
pair_coeff 10 24 lj/cut 0.00070000000 3.5500000000
pair_coeff 10 25 lj/cut 0.00070000000 3.5500000000
pair_coeff 10 26 lj/cut 0.00070000000 3.5500000000
pair_coeff 10 27 lj/cut 0.00070000000 3.5500000000
pair_coeff 10 28 lj/cut 0.00070000000 3.5500000000
pair_coeff 10 29 lj/cut 0.00070000000 3.5500000000
pair_coeff 10 30 lj/cut 0.00070000000 3.5500000000
pair_coeff 10 31 lj/cut 0.00070000000 3.5500000000
pair_coeff 10 32 lj/cut 0.00070000000 3.5500000000

pair_coeff 11 12 lj/cut 0.00070000000 3.5500000000
pair_coeff 11 13 lj/cut 0.00070000000 3.5500000000
pair_coeff 11 14 lj/cut 0.00070000000 3.5500000000
pair_coeff 11 15 lj/cut 0.00070000000 3.5500000000
pair_coeff 11 16 lj/cut 0.00070000000 3.5500000000
pair_coeff 11 17 lj/cut 0.00070000000 3.5500000000
pair_coeff 11 18 lj/cut 0.00070000000 3.5500000000
pair_coeff 11 19 lj/cut 0.00070000000 3.5500000000
pair_coeff 11 20 lj/cut 0.00070000000 3.5500000000
pair_coeff 11 21 lj/cut 0.00070000000 3.5500000000
pair_coeff 11 22 lj/cut 0.00070000000 3.5500000000
pair_coeff 11 23 lj/cut 0.00070000000 3.5500000000
pair_coeff 11 24 lj/cut 0.00070000000 3.5500000000
pair_coeff 11 25 lj/cut 0.00070000000 3.5500000000
pair_coeff 11 26 lj/cut 0.00070000000 3.5500000000
pair_coeff 11 27 lj/cut 0.00070000000 3.5500000000
pair_coeff 11 28 lj/cut 0.00070000000 3.5500000000
pair_coeff 11 29 lj/cut 0.00070000000 3.5500000000
pair_coeff 11 30 lj/cut 0.00070000000 3.5500000000
pair_coeff 11 31 lj/cut 0.00070000000 3.5500000000
pair_coeff 11 32 lj/cut 0.00070000000 3.5500000000

pair_coeff 12 13 lj/cut 0.00070000000 3.5500000000
pair_coeff 12 14 lj/cut 0.00070000000 3.5500000000
pair_coeff 12 15 lj/cut 0.00070000000 3.5500000000
pair_coeff 12 16 lj/cut 0.00070000000 3.5500000000
pair_coeff 12 17 lj/cut 0.00070000000 3.5500000000
pair_coeff 12 18 lj/cut 0.00070000000 3.5500000000
pair_coeff 12 19 lj/cut 0.00070000000 3.5500000000
pair_coeff 12 20 lj/cut 0.00070000000 3.5500000000
pair_coeff 12 21 lj/cut 0.00070000000 3.5500000000
pair_coeff 12 22 lj/cut 0.00070000000 3.5500000000
pair_coeff 12 23 lj/cut 0.00070000000 3.5500000000
pair_coeff 12 24 lj/cut 0.00070000000 3.5500000000
pair_coeff 12 25 lj/cut 0.00070000000 3.5500000000
pair_coeff 12 26 lj/cut 0.00070000000 3.5500000000
pair_coeff 12 27 lj/cut 0.00070000000 3.5500000000
pair_coeff 12 28 lj/cut 0.00070000000 3.5500000000
pair_coeff 12 29 lj/cut 0.00070000000 3.5500000000
pair_coeff 12 30 lj/cut 0.00070000000 3.5500000000
pair_coeff 12 31 lj/cut 0.00070000000 3.5500000000
pair_coeff 12 32 lj/cut 0.00070000000 3.5500000000

pair_coeff 13 14 lj/cut 0.00070000000 3.5500000000
pair_coeff 13 15 lj/cut 0.00070000000 3.5500000000
pair_coeff 13 16 lj/cut 0.00070000000 3.5500000000
pair_coeff 13 17 lj/cut 0.00070000000 3.5500000000
pair_coeff 13 18 lj/cut 0.00070000000 3.5500000000
pair_coeff 13 19 lj/cut 0.00070000000 3.5500000000
pair_coeff 13 20 lj/cut 0.00070000000 3.5500000000
pair_coeff 13 21 lj/cut 0.00070000000 3.5500000000
pair_coeff 13 22 lj/cut 0.00070000000 3.5500000000
pair_coeff 13 23 lj/cut 0.00070000000 3.5500000000
pair_coeff 13 24 lj/cut 0.00070000000 3.5500000000
pair_coeff 13 25 lj/cut 0.00070000000 3.5500000000
pair_coeff 13 26 lj/cut 0.00070000000 3.5500000000
pair_coeff 13 27 lj/cut 0.00070000000 3.5500000000
pair_coeff 13 28 lj/cut 0.00070000000 3.5500000000
pair_coeff 13 29 lj/cut 0.00070000000 3.5500000000
pair_coeff 13 30 lj/cut 0.00070000000 3.5500000000
pair_coeff 13 31 lj/cut 0.00070000000 3.5500000000
pair_coeff 13 32 lj/cut 0.00070000000 3.5500000000

pair_coeff 14 15 lj/cut 0.00070000000 3.5500000000
pair_coeff 14 16 lj/cut 0.00070000000 3.5500000000
pair_coeff 14 17 lj/cut 0.00070000000 3.5500000000
pair_coeff 14 18 lj/cut 0.00070000000 3.5500000000
pair_coeff 14 19 lj/cut 0.00070000000 3.5500000000
pair_coeff 14 20 lj/cut 0.00070000000 3.5500000000
pair_coeff 14 21 lj/cut 0.00070000000 3.5500000000
pair_coeff 14 22 lj/cut 0.00070000000 3.5500000000
pair_coeff 14 23 lj/cut 0.00070000000 3.5500000000
pair_coeff 14 24 lj/cut 0.00070000000 3.5500000000
pair_coeff 14 25 lj/cut 0.00070000000 3.5500000000
pair_coeff 14 26 lj/cut 0.00070000000 3.5500000000
pair_coeff 14 27 lj/cut 0.00070000000 3.5500000000
pair_coeff 14 28 lj/cut 0.00070000000 3.5500000000
pair_coeff 14 29 lj/cut 0.00070000000 3.5500000000
pair_coeff 14 30 lj/cut 0.00070000000 3.5500000000
pair_coeff 14 31 lj/cut 0.00070000000 3.5500000000
pair_coeff 14 32 lj/cut 0.00070000000 3.5500000000

pair_coeff 15 16 lj/cut 0.00070000000 3.5500000000
pair_coeff 15 17 lj/cut 0.00070000000 3.5500000000
pair_coeff 15 18 lj/cut 0.00070000000 3.5500000000
pair_coeff 15 19 lj/cut 0.00070000000 3.5500000000
pair_coeff 15 20 lj/cut 0.00070000000 3.5500000000
pair_coeff 15 21 lj/cut 0.00070000000 3.5500000000
pair_coeff 15 22 lj/cut 0.00070000000 3.5500000000
pair_coeff 15 23 lj/cut 0.00070000000 3.5500000000
pair_coeff 15 24 lj/cut 0.00070000000 3.5500000000
pair_coeff 15 25 lj/cut 0.00070000000 3.5500000000
pair_coeff 15 26 lj/cut 0.00070000000 3.5500000000
pair_coeff 15 27 lj/cut 0.00070000000 3.5500000000
pair_coeff 15 28 lj/cut 0.00070000000 3.5500000000
pair_coeff 15 29 lj/cut 0.00070000000 3.5500000000
pair_coeff 15 30 lj/cut 0.00070000000 3.5500000000
pair_coeff 15 31 lj/cut 0.00070000000 3.5500000000
pair_coeff 15 32 lj/cut 0.00070000000 3.5500000000

pair_coeff 16 17 lj/cut 0.00070000000 3.5500000000
pair_coeff 16 18 lj/cut 0.00070000000 3.5500000000
pair_coeff 16 19 lj/cut 0.00070000000 3.5500000000
pair_coeff 16 20 lj/cut 0.00070000000 3.5500000000
pair_coeff 16 21 lj/cut 0.00070000000 3.5500000000
pair_coeff 16 22 lj/cut 0.00070000000 3.5500000000
pair_coeff 16 23 lj/cut 0.00070000000 3.5500000000
pair_coeff 16 24 lj/cut 0.00070000000 3.5500000000
pair_coeff 16 25 lj/cut 0.00070000000 3.5500000000
pair_coeff 16 26 lj/cut 0.00070000000 3.5500000000
pair_coeff 16 27 lj/cut 0.00070000000 3.5500000000
pair_coeff 16 28 lj/cut 0.00070000000 3.5500000000
pair_coeff 16 29 lj/cut 0.00070000000 3.5500000000
pair_coeff 16 30 lj/cut 0.00070000000 3.5500000000
pair_coeff 16 31 lj/cut 0.00070000000 3.5500000000
pair_coeff 16 32 lj/cut 0.00070000000 3.5500000000

pair_coeff 17 18 lj/cut 0.00070000000 3.5500000000
pair_coeff 17 19 lj/cut 0.00070000000 3.5500000000
pair_coeff 17 20 lj/cut 0.00070000000 3.5500000000
pair_coeff 17 21 lj/cut 0.00070000000 3.5500000000
pair_coeff 17 22 lj/cut 0.00070000000 3.5500000000
pair_coeff 17 23 lj/cut 0.00070000000 3.5500000000
pair_coeff 17 24 lj/cut 0.00070000000 3.5500000000
pair_coeff 17 25 lj/cut 0.00070000000 3.5500000000
pair_coeff 17 26 lj/cut 0.00070000000 3.5500000000
pair_coeff 17 27 lj/cut 0.00070000000 3.5500000000
pair_coeff 17 28 lj/cut 0.00070000000 3.5500000000
pair_coeff 17 29 lj/cut 0.00070000000 3.5500000000
pair_coeff 17 30 lj/cut 0.00070000000 3.5500000000
pair_coeff 17 31 lj/cut 0.00070000000 3.5500000000
pair_coeff 17 32 lj/cut 0.00070000000 3.5500000000

pair_coeff 18 19 lj/cut 0.00070000000 3.5500000000
pair_coeff 18 20 lj/cut 0.00070000000 3.5500000000
pair_coeff 18 21 lj/cut 0.00070000000 3.5500000000
pair_coeff 18 22 lj/cut 0.00070000000 3.5500000000
pair_coeff 18 23 lj/cut 0.00070000000 3.5500000000
pair_coeff 18 24 lj/cut 0.00070000000 3.5500000000
pair_coeff 18 25 lj/cut 0.00070000000 3.5500000000
pair_coeff 18 26 lj/cut 0.00070000000 3.5500000000
pair_coeff 18 27 lj/cut 0.00070000000 3.5500000000
pair_coeff 18 28 lj/cut 0.00070000000 3.5500000000
pair_coeff 18 29 lj/cut 0.00070000000 3.5500000000
pair_coeff 18 30 lj/cut 0.00070000000 3.5500000000
pair_coeff 18 31 lj/cut 0.00070000000 3.5500000000
pair_coeff 18 32 lj/cut 0.00070000000 3.5500000000

pair_coeff 19 20 lj/cut 0.00070000000 3.5500000000
pair_coeff 19 21 lj/cut 0.00070000000 3.5500000000
pair_coeff 19 22 lj/cut 0.00070000000 3.5500000000
pair_coeff 19 23 lj/cut 0.00070000000 3.5500000000
pair_coeff 19 24 lj/cut 0.00070000000 3.5500000000
pair_coeff 19 25 lj/cut 0.00070000000 3.5500000000
pair_coeff 19 26 lj/cut 0.00070000000 3.5500000000
pair_coeff 19 27 lj/cut 0.00070000000 3.5500000000
pair_coeff 19 28 lj/cut 0.00070000000 3.5500000000
pair_coeff 19 29 lj/cut 0.00070000000 3.5500000000
pair_coeff 19 30 lj/cut 0.00070000000 3.5500000000
pair_coeff 19 31 lj/cut 0.00070000000 3.5500000000
pair_coeff 19 32 lj/cut 0.00070000000 3.5500000000

pair_coeff 20 21 lj/cut 0.00070000000 3.5500000000
pair_coeff 20 22 lj/cut 0.00070000000 3.5500000000
pair_coeff 20 23 lj/cut 0.00070000000 3.5500000000
pair_coeff 20 24 lj/cut 0.00070000000 3.5500000000
pair_coeff 20 25 lj/cut 0.00070000000 3.5500000000
pair_coeff 20 26 lj/cut 0.00070000000 3.5500000000
pair_coeff 20 27 lj/cut 0.00070000000 3.5500000000
pair_coeff 20 28 lj/cut 0.00070000000 3.5500000000
pair_coeff 20 29 lj/cut 0.00070000000 3.5500000000
pair_coeff 20 30 lj/cut 0.00070000000 3.5500000000
pair_coeff 20 31 lj/cut 0.00070000000 3.5500000000
pair_coeff 20 32 lj/cut 0.00070000000 3.5500000000

pair_coeff 21 22 lj/cut 0.00070000000 3.5500000000
pair_coeff 21 23 lj/cut 0.00070000000 3.5500000000
pair_coeff 21 24 lj/cut 0.00070000000 3.5500000000
pair_coeff 21 25 lj/cut 0.00070000000 3.5500000000
pair_coeff 21 26 lj/cut 0.00070000000 3.5500000000
pair_coeff 21 27 lj/cut 0.00070000000 3.5500000000
pair_coeff 21 28 lj/cut 0.00070000000 3.5500000000
pair_coeff 21 29 lj/cut 0.00070000000 3.5500000000
pair_coeff 21 30 lj/cut 0.00070000000 3.5500000000
pair_coeff 21 31 lj/cut 0.00070000000 3.5500000000
pair_coeff 21 32 lj/cut 0.00070000000 3.5500000000

pair_coeff 22 23 lj/cut 0.00070000000 3.5500000000
pair_coeff 22 24 lj/cut 0.00070000000 3.5500000000
pair_coeff 22 25 lj/cut 0.00070000000 3.5500000000
pair_coeff 22 26 lj/cut 0.00070000000 3.5500000000
pair_coeff 22 27 lj/cut 0.00070000000 3.5500000000
pair_coeff 22 28 lj/cut 0.00070000000 3.5500000000
pair_coeff 22 29 lj/cut 0.00070000000 3.5500000000
pair_coeff 22 30 lj/cut 0.00070000000 3.5500000000
pair_coeff 22 31 lj/cut 0.00070000000 3.5500000000
pair_coeff 22 32 lj/cut 0.00070000000 3.5500000000

pair_coeff 23 24 lj/cut 0.00070000000 3.5500000000
pair_coeff 23 25 lj/cut 0.00070000000 3.5500000000
pair_coeff 23 26 lj/cut 0.00070000000 3.5500000000
pair_coeff 23 27 lj/cut 0.00070000000 3.5500000000
pair_coeff 23 28 lj/cut 0.00070000000 3.5500000000
pair_coeff 23 29 lj/cut 0.00070000000 3.5500000000
pair_coeff 23 30 lj/cut 0.00070000000 3.5500000000
pair_coeff 23 31 lj/cut 0.00070000000 3.5500000000
pair_coeff 23 32 lj/cut 0.00070000000 3.5500000000

pair_coeff 24 25 lj/cut 0.00070000000 3.5500000000
pair_coeff 24 26 lj/cut 0.00070000000 3.5500000000
pair_coeff 24 27 lj/cut 0.00070000000 3.5500000000
pair_coeff 24 28 lj/cut 0.00070000000 3.5500000000
pair_coeff 24 29 lj/cut 0.00070000000 3.5500000000
pair_coeff 24 30 lj/cut 0.00070000000 3.5500000000
pair_coeff 24 31 lj/cut 0.00070000000 3.5500000000
pair_coeff 24 32 lj/cut 0.00070000000 3.5500000000

pair_coeff 25 26 lj/cut 0.00070000000 3.5500000000
pair_coeff 25 27 lj/cut 0.00070000000 3.5500000000
pair_coeff 25 28 lj/cut 0.00070000000 3.5500000000
pair_coeff 25 29 lj/cut 0.00070000000 3.5500000000
pair_coeff 25 30 lj/cut 0.00070000000 3.5500000000
pair_coeff 25 31 lj/cut 0.00070000000 3.5500000000
pair_coeff 25 32 lj/cut 0.00070000000 3.5500000000

pair_coeff 26 27 lj/cut 0.00070000000 3.5500000000
pair_coeff 26 28 lj/cut 0.00070000000 3.5500000000
pair_coeff 26 29 lj/cut 0.00070000000 3.5500000000
pair_coeff 26 30 lj/cut 0.00070000000 3.5500000000
pair_coeff 26 31 lj/cut 0.00070000000 3.5500000000
pair_coeff 26 32 lj/cut 0.00070000000 3.5500000000

pair_coeff 27 28 lj/cut 0.00070000000 3.5500000000
pair_coeff 27 29 lj/cut 0.00070000000 3.5500000000
pair_coeff 27 30 lj/cut 0.00070000000 3.5500000000
pair_coeff 27 31 lj/cut 0.00070000000 3.5500000000
pair_coeff 27 32 lj/cut 0.00070000000 3.5500000000

pair_coeff 28 29 lj/cut 0.00070000000 3.5500000000
pair_coeff 28 30 lj/cut 0.00070000000 3.5500000000
pair_coeff 28 31 lj/cut 0.00070000000 3.5500000000
pair_coeff 28 32 lj/cut 0.00070000000 3.5500000000

pair_coeff 29 30 lj/cut 0.00070000000 3.5500000000
pair_coeff 29 31 lj/cut 0.00070000000 3.5500000000
pair_coeff 29 32 lj/cut 0.00070000000 3.5500000000

pair_coeff 30 31 lj/cut 0.00070000000 3.5500000000
pair_coeff 30 32 lj/cut 0.00070000000 3.5500000000

pair_coeff 31 32 lj/cut 0.00070000000 3.5500000000

special_bonds lj 0.0 0.0 0.0 coul 0.0 0.0 0.0

#pair_style tersoff 
#pair_coeff * * C.4.tersoff 1 2 3 4

#pair_style lj/cut 12.0
#pair_coeff 1 1 0.0700000000 3.5500000000
#special_bonds lj 0.0 0.0 0.0 coul 0.0 0.0 0.0
###########################################################################


#--------------------------------------------------------------------------
#variables
#--------------------------------------------------------------------------
variable   	dt 		equal 0.001
#--------------------------------------------------------------------------
#kappa parameters
#--------------------------------------------------------------------------
variable    	p 		equal 100000 	# correlation length
variable    	s 		equal 10  	# sample interval
variable    	d 		equal $p*$s 	# dump interval 
variable    	d 		equal 100000*$s 	variable    	d 		equal 100000*10 	
#--------------------------------------------------------------------------
variable 	T_run 		equal 300
#--------------------------------------------------------------------------

log 	log_heat_${iseed}.lammps
log 	log_heat_4.lammps
