	reset_timestep  	0
	fix 			1 all nve
	compute   		myKE all ke/atom
	compute   		myPE all pe/atom
	compute   		myStress all stress/atom virial
	compute   		flux all heat/flux myKE myPE myStress
	variable  		Jx equal c_flux[1]/vol
	variable  		Jy equal c_flux[2]/vol
	variable  		Jz equal c_flux[3]/vol
	fix       		JJ all ave/correlate $s $p $d c_flux[1] c_flux[2] c_flux[3] type auto file J0Jt_${iseed}.dat ave running
	fix       		JJ all ave/correlate 10 $p $d c_flux[1] c_flux[2] c_flux[3] type auto file J0Jt_${iseed}.dat ave running
	fix       		JJ all ave/correlate 10 100000 $d c_flux[1] c_flux[2] c_flux[3] type auto file J0Jt_${iseed}.dat ave running
	fix       		JJ all ave/correlate 10 100000 1000000 c_flux[1] c_flux[2] c_flux[3] type auto file J0Jt_${iseed}.dat ave running
	fix       		JJ all ave/correlate 10 100000 1000000 c_flux[1] c_flux[2] c_flux[3] type auto file J0Jt_5.dat ave running
	compute 		myDis all msd 
	thermo_style 		custom step temp press vol c_myDis[4] v_Jx v_Jy v_Jz 
	thermo			1000
	timestep		${dt}
	timestep		0.001
	run			1000000
Memory usage per processor = 6.0234 Mbytes
Step Temp Press Volume myDis[4] Jx Jy Jz 
       0    292.60336    8087.0163    23887.872 8.1603632e-30  0.012030087 -0.011202809 -0.0039205599 
    1000    292.38332    3364.6589    23887.872    2.8669605 -0.00082354872 0.0077961443 -0.0031034592 
    2000    299.67096    6016.6188    23887.872    9.8086864 -0.0025220283 -0.010888091 -0.0029697005 
    3000    291.65229     7252.322    23887.872    17.540215 0.0026053707 0.0077059484  0.010026271 
    4000    297.50019     5812.664    23887.872    22.375603   0.01227796   0.01641487 -0.010680317 
    5000    290.82754    5307.9663    23887.872      25.1644 -0.0066061031 0.00050529937 0.0042295886 
    6000    300.05962    7120.5416    23887.872    26.437632 -0.017010919 0.0077742744 -0.011142397 
    7000    293.37516    7025.7046    23887.872    26.695191 -0.00043667507 -0.0027593403 -0.0013843673 
    8000     295.0087     4601.901    23887.872    26.446234 -0.0098422283 -0.0070297756 0.0031191852 
    9000    298.96588    5222.3947    23887.872    26.106258 0.0077188167 0.0024195356 -0.010675367 
   10000    296.00714    6569.7046    23887.872    26.223078 -0.005368641 -0.0022906714 -0.010530944 
   11000    301.08066    7998.5628    23887.872    26.502592 -0.002225216 -0.014170049 0.00028287798 
   12000    300.57421    5821.0618    23887.872    26.627035   0.00168153 0.0076201677 0.00084315808 
   13000    305.70586    3388.4047    23887.872     27.44816 -0.002380242  0.018385566  0.008002893 
   14000    297.65215    6358.0381    23887.872    28.239089 0.0021858866 -0.0055033115 -0.0024405444 
   15000    296.34262     6183.913    23887.872    28.457108 -0.0052579343 -0.00071217463 -0.0062668095 
   16000    298.49334    7288.4977    23887.872    28.407579 0.0033862404 -0.0012749306  0.014450588 
   17000    305.52628    8747.9499    23887.872    27.512352 0.0085001097    -0.001815  -0.01017932 
   18000     297.8028    5655.5971    23887.872    25.720655 -0.0066174226 0.0058089488  0.002215574 
   19000     294.7923    5926.2129    23887.872    24.902826 -0.005134096 0.0041897805 -0.0029682827 
   20000    299.45298    8575.4312    23887.872    25.126208 -0.015034196 0.0057651985 0.0020305685 
   21000    301.36446     5224.281    23887.872    26.385861 0.0038927842 0.0059955881 0.0095416578 
   22000    300.98362    4855.6077    23887.872    28.367451 0.00018242734 -0.0053574531 0.0088022428 
   23000    297.95206    6517.9957    23887.872    30.087604 0.0047134203 0.0083607296 0.0021993788 
   24000    298.75162     8253.177    23887.872    30.789445 0.00051549654  0.016145021 0.0012575696 
   25000    293.36808    5734.9931    23887.872    30.885118 -0.006589413 -0.0019581487   0.01129234 
   26000    302.73985    5598.0615    23887.872    29.709146 -0.0023782477 0.0034336511 0.00080207112 
   27000    300.05814    5342.2946    23887.872    28.285261 -0.0085623587  0.005694179  0.011985365 
   28000     302.1251    8083.6842    23887.872     27.76319 -0.0056010316 0.0039232359 -0.018043776 
   29000    302.70414    6309.2847    23887.872     28.47675 0.0046143942 -0.002529568 -0.00099366037 
   30000    296.85727    3163.1174    23887.872    29.239854  0.014634572 -0.0099925975 0.0037479159 
   31000    300.76012    5212.3657    23887.872    29.184937 -0.0043534413 -0.0032747067 -0.0017912738 
   32000    301.77545    8293.4456    23887.872    28.553319 0.0068932636 0.0042827806 0.0023087915 
   33000    296.11135      5484.29    23887.872    28.056959 0.0037117134 0.0060686943 -0.009715764 
   34000    293.57513     6663.837    23887.872      27.4663 0.0052525975 0.0056405293 0.00082509808 
   35000    298.16624    6102.3488    23887.872    27.212594 -0.0014286771  0.015150607  -0.01535229 
   36000    298.68488    6491.8868    23887.872    27.291341 -0.007450149 0.0039700924 0.0033064869 
   37000    300.80654    6291.2112    23887.872    27.427865 0.0048352503 0.0050936415 -0.0087656411 
   38000    298.85045    5991.3138    23887.872    27.045257 -0.014847338 -0.0024443413 -0.0011949832 
   39000    299.47926    6458.1064    23887.872    26.218502 0.0076427843 0.0042059904 0.0032432449 
   40000    302.89701    3782.9404    23887.872    25.927589 -0.0034604809 -0.0057317792  0.014332181 
   41000    301.02843    5763.1566    23887.872    26.093853 0.0098935245 -0.016755538 -0.0070384205 
   42000    302.30862    9882.8366    23887.872    26.106187 -0.0066739404 -0.0021334118 -0.0012892988 
   43000    300.92925    3751.1735    23887.872    26.519706 -0.0022142717 -0.0069303604 -0.0019637692 
   44000    298.09774    4116.0378    23887.872    26.821171 -0.0057649389 0.0063398894  0.011220928 
   45000    298.58184    6435.0364    23887.872    27.117617 0.00095466471  0.010832831 0.0036766441 
   46000    291.24448    5990.5976    23887.872     27.38316 0.0041656582  0.013205112 -0.0058806551 
   47000    297.24859    6360.6243    23887.872    28.062804 -0.021669239 0.0054018116 0.0095460998 
   48000    295.03867    8333.5848    23887.872    28.981028 -0.0012183263  0.013770424   0.01597067 
   49000    296.83522    3168.5429    23887.872    29.683412 -0.010644983 0.0045495402 0.0023655693 
   50000    304.49714    5224.4145    23887.872    30.151439 0.0076915685 0.0064073589 0.0019660547 
   51000    295.94596    6923.4235    23887.872    29.722577 -0.0060348668 -0.015605651 0.0039364841 
   52000    295.95625    7659.7068    23887.872    28.689886 -0.005769194 -0.0095645099 -0.0086365271 
   53000    292.00891    6345.8067    23887.872    27.218309 0.0085844413 -0.0055202029 -0.0010799129 
   54000    300.54713     5030.282    23887.872    26.311927 0.0082570764 -0.0049019873 -0.0086172954 
   55000    300.58395    4611.8222    23887.872     26.10472  0.011895599 0.0064876739 -0.0067171054 
   56000    293.60966    6403.4536    23887.872    26.473642  0.024075359 -0.012046689  0.014765347 
   57000    298.53876    8105.0885    23887.872    27.272082 0.0032043745 -0.0052462041 0.0019566632 
   58000    295.23591    6060.1999    23887.872    27.744176  -0.01139531  0.010704993  0.019605595 
   59000    294.45628    3821.5861    23887.872    27.980409  0.010814236 -0.0055372227 0.0054946648 
   60000    300.67553    5878.7411    23887.872    27.524078 -0.016092701 0.0038813233 0.0074512271 
   61000     293.6251     7983.928    23887.872    26.491186 0.0082712603 0.0096519403 -0.0038731056 
   62000    294.16914    7353.6384    23887.872    25.307156 0.0016420965 -0.0044451365 -0.012162732 
   63000    297.07745    5486.6257    23887.872    24.720734  0.010728286 0.0028512969 -0.0020506177 
   64000    293.54009    6003.9855    23887.872    25.079072   0.01046506 0.0081159106 -0.011264133 
   65000    294.76219    4151.0317    23887.872    25.826973   0.01947778  0.015627186 -0.0059416815 
   66000    294.11207    10025.905    23887.872    25.785567  0.017407025 -0.012651543  0.004337541 
   67000    296.34713    4342.1065    23887.872    25.144238 0.0091119847 -0.0066543845 0.0091014593 
   68000     297.9161    3189.0619    23887.872    24.666184 -0.0098869814 0.0031499534 -0.0088601068 
   69000    301.03419    7325.8042    23887.872     24.64493  0.002588834 0.0066548018 0.0028657289 
   70000    293.15639    7174.3396    23887.872    25.278968 0.0081484391 -0.00082855714 -0.0015714235 
   71000    299.39665    5310.8766    23887.872     26.06592  0.015248568 -0.0034010624 0.00034252438 
   72000    297.13427    5730.7552    23887.872    26.753985 0.0018789429 0.0022533081 -0.015261973 
   73000    300.91351     10086.35    23887.872    27.360198  0.002262463 -0.0064297952 -0.00095676476 
   74000    301.31298    7537.3821    23887.872    27.877611 0.0022169711 -0.0037622591 0.00095523124 
   75000    299.82564    1135.0242    23887.872    27.409578 -0.0043003943  0.015640976 0.0022666329 
   76000     299.8253    7051.6208    23887.872    26.556506 0.0086211772 -0.0023145363  0.021510779 
   77000    296.90945     10132.38    23887.872     25.61385  0.010132559 -0.0061837612  0.018842112 
   78000    299.06383    2962.5928    23887.872    25.631466 0.0078585005 -0.0038029145 0.0032518539 
   79000    296.80429    3376.9948    23887.872    25.892614 0.0076815123 -0.0032887885 -0.011783581 
   80000    303.38505    9101.3726    23887.872    26.774148  0.017427687  0.013078277 0.0066958472 
   81000    300.80447    3839.2041    23887.872    27.911058  -0.01097304 -0.0036294319 -0.0081764249 
   82000    301.22931    5325.4889    23887.872    28.421821 0.00099356305 0.0069654672  0.021993601 
   83000    296.98621    6129.2713    23887.872    28.180575 -0.0050433971 -6.0653253e-05 0.0093983047 
   84000    296.70367    6792.3788    23887.872    28.095708 -0.0017196989  0.016883121 0.0072900523 
   85000    298.05902    7995.9402    23887.872    28.003262 -0.0029890993 -0.0056653298 -0.010062088 
   86000    299.37467     4419.744    23887.872    28.087564 0.0064374573  0.010064226  -0.01451062 
   87000    296.99637    6146.4838    23887.872    27.826446 -0.00017065998  0.020986905 -0.0072290414 
   88000    304.82719    5671.0651    23887.872    27.041521  0.013424815  0.009959299 -0.001201584 
   89000    299.95075    6673.1352    23887.872    26.596019 0.0074672942 -0.0053503163 0.00056541723 
   90000    308.52824    8300.6527    23887.872    26.532177 0.0054871036 -0.014038869 -0.0064102003 
   91000    295.71862    4719.5801    23887.872    26.357477 -0.011507795 -0.014423018  0.016107537 
   92000    291.65542    6212.7795    23887.872    26.284445 -0.0044604844 -0.0049384586 0.0061421488 
   93000    299.30193    7661.6371    23887.872     26.42458 0.0008981767 -0.0023841885 0.0035994919 
   94000    299.01407    7386.0048    23887.872    26.480395 -0.0094055694 0.0061568672 -0.00064406544 
   95000    294.17984    1741.4674    23887.872    27.211022 -0.012858378  0.015267883 -0.0039663227 
   96000    298.96039    6789.4756    23887.872    27.401875 0.0025566029 -0.00064691861  0.006949728 
   97000    297.31709    8859.6694    23887.872    26.773324 0.0015620068 0.0060565978  0.009797337 
   98000    297.87992    5291.3877    23887.872    26.495174 0.0017200097 -0.0021513458 -0.0057395845 
   99000    297.59479    6781.7219    23887.872    26.772315  0.013672096 0.00094249373 -0.011336217 
  100000    294.84549    5678.7322    23887.872    27.064274  0.010891536 -0.0074266726 -0.0066345592 
  101000    302.70272    5689.0205    23887.872    26.949128 -0.0023906948  0.012511433 -0.0025402311 
  102000    292.68494    8670.2864    23887.872    26.910469  0.005433141  0.012111213 0.0047542726 
  103000    294.58047    6908.9392    23887.872    26.814202  0.004917882 0.0030934251 -0.0083988363 
  104000    295.19875    5009.8188    23887.872    26.983906 -0.00071265549 0.0053735096 0.0071934008 
  105000    294.53819    5232.9009    23887.872    27.810561 0.0038100132  0.014544969 -0.0017754084 
  106000     296.3546    6879.1033    23887.872    28.675603 -0.0057524955 0.0010225459 -0.0018283923 
  107000    297.85411      8170.07    23887.872    29.111383 -0.017152531  -0.01428728 -0.0046936383 
  108000    294.70202    5927.5143    23887.872    28.836503 0.0084071909 0.00038268315  0.012250008 
  109000       295.58    5009.5045    23887.872    27.848529 -0.0059981228   0.01719176  0.011545205 
  110000    302.94306    5135.1982    23887.872    26.181243 0.00021189888 0.0076248387 -0.0057936492 
  111000     298.7272     5052.669    23887.872    24.249079 -0.010987563 0.0069502554 -0.010203735 
  112000    297.60617    8187.6152    23887.872    22.776225 -0.011595063 0.0033452631 0.00041671505 
  113000     294.8643    4394.0651    23887.872    23.381313 -0.013079748 -0.00091585803 -0.0083935997 
  114000    292.92368    4063.1511    23887.872    24.966385 -0.010345385 -0.004064378 0.0046440233 
  115000    297.33501    7437.3664    23887.872    26.914863 -0.0089992373 -0.0052966494 0.00071075651 
  116000    293.56118     4736.466    23887.872    28.188233 -0.010327561 0.00032109629 0.0047145485 
  117000    300.66271    4081.0788    23887.872    27.808842 0.0074337761 -0.019876989 0.0065402591 
  118000    297.01983    8687.8935    23887.872     27.09827 0.0026258078  0.014203284 0.0019816087 
  119000    302.99806    4839.7364    23887.872    26.478219  0.010014871 0.0031945057 0.0025128601 
  120000    304.37095    5794.3419    23887.872    26.853874 0.00032312708  0.010467473 -0.0080705785 
  121000    296.81236    7899.9052    23887.872     28.15381 -0.0061650192 -0.012260718 0.00089121991 
  122000    290.28911    5700.3904    23887.872    28.977189 0.0022809714 0.0077409462 -0.0011353778 
  123000    301.54475    5042.7041    23887.872    29.394427 -0.014504015 -0.0056129558 0.00084098823 
  124000    295.04297     6880.948    23887.872    29.296844  0.002558684   0.01588553  0.013908304 
  125000    301.91984    5604.9879    23887.872    29.101543 -0.0039226095 -0.0054277695  0.011979565 
  126000    296.11499    7022.3347    23887.872     28.94452 -0.00077560267 -0.009487879 0.0028384719 
  127000    294.76609    7191.3633    23887.872    28.669181 0.0099335193 -0.0073242016 -0.017487587 
  128000    302.11872     6508.397    23887.872     28.23009 0.0058252211 -0.013552381 -0.012373325 
  129000    300.07706    5070.1072    23887.872    28.062961 0.0084229668 0.0038823011 -0.0055457551 
  130000    300.32732    4980.5957    23887.872    28.968639 -0.0031387894 0.0079822482 -0.0042902571 
  131000    299.05848    7508.1607    23887.872    30.377035 0.0043583948 0.0076384784 -0.0071300661 
  132000    298.66386    4712.4815    23887.872    31.215096 0.0042437222 -0.0064825809  0.011250069 
  133000    293.79277    7880.4584    23887.872    31.216527 0.00051777073  0.008123915 0.00091839182 
  134000    299.18327     7860.222    23887.872    29.649154 0.0053221678 -0.0060537642 0.0053518718 
  135000     302.2549     6877.859    23887.872    27.851077 0.0056481382 -0.0075576421   0.00719693 
  136000     293.7039    6667.1827    23887.872    26.590245 0.0035620396 -0.0056250945 -0.0020565374 
  137000    301.01285    5854.9996    23887.872      26.1145 -0.0066986079 -0.0039641064 0.00032046527 
  138000    299.09115    5138.4318    23887.872    26.212543  0.017249366 -0.0015009526 0.0075561853 
  139000    304.54445    4141.4977    23887.872    26.839551 -0.014163608 -0.0037540534 -0.0099850239 
  140000     302.4808    6601.1167    23887.872    27.355978 0.0071624173 -0.0043227041 0.0053851701 
  141000    302.20463    8565.6021    23887.872    27.579259 -0.0085082817 -0.0039657949 -0.001990974 
  142000      296.283    4944.9487    23887.872     27.31443 -0.013624909 -0.010754581  0.014960228 
  143000    303.74826    5389.8336    23887.872    26.370769  0.011323012 -0.017933218 0.0019628727 
  144000    300.56337    8250.3875    23887.872    25.491134 0.00036711228 0.0066070412 -0.00028315247 
  145000    297.04629    5304.5332    23887.872    24.808184 0.00090611497  0.010666493 -0.00012507469 
  146000    302.14637    5702.1357    23887.872    24.110823 -0.0031747998 -0.0090734881 -0.010410682 
  147000    298.46394    5539.1628    23887.872    23.969001 -0.0056761855 0.0030282521 -0.00066815874 
  148000    297.53814    7545.5862    23887.872    24.816695 0.0077791028 0.0033175987 0.0060808591 
  149000    306.24392     4932.824    23887.872    25.910605 -0.0046971205 0.0026307689 -0.00068630543 
  150000    299.50535    6920.7084    23887.872    26.083304 0.0073821016 0.0046732557  0.016519242 
  151000    295.26104    7312.0466    23887.872     26.19098 -0.014854346 -0.0076758086 -0.0026177155 
  152000    298.11911    5387.5555    23887.872    26.843644 -0.013083874 0.0051632665  0.012635066 
  153000    296.37241    5909.9842    23887.872    27.573597 -0.0030672725 0.0096016484 0.00034413238 
  154000    300.78667    4007.9267    23887.872    28.048586 -0.011068567 -0.016500691 -0.001424826 
  155000    298.33408    6866.4222    23887.872    28.250106 0.0050877546 -0.0014618878 -0.0019695933 
  156000    295.81752    6861.1796    23887.872    28.177816 0.0010782968 0.0052283094 0.0015089442 
  157000    309.10649    4082.1436    23887.872    27.948044 0.0078310338 0.0066007938 0.00020643068 
  158000    297.49978    7760.3872    23887.872    27.971703  0.017886243  -0.01206068 -0.009790792 
  159000    297.29258     6302.539    23887.872    28.465375  0.010276087 0.0075144985 -0.0035027768 
  160000    301.16936    3795.7295    23887.872    28.496403 -0.0024977638 0.0093394927 0.0039635247 
  161000    296.79799    4901.3103    23887.872    27.973708 -0.0057530529 -0.00065210526  -0.01254997 
  162000    302.60465    10024.492    23887.872    27.154341 -0.00079407683  0.016678558 0.0071193059 
  163000    305.92906    1077.7835    23887.872    26.379719 -0.0075745777 -0.0034149396 0.0020516138 
  164000    295.06791    5752.2865    23887.872    25.888679 0.0015568942  0.013786877 -0.012601925 
  165000    293.07619    7420.7044    23887.872     26.15443 0.0090421496 0.0012823239  0.013003286 
  166000     295.4683    5152.8241    23887.872    26.359727  0.014931178 -0.0033397239 -0.0056352367 
  167000    294.77801    4523.7904    23887.872    27.048242 0.0038795891 -0.0090230851 -0.00046872523 
  168000    298.40394     8307.489    23887.872    27.273581 -0.0070831329 -0.0065251689  0.001108377 
  169000    299.94472    5598.4796    23887.872    27.180574 0.0095484623 -0.0064334462 0.0055465115 
  170000    297.08411    2509.5056    23887.872    26.823737 -0.0040075841 0.0021231596 -0.0030598558 
  171000     299.3955    8776.7245    23887.872    26.608417 0.0077847259 0.0097474729 0.0056308754 
  172000    296.17687    8877.5848    23887.872    26.530243 0.0034308613  0.014558966 -0.0020324882 
  173000    296.13334    3477.2446    23887.872    26.681454 0.0067085127 -0.010968522 -0.0047994711 
  174000    294.63292    5895.0389    23887.872    26.988913 -0.003265446 0.0061042725 0.0095929249 
  175000    297.57304     4451.413    23887.872    27.054116 0.0048316938  0.017415169 -0.0014261665 
  176000    294.00459    7552.9217    23887.872    26.798134 0.0042512826 0.0090409354 0.0057639211 
  177000    302.23445    8207.9433    23887.872    26.599513 -0.003150316 -0.0090779414 -0.013655457 
  178000    306.65962    4008.3901    23887.872     27.05867 0.0073688544 0.0043184753 -0.0031603864 
  179000    292.27209    2019.2072    23887.872    27.248789 0.0057012421 0.0011299557 -0.0034528986 
  180000    295.06775    5855.3413    23887.872    27.221046 0.0022486436 -0.007287606 -0.0025967963 
  181000    299.52623    11217.987    23887.872    26.558751 -0.0045958347  0.011762073 -0.0069396106 
  182000    296.19547    6639.2557    23887.872    25.886042 0.0018331289  0.010239501 0.0028712763 
  183000    302.06074    2356.4059    23887.872    25.248076 0.00079637341 -0.00018844009 0.0041191368 
  184000    302.09441    5248.3937    23887.872    24.668328 0.0047588982  0.013454093 -0.0052205708 
  185000    294.46534    6409.8785    23887.872    24.558895 -0.0095803859  0.012593186 -0.0030476411 
  186000     286.3522    6426.9813    23887.872    24.260364 -0.0038441436  0.015258939 -0.005831218 
  187000    299.83014    5811.7041    23887.872    24.234059 -0.0094444944 0.0021393151 0.0071764442 
  188000      295.893     5434.097    23887.872    24.178162 0.0066489186 0.0076629227 -0.017014019 
  189000    296.39971    5560.1937    23887.872    24.308235 -0.0091174222 0.0067872821 -0.00051752375 
  190000    305.89858    5422.0413    23887.872    24.751512 -0.007217103  0.011049672 0.0088336352 
  191000    299.24903    7253.8931    23887.872    25.506978  0.011426096  0.012533133 -0.00063789016 
  192000    302.44322    5650.1552    23887.872    26.367244 -0.0018481853  0.011587286 -0.0079644169 
  193000    304.35757    4560.9148    23887.872    26.569694 0.0069870323 0.0037138288 0.0039293553 
  194000     297.3991    7054.5759    23887.872    26.306256  -0.01681114 0.0057384496 0.0052905895 
  195000    296.13007    7710.5772    23887.872    26.140544 0.0012880541 -0.0055599239 -0.0057509099 
  196000    300.34187    5617.1739    23887.872    26.334446 0.0025820766 0.0051011613 -0.0063128405 
  197000    299.56094    6486.3402    23887.872    26.523051 0.0014621767 -0.00046842141 0.00090666034 
  198000    298.41664    5347.7515    23887.872    26.607745  0.012434957 0.0018111283 -0.007118883 
  199000    295.70215    6947.7885    23887.872    26.993025 0.0025295159  0.010376839 0.0026970389 
  200000    298.98201    6025.8951    23887.872    27.318183 -0.00053858273 -0.0047604209  0.003120431 
  201000    304.60855     5382.852    23887.872    27.556464 -0.0023998471 -0.016404692 0.0092669052 
  202000    292.39246    7193.2115    23887.872    28.284002 0.0011908077 -0.0031324801 -0.013785063 
  203000    296.83158    5657.4758    23887.872    28.565558 -0.0082159304 0.0075234907 -0.016863997 
  204000    300.07078    3997.9947    23887.872    27.863291 0.0028645092 0.00017870353 -0.00075462072 
  205000    296.22447    6209.8476    23887.872     27.68491  0.024325198 -0.0035879152  0.003189465 
  206000    293.92486    6868.3911    23887.872     27.42601  0.011591522 -0.016441928 0.0069836077 
  207000    301.21267    4844.4032    23887.872    26.979925 -0.0049178354 -0.010921653 0.0017459203 
  208000    290.84386    7211.9294    23887.872    26.600305 0.0048550594 -0.0073434978  -0.01680799 
  209000    298.89034    6257.2307    23887.872    25.682605 0.0040464727 -0.0015714046 -0.0092249231 
  210000    295.63692    6146.7268    23887.872    25.242189  0.009263296 0.0073434019 0.0064398263 
  211000    297.55406     5144.397    23887.872    25.083829 -0.0059506279 -0.0035734165 -0.006547099 
  212000     296.6713    5820.7289    23887.872     25.72015 -0.0073789479 0.0086769211 -0.0062601375 
  213000    297.26629    4155.7521    23887.872    26.348419 -0.0056454849 -0.011794338 -0.0060339574 
  214000    293.37926    7800.7261    23887.872    26.389708 0.0066238339 -0.00017515179 -0.0053637014 
  215000    295.36578    8014.8757    23887.872    26.284732 -0.00017291695  0.002233737 -0.001093448 
  216000    301.54515    4285.6378    23887.872     26.27887 -0.0046809859 -0.0033679129 -0.0013971078 
  217000    296.60853    4948.3226    23887.872    26.250189 -0.0039828827 0.0056327209 0.0082830156 
  218000    300.53078    7656.0282    23887.872    26.208626 -0.0025695367  0.010246332  -0.01630756 
  219000    294.11107    6474.1356    23887.872    26.741966 -0.0090690115 0.0056705086  0.004054024 
  220000    297.09824    3900.7046    23887.872    28.000251 -0.0050080517 0.0081224129 0.0013637718 
  221000    302.30116    9560.7784    23887.872    29.064138 -0.0098306381 -0.0018057259 -0.0058054361 
  222000    295.93978    5823.6133    23887.872    29.371738  0.017869416 0.0081381908 -0.0048082484 
  223000    301.11384    3579.9076    23887.872    29.339509 0.0017871588 0.0063646015 -0.0084189516 
  224000    291.47662    7512.0803    23887.872    28.693769 -0.0016047742  0.015666529 0.0047991091 
  225000    301.08446    6181.2851    23887.872    27.857223  0.013977445 0.0027456244  0.013139624 
  226000    302.35254    4188.6181    23887.872    27.230026 -0.0064370924 -0.017097275 0.0026852725 
  227000    295.01352    5884.7012    23887.872    27.483366 -0.0045936855 -0.0064337557 -0.0097221508 
  228000    297.08473    5648.8755    23887.872     28.17298 -0.014871944 -0.0046702034 -0.014231726 
  229000    294.47283    7555.5666    23887.872    28.755254 -0.007129729 -0.0060199893 -0.0027364923 
  230000    301.01759    6441.2177    23887.872    28.659493 0.0049463668 0.0062349495 0.0015579612 
  231000    297.28707    4600.1872    23887.872    28.447841 -0.0051321994 0.00064939266 0.0092256942 
  232000    293.23388    7405.2875    23887.872    28.131275 -0.0047824975 0.0087738429 -0.0012743433 
  233000    297.01249     7333.787    23887.872    27.642589 -0.0067344383 0.0013642083 0.0025669341 
  234000    293.54025    4786.7432    23887.872    27.427246 0.0096444435 -0.0059000238 -0.00013355394 
  235000    299.08802    3243.9602    23887.872    27.665745 -0.00036771428 0.0026860347  0.005134235 
  236000    300.12309    9705.2823    23887.872    28.366696 0.0028230013 -0.016414565 -0.0052418731 
  237000    294.21739    7293.2189    23887.872    28.920931  0.013836228 -0.0065901189 0.0050618384 
  238000    302.16158     1286.051    23887.872    29.391061 0.0082208812 -0.0048714059 0.0013229787 
  239000    293.13022     6150.779    23887.872    29.645771 -0.0017883715 -0.0038044851  0.001424612 
  240000    308.05917    5687.2241    23887.872    29.383614 -0.0088503328 0.0016648964 -0.0063076439 
  241000    299.33384    3150.0219    23887.872    28.743752   0.02287138 -0.0047913035 -0.0060815745 
  242000    295.70181    7610.6843    23887.872    28.170261 0.0083231569  0.012039476 0.00019637448 
  243000    299.13357    7357.8569    23887.872    28.379105  0.004790291 0.0059929863 -0.0067153241 
  244000    293.88238    4676.7679    23887.872    29.065291 1.2616422e-05 -0.0093272525 -0.018411253 
  245000    297.53876    5798.1201    23887.872    29.437899 -0.012755518 0.0057228219 -0.011499714 
  246000    298.61449    3895.8841    23887.872    29.353209 -0.0066654284 0.0037832822 -0.0063390831 
  247000    298.11223    9132.9437    23887.872    28.492221 -0.0015420647 0.0055018254 0.0015869619 
  248000    303.02361    7251.2218    23887.872    27.338442 -0.00014549447 0.0047314336  0.005571147 
  249000     295.2748    5101.3093    23887.872    26.243749 -5.4167678e-05 0.0083529805 -0.0033664083 
  250000    296.12666    5806.7445    23887.872    25.682584 0.0020531515 -0.0041203187  0.012227565 
  251000    298.41109    7628.9855    23887.872    25.420981  0.015998896 0.0069802738 0.0053770938 
  252000    299.08584    5747.5343    23887.872    24.692771 -0.008647312 -0.0059093086 0.00089288145 
  253000    293.93124    4517.4457    23887.872    24.248687 0.0037494358  0.012919407  0.002627387 
  254000    293.98396    6599.1117    23887.872    24.760877  0.001842641 0.0021936454 0.0052275458 
  255000    299.81938    8096.7694    23887.872    25.344221 0.00080758108  0.008147087 0.0073880206 
  256000    297.65427    2867.3182    23887.872    26.661926 -0.021880478 -0.0089819284 0.0032894632 
  257000    301.54229    4597.5829    23887.872    27.896206 -0.015320053 -0.0055113806 -0.0028004695 
  258000    303.73742    9705.9717    23887.872    28.744383 -0.0045721572 -0.0067681482 -0.001547688 
  259000    298.27809    4617.0347    23887.872    29.116834 -0.0082919482 -0.013029545 -0.014851699 
  260000    299.30045    2774.4804    23887.872     28.92742 -0.013452867 0.0071201228 -0.0032361131 
  261000     293.1878    7492.9351    23887.872    28.248134 -0.020419142  0.012418874 -0.0072953549 
  262000    295.32911    5953.1586    23887.872    28.097445 0.0080659793 -0.0041180121 0.00077668543 
  263000    293.82583     5897.159    23887.872    27.833625 -0.0034237595 0.0062246806 0.0034768591 
  264000    296.49045    7107.1092    23887.872    27.578821  0.015692313 0.0056147727 0.0025314279 
  265000    296.18808     4447.035    23887.872    27.106673 -0.0074521153 0.0079644094  -0.01102175 
  266000    307.74555    5511.4022    23887.872    27.183029 -0.0081125872  0.014064003 0.0026725235 
  267000    302.58005     7725.825    23887.872    28.247018  0.015906072 -0.00022880795 -0.00064409954 
  268000    305.28275    6556.9368    23887.872     28.78697 -0.005242623 -0.013510847 -0.00038048183 
  269000    299.99534    5726.0679    23887.872    29.258671 -0.0035800804 -0.010524501 -0.0065302349 
  270000    299.24746     5559.829    23887.872    29.666604 -0.0043752333 -0.0094087428 -0.010989257 
  271000    298.68515    4376.9287    23887.872    29.514753 0.0028410193 -0.004653967 -0.0056070617 
  272000    298.65347    5680.2014    23887.872    28.461263 -0.0039911957 -0.012506828 -0.0060628616 
  273000    299.14374    7218.8861    23887.872    26.992701 0.0010020024 -0.0034630054 -0.0015992721 
  274000    302.21635    6915.2728    23887.872     26.03796 -0.0019608008 0.0060490123 -0.008074005 
  275000    298.27221    5269.2003    23887.872    25.812903  0.001349811  0.011806098 -0.016918391 
  276000    289.01533    4454.1998    23887.872    26.127585 0.00030132045  0.014113702 0.00039686368 
  277000     297.8409    6400.4335    23887.872    27.181516 0.0078452596 -0.0080356614 -0.011240787 
  278000    294.63089    7953.4704    23887.872    28.396609 -0.0046885194 -0.0029581269 0.00063888385 
  279000    295.91015    4329.0524    23887.872    29.473328 0.0082218141 -0.0093559418 -0.0049369553 
  280000    296.51926    7479.6477    23887.872    30.047371 0.0074153846 -0.0043425121 0.0013657761 
  281000    291.71343    7129.0603    23887.872    30.109545  0.003932044 0.0035962374 -0.015007933 
  282000    297.64619    5601.2295    23887.872    29.407357 -0.0010814026 -0.0060170946 -0.00030100358 
  283000    299.69801    6041.2534    23887.872    28.346853 0.0008750346 -0.0041005978 -0.011646249 
  284000    294.15473    5582.9754    23887.872    27.822423 -0.0022622278 0.0058264915 -0.0042938255 
  285000    305.13445    5197.2631    23887.872    27.542205  0.011166287 -0.0079866996  -0.02131631 
  286000    293.05313    7004.4249    23887.872    27.939987 -0.0016470499 -0.0032833246 -0.0059871651 
  287000    304.66671    3513.1234    23887.872    28.996027 -0.0023571769 -0.0052401189 0.0005001443 
  288000    302.29966    4312.6525    23887.872    29.442461 -0.0043984229  0.025649643 -0.0062898843 
  289000    294.37082    7536.2241    23887.872    28.783683 -0.00093809827 0.0035205184 -0.0082336662 
  290000    295.95072    7688.3155    23887.872    27.224363 -0.0032204235 -0.0031025581  0.012932866 
  291000    289.84695    4719.5785    23887.872    25.472036 0.0010980011  0.014533951 -0.0033470321 
  292000     295.4998    4810.4339    23887.872    24.174088 0.00034621396 0.0010446111  0.013657131 
  293000    300.83952    10743.723    23887.872    23.921614 0.0062684246 -0.0014639891  0.002525934 
  294000     297.4324    4410.2548    23887.872    24.682119  0.010415816  0.001070413 0.0054763203 
  295000    298.42538    3796.2373    23887.872    25.581551  0.012352669 0.0056995299 -0.0015574568 
  296000    292.51242    4080.9853    23887.872    26.088482 0.00076386217 -0.0018015546 -0.0022312982 
  297000    296.05373    7245.9505    23887.872    26.354613 -0.0054154766 0.0044401899  0.012997737 
  298000    299.07812    7858.8871    23887.872    26.837063  0.014044184 -0.0075584893  0.015667075 
  299000     293.9364    3402.0451    23887.872    27.401388 0.0039177011  0.015306537 0.00099209793 
  300000    301.36502    6108.5532    23887.872    27.697755 0.0050209276 -0.0056632202 0.0083800355 
  301000    294.57165    5865.5798    23887.872    27.784347 0.0035281617 8.1641459e-05 -0.0021953347 
  302000    295.94232    8066.1029    23887.872    28.011765   0.01704608 -0.0056863192 0.0013787611 
  303000    302.15296    4956.7184    23887.872    28.542085  0.014752175 -8.1525377e-05 -0.00074268023 
  304000    293.24289    4512.7598    23887.872    28.569858 -0.0034887662 -0.0047441238  0.008556181 
  305000    294.27104    6060.3317    23887.872    28.043636 -0.0055171368  0.009838115 0.00068556646 
  306000    302.41277    7510.9337    23887.872    27.447388 -0.003758498 0.00073703827 0.0022417578 
  307000     300.0346    5851.2104    23887.872    27.608419 -0.0025373978 0.0035991387 0.0041826885 
  308000    304.93332    4429.4252    23887.872    28.579494 -0.010314285 -0.0060459832 -0.0051004958 
  309000     291.3629    7174.8292    23887.872    29.097848 -0.0054917607 -0.0017114635  0.012679377 
  310000    302.37467    3774.0077    23887.872    29.190132 -0.0058850868 -0.0047674711 0.0072352556 
  311000    304.97933    3976.8373    23887.872    28.684508 -0.0091331245 -0.0018258889 0.0031779669 
  312000    300.55148    7613.8798    23887.872    28.445377 0.0072725393 -0.0057159776 -0.0051362321 
  313000    290.43679    7269.3182    23887.872    28.652171 -0.0033006984 -0.010306158 -0.0047004233 
  314000    293.93528    6068.1806    23887.872    29.442089 0.0094314423 0.0071838658  0.017420024 
  315000    298.98948    4298.2482    23887.872    29.687145 0.0019658046 -0.0025352888 -0.0070642945 
  316000    300.79582    8695.2254    23887.872    29.278893 -0.00063726805 0.0014521384 -0.016192696 
  317000    297.28511    6825.0467    23887.872    28.804635 0.0068421607 -0.00042598459 -0.0087779336 
  318000    296.96118    2473.4886    23887.872    28.155637 -0.00028643989 0.00053548913 0.0077726651 
  319000    302.89452    5033.2347    23887.872      27.0731 0.0021333049  -0.01129407 0.0011873476 
  320000    296.22745    9482.6563    23887.872    25.886253  0.002640367  -0.01537887 -0.0023161585 
  321000    300.78951    8080.9936    23887.872    25.132435 -3.7103917e-05 -0.016105122 -0.00036188481 
  322000    299.12061    3577.8162    23887.872    25.205192 0.0080190982 -0.0090473298 -0.0018188304 
  323000    294.99669    5019.8285    23887.872    25.756157  0.003807595 -0.010873471 -0.0048933289 
  324000    296.89513    6720.5354    23887.872    26.425756 -0.0034627003 -0.0087973233 0.0061363293 
  325000    306.49182    6509.4826    23887.872    27.801776 -0.0037938126 -0.00043864745 0.0030687144 
  326000     295.1873    5361.3109    23887.872    28.825956 -0.0046104457  0.000600273 -0.0069092684 
  327000    305.36805    5708.7878    23887.872    29.071843 0.0068657003 0.0071538508 -0.0090177618 
  328000    301.05553    5480.3448    23887.872    28.489113 -0.0038072047 0.0016772687 -0.0015464316 
  329000     296.8934     6133.732    23887.872    27.539783 -0.00041722645 0.0088429786 -0.0020328427 
  330000    298.93675    7239.5819    23887.872    26.978109 -0.00031825695  0.011249415 -0.009945661 
  331000      295.882    4293.2165    23887.872    27.285917 -0.0032491798 -0.0086770228 -0.0021378517 
  332000    297.58976     4748.684    23887.872    27.824878 4.6648671e-05 0.0029651116 -0.004362369 
  333000    305.10579    5971.0241    23887.872    28.528047  0.020527261 -0.0064001322 0.0050926607 
  334000    294.88846    6632.7726    23887.872    29.017657 -0.0078379808 -0.0010527576 -0.0065839579 
  335000    294.48885    6198.6286    23887.872     29.26083 -0.0082647338 0.0044988828 0.0054390818 
  336000    306.24791    5136.2567    23887.872    29.029811 -0.0033883581 -0.0029049065 -0.0036665378 
  337000    304.32435    5702.5291    23887.872    28.370598 -0.0093173778 -0.0026578784 0.0020099475 
  338000    294.30584    6991.4743    23887.872    27.551724 -0.010351435 0.0065904659 -0.0088971467 
  339000    290.56567    7715.8406    23887.872    26.842867 -0.0070940823 -0.0051730516 -0.0058185293 
  340000    296.22974     2972.328    23887.872    26.760512 0.0004092282 -0.011560408 -0.0088133716 
  341000    294.98494    3913.7486    23887.872     27.93132 0.0076814513 0.0058010528 -0.011203769 
  342000    296.50619    8152.3067    23887.872    29.846039 -0.0034273131 -0.009231319 0.0024964973 
  343000    302.34295    7596.8456    23887.872    30.857886 -0.0024811727 -0.0075223513 -0.014145349 
  344000    297.95365    3058.6505    23887.872    30.748384  0.011384308 -0.0022697405 -0.0010402268 
  345000    297.73854    2774.5244    23887.872    29.268161 -0.0038860727 0.0026485276 -0.0014690016 
  346000    296.35951    9475.9192    23887.872    27.572558  0.017741912 -0.00020444819 -0.013298472 
  347000    294.06136    5616.7804    23887.872    26.623757 -0.0090061557 0.0065084631 -0.011175736 
  348000    295.01012    1957.9945    23887.872    25.569346 0.0055471205 0.0031031459 0.0041538136 
  349000    293.76655     5503.148    23887.872    25.192353 0.0044425841 -0.0011595826 -0.014561383 
  350000    305.65418       7818.3    23887.872    25.662494  0.015969344  0.019482366 -0.00085770953 
  351000    294.05855    5950.5132    23887.872    26.812799   0.01724474 0.0080582669 -0.0042325716 
  352000    296.97261    5775.3774    23887.872    27.288683 -0.0071448616 0.0087740778 -0.0079481394 
  353000    302.52293    5278.1359    23887.872    28.622717 0.0022875176 0.0042277055 0.0042872916 
  354000    303.24256    4980.6981    23887.872    29.678034 0.0094791215 0.0028065629 -0.00076490049 
  355000    294.76441    8207.5244    23887.872    29.868835 -0.0039108495 -0.0017963289  -0.01884651 
  356000    291.80535    3488.2756    23887.872    29.646676 0.00024400085 -0.011529114  0.013567855 
  357000    295.89434    4965.9089    23887.872    29.514423 0.0079251666 0.0072758814 0.0008221955 
  358000    298.81617    7627.8109    23887.872    28.796496 0.0083119133 -0.0074430454 0.00061378628 
  359000    299.91684    4530.4366    23887.872    28.168714 -0.0051243945 -0.007165586 0.00068453843 
  360000    297.22815    6022.2104    23887.872    28.447079 -0.0075955136  0.010902286 -0.003427076 
  361000    298.33088    8687.5117    23887.872    28.659982 -0.0041950579 0.0033732768 0.0040967459 
  362000    294.70303     4310.877    23887.872    27.902426 0.0012293588 0.0053863019 -0.0046979163 
  363000    296.42577    6489.3636    23887.872    27.116669 -0.0058408252 -0.0030166304 -0.0017868773 
  364000     298.3683    5380.6634    23887.872     26.93462 -0.002469396  -0.01264303 0.0016959948 
  365000    301.41022    2675.1243    23887.872    27.373386  0.007579847 -0.0027061674 0.0089286321 
  366000    298.90451    6918.7734    23887.872    27.947856 -0.0030147668 0.0024555603 -0.015511122 
  367000    294.17574    8003.3834    23887.872    28.103917 0.00048223855 -0.014172577 -0.012477923 
  368000    296.53572    6129.9671    23887.872    27.901173 0.0073419479 0.0050408009 -0.0066594463 
  369000    297.28774    3981.7842    23887.872    27.908894 0.0025944632 -0.0011625485 -0.0048936535 
  370000    299.35113    6861.7529    23887.872    28.085012 -0.0036979646 -0.0062121821 0.0038629994 
  371000     303.8207    5720.0868    23887.872    27.934984 -0.016479308 -0.0019820981 -0.0039724606 
  372000    299.15075    3478.6031    23887.872     27.61755 -0.0024789922 0.0024447041 -0.0031758338 
  373000    291.92912    6797.6529    23887.872    27.700093 0.0046723813 -0.011816396 0.0021575124 
  374000    299.11459    7435.8863    23887.872    28.291539 0.0066520631 -0.0047841084 0.0054867866 
  375000    301.66546    2298.4441    23887.872    28.341656 0.0038676958 0.0063105951 -0.0067637102 
  376000    300.20815     4138.966    23887.872    27.753567 0.0019406572  0.005167514 0.0045439391 
  377000    293.24339    6904.8987    23887.872    27.536558 -0.0012881026 -0.0034102913 0.0033197871 
  378000    296.08015    7598.9775    23887.872    27.582844 -0.008599203 -0.0034401852  0.011816602 
  379000    298.68253    5425.2697    23887.872      27.7324  0.009293911 -0.001269293 0.00032426412 
  380000    297.29675    5051.2317    23887.872    27.853388 -0.0068834231 0.0053791606 -0.0017377095 
  381000    297.97383    5276.4192    23887.872     28.01748  0.010507367 -0.0071131907 0.0089474962 
  382000    301.47842    5592.7824    23887.872    28.111546 0.0013956006  0.015215291 0.0022327353 
  383000    295.83032    5150.8972    23887.872    28.051186 0.0054888187 -0.003213417 0.0020232515 
  384000    301.03322    5485.2248    23887.872    28.267515  0.012735942 -0.00068376367 -0.0035578712 
  385000    301.15637    6887.6033    23887.872    27.875155 -0.0011610925  0.011271195 -0.0011793023 
  386000    298.38096    5241.0638    23887.872    26.728738 -0.001285126 0.0038845467 0.0091363397 
  387000    296.07488    5186.0158    23887.872    26.199492 0.0077761119  0.007765668 0.0001720318 
  388000    298.98447    6203.9304    23887.872    26.031126 -0.024182397 -0.011149278 -0.0033988446 
  389000    298.88937    7585.2321    23887.872    26.331438 -0.0067185278 0.0034312272 -0.00088569226 
  390000    300.35556    4349.5295    23887.872    27.254199 -0.0029193464 0.00097574165 -0.0010907357 
  391000    295.96818     2134.708    23887.872    28.287685 0.0027876693  0.010077584 0.00077712425 
  392000    294.06597    6649.4548    23887.872    28.973736 -0.00068350419 -0.0081238788  0.010700881 
  393000     302.0572    8190.6676    23887.872    29.399845 0.0069035953 -0.0027048189 -0.001824137 
  394000    299.48437    4130.7754    23887.872    29.280205  0.006006289 -0.00079471192 0.0039668579 
  395000    305.21984    3753.7849    23887.872    28.988866 0.0087456037 0.0057088464 -0.0054366454 
  396000    297.95167    9238.2836    23887.872    28.822993 -0.0046775915 0.0024168205 -0.0011672213 
  397000    301.74279    7402.3093    23887.872    28.883999 -0.0015820268 0.00077001884 0.0047627327 
  398000    296.40913    5224.5694    23887.872    28.828269  0.011007098 0.00084825363 -0.0016641066 
  399000    289.60785    5401.4327    23887.872    28.696973 -0.0010019285 3.8243184e-05 0.0036686165 
  400000    296.67076    5853.3263    23887.872    28.140037 0.0070390728 -0.0059847763  0.011057755 
  401000    304.40816    6684.5105    23887.872    27.560069   0.01110816  0.015974689 -0.015034879 
  402000    294.75315    4026.1249    23887.872    26.987423 0.0068343782 -0.0072621079 0.0013493446 
  403000    294.44017    8324.9014    23887.872    26.894939 0.0096174985 0.0070327887 0.0038392783 
  404000    299.55219    5485.6365    23887.872    27.389624 0.0014275338   0.00163253  0.014363411 
  405000    298.87131    2890.0103    23887.872    27.691867  -0.02138106  0.011107029 -0.010696176 
  406000    298.65638    4427.7381    23887.872    28.034487 -0.0015927041 -0.0056237783 -0.018140734 
  407000    303.02887    6899.6979    23887.872    28.526965 -0.0024364402  0.012838916  0.015083846 
  408000     292.1078    5148.9429    23887.872    28.457399  0.010839253 -0.0013286432 0.0099986014 
  409000    297.79926    5900.2574    23887.872    28.281585 -0.0064170509 0.0011529568  0.006794303 
  410000    302.72936    3638.2568    23887.872     27.95831 -0.0026686683 0.0033689868   0.01785321 
  411000    293.22622    5573.7488    23887.872    27.524683 0.0042995816 0.0051293601 -0.0017891891 
  412000    301.31521    5627.0903    23887.872     27.43286 0.0015471354 -0.0013832683 -0.0093014258 
  413000    300.69802    7070.4561    23887.872    27.838191 -0.0038760121 -0.014654928 -0.0063018082 
  414000    297.64505    7108.8319    23887.872    28.465144 0.00087103643 -0.0044705837 -0.0066345038 
  415000    297.22718    2815.8603    23887.872    29.468997 -0.0055259624  0.012301088 -0.010990015 
  416000    292.71905    3044.4035    23887.872    29.919034 0.00097978879 -0.0034120743 0.0037483191 
  417000    293.05195    9126.4924    23887.872    29.991721 0.0052735958  0.007995616 0.0094541708 
  418000    299.19668    7100.5325    23887.872    29.926994 -0.014302604 -0.0071542382  0.002352199 
  419000    293.12594    4379.0918    23887.872    29.543828 0.0089239881 -0.015074189  0.003386884 
  420000    301.62857    5865.1952    23887.872    29.563512 0.0093943007 -0.0022879772 -0.0041407491 
  421000     299.1433    6148.7392    23887.872    29.639888 -0.011976837 -0.018923206 -0.011154544 
  422000    295.20913    4371.6058    23887.872    29.963557  0.011617182 -0.004434246 -0.014078248 
  423000    300.24719    5388.8466    23887.872    30.320127 -0.0036160051  0.016351897 -0.0013374823 
  424000    293.94959    7439.8877    23887.872    30.114436 -0.0054829216 0.0064342447  0.015012673 
  425000    296.28475    5571.2536    23887.872    29.477176 0.0075263251 -0.0064374922 0.0070498401 
  426000    298.45032    6708.4592    23887.872    28.905093 0.0056741116  0.009129598  0.013873838 
  427000    301.13083     3500.955    23887.872    28.639195 -0.0025724574 -0.006709598 -0.00062860975 
  428000    297.06715    6352.9322    23887.872    28.373007  0.012870661 -0.010318959 0.0034030003 
  429000    295.77351    8204.5403    23887.872    28.028872   0.01425399 -0.00060024375 -0.011261698 
  430000    297.57153    4676.6526    23887.872    27.767304 0.0077037947 0.0016957062 -0.009048346 
  431000    302.95528    3268.1998    23887.872    28.207874  0.012107704 0.00033875592  0.011662225 
  432000    292.79465    9794.5684    23887.872    28.835721 0.00061630881  0.009084743 -0.0046991988 
  433000    297.11904    5591.1959    23887.872    28.380646  0.013271741 -0.001180728  0.007124889 
  434000    300.33801    2077.2611    23887.872    27.431151 -0.00082240153  0.010725118  0.001166926 
  435000    290.34265    7258.2001    23887.872    26.896099  0.010090008 -0.0040306866 -0.010757618 
  436000    299.77335    9055.0321    23887.872    26.638943 -0.00010131153 -0.0024728871 -0.0055366556 
  437000    300.16853    4559.3661    23887.872    26.753231 0.0082533742 -0.0047732692 -0.0046565173 
  438000     303.8916    5861.9039    23887.872    26.820183 0.0024634386 -0.0035528415 0.0075750962 
  439000    297.12153    3312.4055    23887.872     27.15865  0.002974232 0.0071672242  0.013777304 
  440000     293.6079    4938.9929    23887.872    27.041942 0.0060091659 -0.0071934073 -0.013973152 
  441000    306.51765    8639.6158    23887.872    26.275405 0.0096594227 -0.0027863002 0.0073383804 
  442000    290.13551    7549.9858    23887.872     25.58363  0.020737185 -0.0026307294 0.0068587632 
  443000    283.85368    2822.8054    23887.872    25.090698 -0.0059191028 -0.012560818 -0.0032244442 
  444000    296.73145    7133.3953    23887.872    24.944369  0.013880431 -0.0091351551 0.0019748609 
  445000    292.69861    7560.6489    23887.872    24.348509 -5.3842129e-05 -0.012019054  0.002827285 
  446000    290.28172    6056.2498    23887.872    23.975976 -0.0049332924  -0.00117422 -0.0012359094 
  447000    299.60728    3651.3352    23887.872    23.862522 -0.0087374828 -0.017095365 -0.0040443491 
  448000    294.74912    6271.4257    23887.872    24.230862 0.0067790812 -0.00011834238 -0.0016490244 
  449000    291.28647    5594.1806    23887.872    24.773907 -0.010682999 -0.011150817  0.013459852 
  450000    303.17217    4877.4184    23887.872    25.169807   0.00394571 0.0069004769 0.0032056584 
  451000    300.96526    5648.9552    23887.872    25.131116 -0.0023443565 0.0013145317 0.0011725089 
  452000    299.40815     5958.766    23887.872    24.691064 0.0083130166 0.0049259781  0.011950674 
  453000    299.78459    6347.3511    23887.872     24.02794 -0.0095312191  0.011721417 -0.0054127339 
  454000    301.65847    5897.5585    23887.872    23.681396 -0.012999122 -0.0026600559 0.0013633648 
  455000    298.40578    3715.4677    23887.872    24.073016 0.0056653008 -0.0024806822 -0.0056330902 
  456000    294.42088    6669.2735    23887.872    24.229016 -0.011241331 -0.0022974012 -0.010643542 
  457000    304.03532    8175.3611    23887.872    24.974895 -0.0011067635  0.010676325  0.007206988 
  458000    305.08703    2985.4631    23887.872    25.528404 0.0086433607 -0.0037671696  0.011979534 
  459000    302.03338     6238.769    23887.872    25.845431  0.011336991 -0.0024570555 0.0057880834 
  460000    299.21153    6931.6534    23887.872    26.098597 -0.011098034 -0.011078323 -0.010026327 
  461000    304.08254    3748.9368    23887.872    26.472369 -0.018208671 -0.0078325711  -0.01143883 
  462000    295.47991     4063.705    23887.872    27.389678 0.0014562269 0.0063772198 -0.0094764151 
  463000    294.06594    7303.8724    23887.872    28.084792 -0.0017241489 -0.028557578 -0.0099269998 
  464000    297.51642    5257.1515    23887.872    27.743749  0.011563277 -0.0073761332   0.01173835 
  465000    297.70439    4668.0633    23887.872    27.404179 -0.0064575053 -0.0058063584 -0.012046112 
  466000    292.69704    3524.1985    23887.872    27.811508 0.0061232463 -0.004447446 0.0057253079 
  467000    294.90859    8739.4942    23887.872    28.183376 -0.0029401451 -0.0045566494   0.00542862 
  468000    295.03283    7220.1866    23887.872    28.871341 -0.014913037 0.00046634314 -0.0030092875 
  469000    299.33826    3351.4719    23887.872    29.875232  0.012521924  0.002670497 0.0084450051 
  470000    297.17412    4938.6304    23887.872    30.524632 -0.0040219338 0.0090052468 -0.0014313936 
  471000    300.41561    7191.7523    23887.872    30.218269 -0.013219031 -0.012416568 -0.0038858142 
  472000    293.85458    5336.6678    23887.872    29.146135  -0.01224919 0.0012182054  0.005577877 
  473000    301.33596    4295.0296    23887.872    28.152648 -0.010872465 -0.0042059591 -0.0015639998 
  474000     295.6867    6146.3776    23887.872    28.207435 -0.0071563917 -0.00014474501 -0.0017085816 
  475000    299.82333    5204.4625    23887.872    28.914898 0.0011414765 0.00050677154  0.006367366 
  476000    293.69305    8026.8252    23887.872    29.524591 -0.0068300876 -0.0077631773 0.0022283118 
  477000    299.27864    3943.9355    23887.872    30.366409 -0.012611221 -0.0015543984  0.016868247 
  478000    291.51179    4375.3864    23887.872    30.858123 -0.015874042 -0.00065292021 -0.0054153791 
  479000    294.61201    6039.9414    23887.872    30.476772 0.0016124523 0.0024832269 0.0036677292 
  480000    296.61844    4717.4944    23887.872     30.44344 0.0058360929  0.019326352 0.0081540911 
  481000    285.51908    3944.2121    23887.872    30.450989 -0.0026003429 0.0012465276 0.0049177485 
  482000    295.16482    8946.9988    23887.872    30.196664 -0.017371026 -0.0021351554   0.01157422 
  483000    295.53262    6432.8054    23887.872    30.187558 -0.0032787187 -0.00053031595 0.00098108151 
  484000    288.55987    2505.7579    23887.872    29.946662 0.0084489087 0.0038621631 0.0050968505 
  485000     296.8936    4101.8048    23887.872    29.703412 0.0097490059  0.015772994 0.0029872885 
  486000     294.9561    5023.8564    23887.872    28.817784 0.0043367307 0.0012527715 0.0029803445 
  487000    295.21181    4785.6654    23887.872    27.810026  0.011037114  0.003020834 -0.0014620888 
  488000    293.76885    6324.7359    23887.872    26.826841 -0.011825691 -0.0012074065  0.002419222 
  489000     288.5514     7562.226    23887.872    26.319869 0.0018081724 -0.0084693476 -0.0093020954 
  490000    285.73554    3959.4346    23887.872     26.23198 -0.0077494459 -0.0062368057 0.0013447602 
  491000    299.13197    4602.2552    23887.872    26.818878 -0.0086458547  0.003753031 -7.7894191e-05 
  492000    302.31312    7140.8279    23887.872    28.319081 -0.0065362106 -0.00039133512 -0.0044828305 
  493000    295.14622    6475.8059    23887.872    30.101716 -0.0042438117 0.00063892055 0.00017756517 
  494000    299.32426    4649.1263    23887.872     30.88798 -0.0065026317 0.0054196239 0.0014056398 
  495000    292.44481    3734.6163    23887.872    31.123432 -0.016302015 -0.0020601627 -0.0017761594 
  496000    296.51429    5722.7997    23887.872    30.406401 -0.012654618 -0.0016806102 -0.0037025405 
  497000    300.96377    6019.5042    23887.872     28.90712 -0.0020317872 -0.0036767629 -0.009105843 
  498000     298.5662    7311.3306    23887.872    27.155161 -0.0091438649 0.00063378032 0.0050779816 
  499000    303.99615    5363.8314    23887.872    26.224424 -0.00094722967 -0.010020275 -0.010721843 
  500000    304.69071    3720.9561    23887.872    26.086099 -0.00018298806 0.00060922372 -0.018579825 
  501000    297.58051    3997.4534    23887.872    27.011835 -0.012625611 0.0014412337 -0.0087638439 
  502000    298.92515    7442.6985    23887.872    28.138974 0.0084639504 -0.0024505939 -0.0019427641 
  503000    297.88297    6596.8731    23887.872    28.989499 0.0053482299 -0.013282045 0.0045000958 
  504000    293.56214    5180.4952    23887.872     28.31225 -0.0049015598 -0.009562404 0.0065621728 
  505000    303.02053    4528.3278    23887.872    27.663522 -0.001545757 0.0042298385 0.0021078729 
  506000    300.51834    7009.4218    23887.872    27.512497 -0.0048109026 0.0027573551 0.0019071112 
  507000    299.83108    5322.6464    23887.872     27.37164 -0.0061753302 0.0037886536 0.0021313132 
  508000    303.13946    1770.0454    23887.872    27.129537 0.0064136981  -0.02071518 0.0029504986 
  509000     304.8492     5812.326    23887.872    27.168489 -0.0063744797 -0.016636695  0.007885263 
  510000    299.07822    7519.7731    23887.872    27.793585 0.0073932653  -0.01137243   0.01672694 
  511000    294.62906    4944.7824    23887.872    28.271025 0.0056999158  0.018299582 0.00086474738 
  512000    300.85412    5530.1973    23887.872    28.880262 -0.011056169 0.0015284774 0.0020072313 
  513000    305.87247    5232.2541    23887.872    29.621057 0.0024747305 0.0018883603 -0.0019419104 
  514000    301.21135    7240.7442    23887.872    29.716375 0.0083626235 0.0038195627 0.0007348778 
  515000    302.93164    4409.5636    23887.872     29.47626 0.0076614244 0.0088910663 0.0058303626 
  516000    295.68513    3811.7247    23887.872    29.112611 -0.014414785 0.0014865607 -0.0056154963 
  517000      299.158    5801.9694    23887.872    28.797102 -0.010177059 0.0095453919 -0.0054420766 
  518000     300.3142    6855.7783    23887.872    28.579591 0.0004798191 -0.0021121118 -0.004750494 
  519000    295.60668    4959.3113    23887.872    28.170691 -0.0060000989 -0.0065526812 0.0040577804 
  520000    296.30842    4436.7863    23887.872     27.79265 0.00048397737 0.0022916156 -0.008488791 
  521000    296.36164    5787.8219    23887.872    27.656575 -0.0038802236 -0.0057588538 -0.010046235 
  522000    301.44809     5557.339    23887.872    26.976368 -0.0051869182 0.0022061589 -0.0023864262 
  523000    301.22694    8063.1312    23887.872    25.569519 -0.013953483 -0.00090821507  0.018381183 
  524000    291.42588     4812.745    23887.872    24.606974 -0.011125879 0.0035231646   0.01030175 
  525000    291.27774    1387.9609    23887.872    24.835942 -0.0073465223 -0.00039483136  0.019329158 
  526000    299.04622    8336.3717    23887.872    25.517428 -0.0036495248 -0.0027702038 -0.00052917385 
  527000    296.19016    8312.8741    23887.872    26.477305  0.011577882 -0.00034916635 -0.00047758822 
  528000    305.55686    4417.5722    23887.872    27.550649  0.008483805 -0.0040001446  -0.01266999 
  529000    292.64313    7294.5651    23887.872     28.12196 -0.010809116 -0.0018986912 -0.0022311211 
  530000    294.06341    7532.0266    23887.872    28.076065 0.0067826783 0.0015296613 -0.012218642 
  531000    297.30343    4612.1194    23887.872    27.320869 0.0015680902 -0.0041144475 0.0059839322 
  532000    294.27903    3946.6997    23887.872    26.269529 -0.0052397986 -0.0093052223 -0.0020707379 
  533000    304.93331      6276.11    23887.872    25.876023  0.011794493 0.0095503056 -0.0021103944 
  534000    295.28266    8040.3958    23887.872    26.092343 -0.0011386083 -0.0096971239  0.012801183 
  535000    294.73517    3753.4739    23887.872    26.900004 -0.0048869886 0.0031614515 -0.0032309896 
  536000    302.94089     3870.068    23887.872    27.241773 -0.0019572851 0.0078644132 -0.0025350594 
  537000    289.58504    7811.1089    23887.872    27.439138 0.0020006004 -0.0048279615 -0.00053834801 
  538000    299.51988    5370.6857    23887.872    27.673173 0.0040511102 -0.0015074347 0.0087298123 
  539000    296.31164    3313.5478    23887.872    28.153015  0.012650723 0.0046073215 0.0058955077 
  540000    289.83262    7484.7609    23887.872    28.523934  0.017162383 0.00087576419 -0.0093765888 
  541000       296.48    6123.0818    23887.872     28.56107 3.3626237e-05 0.0017380084 -0.0047340065 
  542000    292.96873    5476.8057    23887.872    28.513802 -0.012203989  0.011153381 -0.016335192 
  543000    298.81921    6033.9512    23887.872    28.761784  0.008187148 0.0048071465 0.0099065309 
  544000    297.95549    4948.8786    23887.872     28.69666 -0.002697831 0.0018071781 -0.010084569 
  545000    299.47991    4388.6849    23887.872    28.412112 -0.0023892684 -0.011228767 0.0017564738 
  546000    290.69439    9149.7559    23887.872    28.182256 0.0034008736 -0.014569378 0.00027695522 
  547000    292.35585    5101.8563    23887.872    28.428289 -0.0024363652 0.0038363115 0.0043840077 
  548000    291.40105    1781.7465    23887.872    28.552479 0.0042716016 -0.013582474 0.0022031093 
  549000    294.79367    7217.9245    23887.872    28.815002 -0.0075656334 0.0061830934 -0.012991207 
  550000    302.72413    5632.7089    23887.872    28.554047 -0.004574721 0.0032422144 0.0012046841 
  551000    300.18995    6381.2931    23887.872    28.024043 0.0036531469 -0.0040315158 0.0011216934 
  552000    292.06301    4841.5448    23887.872    28.404358  0.010442702 -0.0098671801 -0.012261214 
  553000    296.03559    5352.3893    23887.872    29.398353 0.0098801159 0.0096749097  0.011055519 
  554000    292.87171    4816.0766    23887.872    29.937488 -0.0051315193 -0.0094386772 -0.0012292438 
  555000    294.41846    4957.5284    23887.872       29.699 0.0066487532 0.00043635421 0.0067538251 
  556000    300.08999    5562.9711    23887.872    29.608045 -0.0043553269 -0.012320258 0.0033412717 
  557000    295.45398    4188.4112    23887.872    29.824484 -0.012026283 -0.0055756683 -0.012707919 
  558000    293.60827    6182.6022    23887.872    30.164017 -0.0059586756 0.0028887691  0.010164277 
  559000    294.28885     6056.814    23887.872     30.50982 -0.0030417907  -0.01861765 -0.0044217228 
  560000    296.24823    6854.5996    23887.872    31.091893 -0.0026228374 -0.016181498  0.014858071 
  561000    304.93401    4586.8318    23887.872    30.921749  0.010534551 -0.008406662 -0.013184757 
  562000    294.63088    6285.4414    23887.872    30.116332 -0.0005478516 -0.019892898 -0.0063513312 
  563000    294.03667    7648.7598    23887.872    29.457314 -0.0064023233    0.0121974 -0.0091538257 
  564000    298.88075    3780.6149    23887.872    29.025953 -0.0044213857 -0.0070131393  0.016093792 
  565000    292.90567    3743.2743    23887.872    29.157573 0.0053971253  0.003083454 -0.0043824346 
  566000    298.60457    8200.9695    23887.872    29.027659 -0.003717268 0.0053887678 0.0055233429 
  567000    301.29446    7555.2187    23887.872     28.75296 0.0047302929 0.0094006006 0.0043150603 
  568000     297.9467     1521.045    23887.872     28.50362 0.0093491468 -0.00034664325 0.0015763594 
  569000    303.22424    5239.7067    23887.872    28.921195 -0.0068014262 -0.0048841257 -9.6525827e-05 
  570000    297.32189    8019.2168    23887.872    29.567295 -0.0021084844 0.0056817697 -0.0034193921 
  571000    297.65449     6039.496    23887.872    29.807885  0.011350702 0.0056823312 -0.0036679531 
  572000    299.05584    1969.2459    23887.872    29.356501 -0.0076818601 -0.0034416179 -0.0039712021 
  573000     297.2165    5701.9622    23887.872    28.316878  0.010356643 -0.0074784625 -0.008413454 
  574000    295.29226      9140.01    23887.872    27.618731 -0.005444577 0.0085804006 0.0010494557 
  575000    297.29457    5825.9599    23887.872     27.35972 0.00029592552 0.0029392762  0.010689638 
  576000    293.87064    2677.8762    23887.872    26.704098 0.0052400648 -0.0018332605 0.0053618118 
  577000    298.68027    6024.7522    23887.872    26.151046 -0.0084275587 0.0073260481 0.0088930374 
  578000    300.02479    7677.4281    23887.872    25.808352 0.0083046488 0.0095783853 0.0044549627 
  579000    299.38701    5210.7603    23887.872    26.081865  0.002782942 0.0029826814 -0.0027455926 
  580000    300.76701    2980.9867    23887.872    26.738206 -0.00091831288 -0.0015542919 0.0088096436 
  581000    300.53534    5479.7874    23887.872    27.301842 0.0015620305 -0.0049597933 -0.0064835338 
  582000    299.97112    8614.0374    23887.872    27.860803 -0.0058057707 -0.0033842295 -0.0025961666 
  583000    304.05167    4256.2247    23887.872    28.059617 0.0011821691 -0.0085427967 0.0087663834 
  584000    299.68337    3307.6749    23887.872    27.615686 -0.0010324256 -0.0097099309 -0.0045995796 
  585000    293.86556    5911.9809    23887.872    26.544988  0.002092875 -0.0092062833 -0.0081013689 
  586000    296.06801    6554.9834    23887.872    25.539003 -0.013926712 0.00054559131 0.0023471837 
  587000    299.90537    6194.5739    23887.872    24.700976 0.0031643281 -0.0017520045 0.00030184761 
  588000    299.76483    2755.8692    23887.872    24.626278 -0.0045722227 -0.0026301575 -0.0020001507 
  589000    298.91073    3477.5782    23887.872    24.782929 -0.0071858692 -0.0062790282  -0.01460551 
  590000    295.68135    4906.8424    23887.872     24.93251 -0.0095727387 -0.0069623826 0.0025351935 
  591000    296.71017    5575.3393    23887.872    25.101768  0.015585079 0.0058222102 -0.0025993494 
  592000    301.30948    5406.2157    23887.872    25.205843 -0.0014552889 -0.015665218 -0.0083328827 
  593000    301.21377    5815.1637    23887.872    25.120579   0.01257286 -0.0029216109 0.0046354783 
  594000    297.59813    4737.0656    23887.872    25.441224 -0.0048528336 -0.0084289808 0.0075134885 
  595000    302.00309     5457.563    23887.872    25.694213 3.9294878e-05  -0.00352167 0.0022383739 
  596000    300.45869    4069.3562    23887.872    25.788269 0.0032702653 -0.0082065545 0.0014534929 
  597000     304.4921    7246.2404    23887.872    26.347522 -3.0926264e-05 0.0042190704 -0.0045193758 
  598000    303.42996    3839.4193    23887.872    26.666797 -0.0047890729  0.001445078 -0.00068775829 
  599000     293.0949    5575.3408    23887.872    26.601964 -0.0052776128 -0.011074273 -0.011658403 
  600000    295.19738    7022.4865    23887.872    26.392466  0.005911758 -0.010584697 -0.0040519972 
  601000    301.50487    4836.4044    23887.872    26.129067 0.00058315704 0.0075162758 0.0014588813 
  602000     296.2777    4884.2841    23887.872    25.333255  0.012992277 -7.1222156e-05 -0.0029779167 
  603000    300.45912    5681.3829    23887.872    24.633243 0.0059716262 -0.010069732 -0.0044762725 
  604000    291.24416    5876.2872    23887.872    24.701606 -0.0060484277 -0.00017199348 0.0057150995 
  605000    297.27959    5154.0034    23887.872    24.921143 0.0068828099  0.011574819 -0.0010322303 
  606000    299.61529    3191.7902    23887.872    25.985338 0.0010676013 0.0062248274 -0.013399303 
  607000    298.15793    5328.5872    23887.872    26.958052 0.00051105888 0.0027995789 0.0024942953 
  608000     293.8744    6524.6393    23887.872    27.061254 -0.011402226 0.0043684725 0.0013753661 
  609000    294.53528    4756.5021    23887.872    26.887576 0.0056387604 0.0013435983 -0.0027865103 
  610000    306.37681    3346.0738    23887.872    27.153261 -0.0037004299  0.014444242 0.0071623275 
  611000    298.41992    6269.5526    23887.872    27.500279 -0.0071349083 -0.010847284 -0.0078096062 
  612000    296.31669    7032.4221    23887.872    27.691997 -0.0059170431 -0.015185965 0.00041644036 
  613000    297.86968    6103.4989    23887.872    27.179278 0.0075412344   0.00947475 0.0039218137 
  614000    299.30066    2426.1308    23887.872    26.073549 0.0043914343 -0.00029093794 -0.0062291276 
  615000    296.07956    4481.2873    23887.872    24.737129 -0.0032326066 -0.00090170276 -0.0039079297 
  616000    293.67739    7963.9738    23887.872    24.481236  0.018906942 -0.0069852069 0.0026714128 
  617000    298.78593    7039.7691    23887.872    25.323618 -0.0075649592 0.0025667908   0.01182745 
  618000    301.27277    3397.8409    23887.872      26.1989 0.0063824082 -0.00082502431 -0.0048173398 
  619000    301.12393    2789.7793    23887.872     26.96949 -0.0089565545 0.0078803324 -0.0077152733 
  620000    288.04433     4763.494    23887.872    26.921895 0.0087147405  0.016168561 -0.0099102029 
  621000    293.79128    6538.9708    23887.872    26.391337 0.0079210304 0.0003541572 0.0012699235 
  622000    297.27081    4843.1093    23887.872     25.68372 -0.0020571088 0.0028061389 0.0096276395 
  623000    294.48856    4173.4915    23887.872    25.561756 0.0073298764  0.014120053 -0.010384407 
  624000    293.85897    3726.9591    23887.872    26.283197 -0.0033324779 0.0043864406 -0.00046021858 
  625000    300.60725    5700.4208    23887.872    26.565192 0.00066995424 0.00051815054 -0.003817807 
  626000    305.72546    7013.0155    23887.872    26.601361 -0.0081547181 -0.0054576484 -0.0013994871 
  627000    296.33892    5354.5572    23887.872    26.065203 0.0046868495 0.0014025549 0.0036345666 
  628000    290.50441     5786.208    23887.872    25.835375 -0.0024714054 -0.00072645333 0.0051580092 
  629000    297.41593    5185.7104    23887.872    26.127652 -0.0068238615  0.013955494 -0.017412225 
  630000    292.60417    4666.9982    23887.872    26.687581 -0.0096162352 -0.0036236726 0.0092233441 
  631000    294.41971    2824.3635    23887.872    27.119679 -0.0038456188 -0.0012103034 -0.011307896 
  632000    295.88038    6832.8226    23887.872      26.9078 -0.0052654152 0.0012038597 0.0035775033 
  633000    298.39453    4709.9132    23887.872    26.831409  0.021794129 -0.0040416097  0.015990843 
  634000    297.77292    6667.5565    23887.872    26.268407   0.00753837 -0.0012241868 0.0066130469 
  635000    297.69673    3856.1705    23887.872    25.959861 0.0019277317 -0.002295327 0.0045973205 
  636000    298.29283    2976.2102    23887.872    26.393908   0.00746682 -0.0050159209 -0.0049176678 
  637000    301.26243    5853.0457    23887.872    26.783354 -0.0066450432 -0.0011221198 0.0049774162 
  638000    296.24779    7367.5151    23887.872    26.949211 0.00036401572 -0.018721221 0.0080928359 
  639000    294.23104    5494.0064    23887.872     26.90776 0.00049076527 -0.0055465917 0.0046666471 
  640000    295.25757    4133.8137    23887.872    26.739057  0.004275968 -0.0050186448  0.012904429 
  641000    298.05287    5668.9772    23887.872    26.461484 0.0027560815 -0.021850648 -0.0043102976 
  642000    294.16678     5696.184    23887.872    26.265772 0.0064675799 -0.0079680092  0.014115092 
  643000    298.72552    5557.1819    23887.872    26.987253 -0.0097620952 0.0044022605 0.0072786852 
  644000    295.03783    5877.6241    23887.872     28.01057 -0.0025763813 -0.010782114 0.00067012962 
  645000    296.75743    6560.6254    23887.872    28.501666 -0.012049661 -0.010584468  0.002222372 
  646000    297.27892    3303.9622    23887.872    28.538629 -0.0094200667 -0.0036195035 0.0045184577 
  647000    295.50814    4071.2954    23887.872    28.145353 -0.0020525814 0.0057405945 -0.0030465086 
  648000    293.50137     7692.491    23887.872    27.488507  0.017979944 0.0039160869 0.0017825286 
  649000    295.87025     5878.375    23887.872     26.86073 0.0069503682  0.010219682 -0.0066046516 
  650000    290.60345    4396.6438    23887.872    26.162483 -0.015360971 0.0061929577 -0.006030688 
  651000    298.29175    3748.0182    23887.872    25.442187 -0.004083562 0.0037865016 0.00074929155 
  652000    296.01616    7935.4388    23887.872     25.17606 -0.0012002333  0.001087222 -0.00074409316 
  653000    292.02345    7514.0505    23887.872    25.591458 -0.013518978  0.016698837 -0.014297796 
  654000    294.08102    4371.3982    23887.872    26.540441 -0.0091817106 -0.00056369872 0.00041977016 
  655000    293.86908    3793.0041    23887.872    27.443153 0.0011238242 -0.0089683953 -0.0026498762 
  656000    300.11107    5406.1501    23887.872    28.024869 -0.00067072044 -0.010701164 -0.0027227068 
  657000    300.15705    4590.6375    23887.872    27.877798 0.0028711913 -0.0035730501 -0.0062940662 
  658000    292.25927    6114.3561    23887.872    27.462075 -0.014383833 -0.011822268 -0.012737905 
  659000    296.63897    5397.8052    23887.872    27.611711 -0.0020140863 0.0035718062 -0.011584853 
  660000    296.14247    4905.8232    23887.872    28.211632 -0.0067966986 -0.00098479685  -0.01082455 
  661000    303.40693    3463.6894    23887.872    28.635329 -0.0069082389 -0.0079323084 -0.0063696609 
  662000    296.35452    6605.0683    23887.872     29.14177 -0.0077113043  0.012694812 0.0038467526 
  663000     297.4666    7551.3389    23887.872    29.384141 0.0066771515 0.0019480248  0.013663038 
  664000    294.98123    5780.2394    23887.872    29.085519 -0.0030595372 -0.0041858465 -0.016643918 
  665000    294.99178    3953.4094    23887.872    28.492439  0.006508111 -0.0046801335 -0.0043516225 
  666000    290.19932    5242.0344    23887.872    27.973782 0.0070134991 0.0054714998 0.0084320247 
  667000    292.23506    7660.8338    23887.872    27.357703 -0.0053981449  0.006797984 0.0062072381 
  668000    295.29589      6882.19    23887.872    26.550619 0.0052113618 -0.0016075829 -0.0087368472 
  669000    293.87147    3423.0166    23887.872     25.58693 -0.0098861543 -0.004557292 -0.0022224146 
  670000    293.16687    3155.1811    23887.872     25.46134 -0.012421298 -0.004339544 0.0053585321 
  671000    300.38236    7114.6217    23887.872     25.47983 0.0040976992 -0.0069887871  0.017153585 
  672000    295.66097     8807.296    23887.872     25.66576 0.00029124021 -0.0071409852  0.014165555 
  673000    299.73076    3445.5499    23887.872    26.050115  0.005794268 -0.0054903012  0.016664121 
  674000    300.17056    3207.7335    23887.872    26.281255 0.0070574601 0.0067734081  0.010603348 
  675000    297.33039    7443.4343    23887.872    26.476463 -0.0019944415 -0.005148871 0.0056638298 
  676000    294.19001    4401.4465    23887.872    27.194449 -0.0029721667 0.0053758713 -0.00043606896 
  677000     296.1396     4005.575    23887.872    27.308774 -0.004956649 -0.011399494 -0.0056399969 
  678000    290.58419    4891.5583    23887.872    26.985778 0.0092041656 0.0049781097  0.001171393 
  679000    299.01834    9009.2925    23887.872    26.412444 -0.00033685791  0.013649453 0.0061450674 
  680000    294.91959    7179.8686    23887.872    25.840905 -0.0068430135 -0.0038328597 -0.001950439 
  681000    295.58548     1323.018    23887.872    25.197988  0.013931662 0.0014351345 0.0029422397 
  682000    297.59625     3596.469    23887.872    24.909686 0.0035109966 0.00096910519 0.0063292784 
  683000    296.16937    7520.8689    23887.872    25.766998 -0.015351775 -0.0036346462  0.015809822 
  684000    299.74773    7772.8781    23887.872    26.469313 -0.015728473 -0.0050630492 0.0058176638 
  685000    291.33205    2767.3791    23887.872    26.573358  0.002549397 0.00058412424  0.010998663 
  686000    293.41298    2191.7468    23887.872    26.654964 -0.003238026 -0.0021731577 0.0051171985 
  687000    289.83271    7826.6122    23887.872     26.77277 -0.0033457759  0.014722332 0.0014026219 
  688000    299.68776    7801.9397    23887.872    26.638019 -0.0087113286 0.0094725528 -0.0049528132 
  689000    294.80638    4142.8988    23887.872    26.021622 0.00049904211 0.0087060519 0.0092167122 
  690000    294.10855    3549.4445    23887.872    26.153706 -0.0062635259 -0.0091529308 -0.011166097 
  691000    290.80158    4449.3387    23887.872    27.076318 -0.0094905357 0.0012963333 -0.010329986 
  692000    300.77643    7384.7533    23887.872    27.575133  0.013309901 0.0014469628 -0.0040158507 
  693000    295.70089    7596.9104    23887.872    27.933388 -0.00053632165  0.010931108 0.00098009546 
  694000    292.87132     3453.249    23887.872    28.563743 0.0041568093 -0.012511763 0.0017811629 
  695000    286.88427     3809.268    23887.872    28.809065 -0.0079684599 0.0065477578  0.012770212 
  696000    300.42469    7566.4586    23887.872    28.651216 0.0017423072  0.016909738 -0.010178884 
  697000    300.63775    6082.4314    23887.872    28.413921  0.015386925  0.014760045 -0.0071183497 
  698000    298.24143    3216.3474    23887.872    28.052751 -0.00058110006  0.010142454 0.0031128037 
  699000    297.79337    5467.8229    23887.872    28.241723 -0.00065550641 -0.0038099453 0.0098589053 
  700000    300.62809    6242.5887    23887.872    29.196444 0.0032902482 -0.0085768546   0.01092086 
  701000    294.33642    5876.1646    23887.872     29.36821 -0.00048050523 0.0071687013 -0.0045008372 
  702000    294.44807     3685.287    23887.872    28.968961 -0.0057713034 0.0028085519  0.012032389 
  703000    292.78307     3073.063    23887.872    29.094144 0.00070938393 -0.0033283445 -0.008942231 
  704000     293.6996    5768.8272    23887.872     28.78527  0.008127365   0.00121718 0.0009080043 
  705000    290.94132    8099.0267    23887.872    28.327461 -0.0051371902 0.0024216438 -0.014702028 
  706000    291.77393    3379.4135    23887.872    27.931338  0.001219574  0.002888901 0.0048974702 
  707000    303.88225    3913.7857    23887.872    27.511075  0.001032716 0.0087301023 -0.0056523645 
  708000    296.25968    6231.9263    23887.872    27.168532 -0.010057942 -0.0042623171 0.0070642756 
  709000    288.96927    5826.9082    23887.872     26.90023 -0.0067211473 0.0084088582 0.0064574674 
  710000    296.35958      1253.08    23887.872    27.051169 -0.0024035657 -0.0039249868   0.00284272 
  711000    296.16096    5863.4087    23887.872    26.998481 -0.0023689657 -0.0046955923 0.0069003091 
  712000    301.70094     8290.228    23887.872    27.050727  -0.00993389 0.0044646563 -0.0085925188 
  713000    293.94274    4024.5418    23887.872    27.889906  0.017954553 -0.0070713073 -0.0066565451 
  714000    295.04262    4128.4892    23887.872    28.476507 0.0052188012 -0.0077570244  -0.00490282 
  715000    294.67369    4850.7609    23887.872    28.912673 0.0080330599 -0.0078809447 -0.012375282 
  716000     294.9922     7924.304    23887.872    28.803112 -0.0038746913 -0.00037967077 0.0090056534 
  717000    291.68897     4404.571    23887.872    28.620231 -0.010288944 -0.016236733 0.00082697488 
  718000    296.59753    5807.5197    23887.872    28.107739 -0.0014010816 -0.0022061338 0.0053705846 
  719000    299.02407    5235.1623    23887.872    27.927806 -0.0032224081 -0.012709777 -0.011508365 
  720000    300.99501    5548.8166    23887.872    28.157283 0.0016814807 0.0076001503 0.0023402688 
  721000    293.69215    6631.2892    23887.872    28.386684 0.0040543587 -0.0012841567  0.005911734 
  722000    308.41079     4250.272    23887.872    28.359743 -0.00086324741 0.0043677118 0.0027894296 
  723000    293.12718    4868.2829    23887.872    28.141392 0.0020129304  0.016408209  0.003509233 
  724000    293.71436    2964.1278    23887.872    28.336687 0.0085953521 0.0061468182 0.0076594809 
  725000    294.56924    5735.1247    23887.872    28.446159  0.010098498 0.0059840649 -0.0022750121 
  726000    292.89812    8933.8736    23887.872    28.334664 0.0014484689 0.0048612759  0.013594109 
  727000    299.75531    3066.0515    23887.872    28.741355 0.0068662465 -0.0058611141  0.017040171 
  728000    302.20401    1094.2274    23887.872      28.8994 0.0057669182 -0.0019668661 0.0044771814 
  729000    293.50488    7856.5613    23887.872    28.736345  0.011468979 0.0069999346 0.0042839722 
  730000    296.79312    6725.6902    23887.872    28.643154 -0.0012495037 -0.0035435643 0.0025975945 
  731000    303.16989     4611.279    23887.872    28.586162 0.0044764229  0.012168263 0.00010453963 
  732000    289.88874    4356.2651    23887.872     28.68056 0.0017611427  0.015048654  0.017264905 
  733000    301.91998    6333.7485    23887.872    29.089711 0.00044290312 -0.017714892  0.006183855 
  734000    298.14793    3335.4339    23887.872    28.823452  0.012448766 -0.0014182369 0.00086892043 
  735000    292.25529    3077.0053    23887.872    28.591165 0.0052913271  0.013894856 -0.0045066048 
  736000    292.09808     7528.745    23887.872    28.438504 0.0061801327 0.0054902631 -0.0042899288 
  737000    291.31687    6831.5027    23887.872    27.745667 0.0027114634 0.0084197633 -0.021831636 
  738000     296.9566    2547.2113    23887.872    27.093172 0.0037737118 -0.026668457 -0.018629512 
  739000    300.09288     4128.577    23887.872    26.777697 0.0039411722 -0.0047022275 -0.0045674596 
  740000     300.4763    7547.8628    23887.872    26.899909 -0.0057126239 -0.0047230889 -0.0028540216 
  741000    292.76805      5057.63    23887.872    27.226991 0.0023639678 -0.0042708356 0.0016652567 
  742000    301.70483    4708.7132    23887.872    26.940618 0.0013049043  -0.00103415 -0.0048716467 
  743000    293.59029    4837.4566    23887.872    26.620375 0.0053621177 0.0097970125 0.0055597845 
  744000    291.55298    6364.0839    23887.872    26.896056 -0.0017491011 -0.0030344064  0.003004669 
  745000    299.05441    3814.7308    23887.872    27.695672 -0.00094862496 -0.0059877616 0.0027533141 
  746000    294.39177       5032.3    23887.872    28.220215  0.020109639 -0.014482325  0.010225743 
  747000    300.64618    6417.9842    23887.872    28.546141 0.0051616018  0.012432807 -0.010502012 
  748000    295.66819    6455.9325    23887.872    28.641277 0.0036724518 0.0029667375 -0.0016160599 
  749000    300.72869     3434.713    23887.872    28.350208 -0.0096081047 0.0024807654 -0.0010275818 
  750000    291.00525    4688.8145    23887.872    28.312892 -0.0041546931 0.0076385798 -0.0017187938 
  751000    302.75086    7618.6157    23887.872    28.569664 0.00013690266  0.013090277 0.0013146124 
  752000    294.08624    4843.7172    23887.872    29.390745 -0.0055110998 0.00051650513 0.0084605904 
  753000    297.61269    3272.7254    23887.872    29.675313  0.011482077 0.0051192703 0.0021236902 
  754000    295.67521    4998.2751    23887.872    29.273642 0.0053370829 0.0063059567 -0.008073879 
  755000     297.1359      6843.45    23887.872    28.478742 -0.0090438636   0.00601882 -0.024537829 
  756000    303.10698    6604.7597    23887.872    27.844183 -0.015838914 0.00034178369 -0.013282466 
  757000    297.64424    4220.8628    23887.872    27.992666 -0.014889702 -0.011003781 -0.00093730043 
  758000    296.82059    3528.5438    23887.872    29.491105 -0.0067764548 0.0016658888  0.012812645 
  759000    291.01787    4834.9449    23887.872     30.44222 -0.0015269612  0.011693366 -0.0054027365 
  760000    302.62582    7148.7538    23887.872    30.485044 -0.0072850184 0.0051667475 0.0011522861 
  761000    297.42135    4517.7469    23887.872    30.419244 0.0038020876  0.005585752 -0.011786409 
  762000    294.88639    3447.4324    23887.872    30.768173 -0.0032461609 -0.0060723528 -0.0051664189 
  763000    296.26941    7387.4386    23887.872    31.332369 -0.0041146916 -0.0087735501 0.0037409851 
  764000    294.03966    6120.9681    23887.872    31.043554 0.0039068016 0.0043183037 0.0062119057 
  765000    304.24089    3257.9516    23887.872       29.903  0.015812171  0.001456631 -0.0061215609 
  766000    295.30559    4861.8759    23887.872    28.255673 0.0084599604 -0.00065535427  0.015940801 
  767000    301.12293    4324.1555    23887.872    27.133827 0.00093916708 -0.0033343819 -0.0035952202 
  768000    296.96728    7194.8048    23887.872    26.628142 0.0039692278 0.00037718388 -0.00032739592 
  769000    286.96456    5220.2539    23887.872    26.730102  0.014245217 0.0041031511 -0.0012514454 
  770000    286.35951    1701.9009    23887.872    27.072483 0.00015705631  0.010116124 0.00056400554 
  771000    295.55858    4952.8764    23887.872    27.567082 -0.0078202946 0.0069036139 0.0011932855 
  772000    293.11084    7305.2313    23887.872     27.76334 0.0090094076 0.00096774367 0.00068543262 
  773000    293.23838    6966.1727    23887.872    27.745645  0.012795574 -0.0036998529 0.0062171238 
  774000    303.63894    5101.0221    23887.872    27.852501 -0.012954689  0.011346298  0.012704853 
  775000    294.56833    3631.3575    23887.872    27.987325 -0.0063429506 -0.0018500704 0.0045506265 
  776000      297.879    5841.2058    23887.872    28.051055  0.001543385 -0.0053832067 -0.019586449 
  777000    298.29339    6145.7604    23887.872    27.947155 0.0048705825 0.0037626117 0.0065360645 
  778000    298.63393    5099.6099    23887.872    28.204307 -0.0014144947 0.0074067144 -0.0022821014 
  779000    299.37474    4658.1367    23887.872    28.439029 0.00054019047 -0.00029538529 -0.0018041341 
  780000    292.73101    4788.4879    23887.872    28.856866 0.00024698745 0.0063549989 0.0034008604 
  781000    298.39306    4997.8412    23887.872    28.958666 -0.0047646231 0.00070083935 0.0092365348 
  782000    297.56991    6963.3662    23887.872    29.157408 0.0083932905 -0.0019215135 -0.004377701 
  783000    293.11152    6594.8978    23887.872    28.983069 0.0058119677 -0.0075299289 -0.0074610995 
  784000    296.97065    2978.9267    23887.872    28.884954 -0.0017071763  -0.01023103 -0.0058994892 
  785000    300.96116    6103.7894    23887.872    28.363117 -0.00043991141  0.017634102 -0.0070196993 
  786000    300.14352    5012.7259    23887.872    27.672154 0.0079618502  0.017900653  0.014439331 
  787000    297.31954    5520.5959    23887.872    27.327134 -0.0045378686 0.0019365644   0.01388791 
  788000     297.1553    5718.7295    23887.872    27.684956 -0.0050324631   0.01716372 0.0043648007 
  789000    298.02808    4501.5952    23887.872    28.734558 0.0039946195  0.010197258 0.0091846013 
  790000    296.89248    6443.1364    23887.872    29.372071 -0.012760222 -0.010335689  0.010993842 
  791000    295.32752    3051.8654    23887.872    29.063176   0.00341463 0.0018571856 -0.0086543306 
  792000    292.80927    6220.5647    23887.872    28.546547 -0.0076867453 0.0038799171  0.017866072 
  793000      289.705    6984.2682    23887.872    27.850637 -0.011595972 -0.012182534 -0.010886803 
  794000    292.37153    4698.1168    23887.872    27.132727 -0.0019584931 -0.013328333 0.00046979437 
  795000    292.91489    5040.3766    23887.872    26.439157  0.013084929 -0.010840917 0.0023730138 
  796000    300.39897    4664.8668    23887.872    26.495612 -0.011412038  0.015918996 -0.0097628235 
  797000    299.60839    6957.9882    23887.872    27.042574 0.0054593047 -0.0044824479 -0.0046102424 
  798000      292.979    4525.8415    23887.872     27.24313  0.018675216 -0.005643645 0.0023024599 
  799000    296.93448    1127.2458    23887.872    27.489432 -0.00027623785 -0.0060700044 0.00042141475 
  800000    290.36223    7413.2007    23887.872    27.823264 -0.0026784821 0.0075572354 0.0050578051 
  801000    295.34281    6901.5291    23887.872     27.41185 0.0015044469 -0.0041495329  0.015388904 
  802000    295.69794     3439.869    23887.872    26.986476 -0.013724366 -0.0018470045   0.01214228 
  803000    294.57539      6236.58    23887.872    26.513581  0.011368323 0.0063452112 0.0056901979 
  804000    294.33625    7906.8517    23887.872    25.866671 0.0037219221 -0.0086460559 -0.0046565838 
  805000    296.02589    2968.2047    23887.872    25.098017 -0.0091610995  0.010983823 0.0035293872 
  806000    287.40139    2523.3687    23887.872    24.789267 0.00041113818 0.0031644067  0.011999354 
  807000    298.82513    7890.6934    23887.872    24.381242 -0.0069344325 0.0080789968 -1.4324816e-05 
  808000    297.66297    6242.2105    23887.872    23.992609 -0.0022108214 0.0018534709 0.0042061596 
  809000    292.63943    7487.3932    23887.872    23.915443 -0.0099798509 0.0019200475 -0.0066871429 
  810000    300.97234      5503.03    23887.872    24.389622 0.0085734704 0.00075772149 -0.0030260438 
  811000     298.1401    3800.8676    23887.872    24.966018 -0.0043102454 0.0091887801 0.0038615381 
  812000     301.2342    6706.7999    23887.872    25.559891 0.0068886008  0.006566269  0.017001701 
  813000    291.88879    6116.3386    23887.872    26.487526 -0.0035331801 -0.0027733091 -0.0074745307 
  814000    292.35665    4262.7483    23887.872    27.078686 0.0064754433 -0.0090565221 -0.012947906 
  815000    291.17555    3479.3319    23887.872    26.787874 0.0097961658 -0.0043825305  0.009572959 
  816000     291.5057    5395.9952    23887.872    25.684878 0.0015732256 0.0040449891 0.0096147847 
  817000    291.64586    5865.7873    23887.872     24.75624 0.00037977143 0.0066608509 0.0050123922 
  818000    297.17811    2627.2932    23887.872    24.154233 0.0070130337 0.0004615543 -0.00038597884 
  819000     296.0888    4501.3594    23887.872    24.054023  0.014286908 -0.0045413593 0.0075165098 
  820000    301.53872    7987.9581    23887.872    24.166533 -0.0039272701 -0.003088862 0.0035373975 
  821000    301.72697    3712.3155    23887.872    24.825019  0.013296937 0.0099310472  -0.00777573 
  822000    295.33827    3960.3853    23887.872    25.944494 0.0017522087 0.0061503145 0.0045751231 
  823000    298.97402    5861.3751    23887.872    26.760413  0.010073526 -0.0043848941 0.0027525869 
  824000    299.29759     3788.547    23887.872    27.131478 -0.00065888325 0.0056410102  0.015365611 
  825000      295.009    5870.1965    23887.872    26.106772 0.0010454993 0.0085897966 -0.018375733 
  826000    298.21222    4162.6181    23887.872    25.650662 -0.005682295 0.0032470806 -0.0026964385 
  827000    302.88671    3800.4899    23887.872    25.396492 0.0050586702 0.0025742646 -0.0016003223 
  828000    295.25463    6092.4399    23887.872    25.856124 -0.0057065287 -0.012004951 -0.014419678 
  829000     290.0187    8401.1128    23887.872    26.724452 -0.0027975956 -0.016152844 -0.0040329373 
  830000    298.10991    2390.7888    23887.872    27.209415 -0.0028388375 -0.009445437  0.014009257 
  831000    302.79156    2078.8675    23887.872    27.041518 0.0085323908 -0.0080372115 0.0091173972 
  832000    288.97369    7982.3707    23887.872    26.865827 -0.0059408348 -0.0037524755 -0.0052953967 
  833000    296.91245    7447.0728    23887.872    26.583971 -0.0065151711 0.0020609216 -0.0019749924 
  834000    294.88713    3334.4975    23887.872    25.964143  0.006485524 0.0030871612 -0.0047324853 
  835000    296.28709    2510.2897    23887.872    25.159162 0.00090487192  0.001889547 -0.0099197031 
  836000    299.35164    4703.3885    23887.872    24.885969 -0.0017717914 0.0075756378 0.0076174326 
  837000    299.39991    5816.5578    23887.872     25.17786 0.0042536384 -0.010899958 0.0030150184 
  838000    293.02202     4153.148    23887.872    25.012632 -0.011918228 0.00018198453  0.012805315 
  839000    296.56056    5285.1062    23887.872    25.455997 -0.0073502369 -0.0041151851 -0.0038477848 
  840000    294.53044    7189.3456    23887.872     25.73776 0.0025016095 0.0021984763 -0.00099890407 
  841000    292.84541    6203.6781    23887.872    25.538593 -0.0048220303 0.0071819989  0.016725056 
  842000    299.48963    3928.0874    23887.872    25.722874 -0.0067395754 -0.0046812382 0.0019169508 
  843000    299.10664    4377.6431    23887.872    26.151491 0.0028715958 -0.0051764613 0.0025666108 
  844000    293.54456    4211.6882    23887.872    26.499065 0.0049627253 -0.0038049511 0.0073018967 
  845000    293.27377    5586.0426    23887.872    26.831558 -0.0081110646 -0.0050931239 -0.0036587385 
  846000    302.16378    8517.7054    23887.872    26.921052 0.0039235327 -0.014725632 -0.006379748 
  847000    288.83666    2363.4797    23887.872    27.342452  0.012397217 0.0019943347 -0.00077902981 
  848000    296.79996    6210.4063    23887.872    27.311938 -0.022286689 -0.0028938436 -0.00072072525 
  849000    292.16669    6282.1718    23887.872    27.140255 0.0040616297 -0.006283866  0.012234708 
  850000    293.08524    5334.9156    23887.872    27.104781 0.0012588957 0.0023556323 -0.0010320266 
  851000    294.23523    4560.3902    23887.872    27.420184 0.0071615354 -0.0083221231 -0.00078580225 
  852000    294.03307    4905.8742    23887.872    27.560895 0.0012049861 -0.0063529461 0.0094049508 
  853000    297.14912    6265.2895    23887.872    27.412141 0.0040216736 -0.0048215312 -0.0047822676 
  854000    299.62376    6067.5474    23887.872    26.432914  0.012914572 -0.0039815176  0.018876856 
  855000    292.70595    5206.7992    23887.872    25.188327 -0.0017037322 0.0064078725 -0.010506291 
  856000    295.60392    6163.6778    23887.872    24.574457 0.0097846232 -0.0047730739 -0.0026677221 
  857000    301.99935    4180.1656    23887.872    24.284769 -0.0040826792 0.0025618685 -0.0043032648 
  858000    298.48932    2696.8458    23887.872    24.242687 0.0075207376 -0.013563565 0.0097798419 
  859000    298.34437    6562.2564    23887.872    23.953412 -0.0077431522 -0.0058241786 -0.0074238655 
  860000    296.96393    5906.1485    23887.872    23.805409 -0.0068453482  -0.01177064 -0.0043137738 
  861000    289.58434    5248.6465    23887.872    23.605654 -0.008316439 -0.0040190512 -0.0026719588 
  862000     290.5704    3159.1715    23887.872    23.793287 -0.010687454 0.0017760408 -0.0014279152 
  863000    295.47805    6369.7479    23887.872    24.413875 -0.011162334 -0.0031380489 0.0046532495 
  864000    292.70923    6338.1966    23887.872    24.542037 0.0068139387 0.0015973942 -0.0063076879 
  865000    292.72653     4303.293    23887.872    24.811623 -0.013018775 -0.008723848 0.0071262101 
  866000    294.07372    3767.1444    23887.872    25.206846 -0.0025108873  0.010917189 -0.0036168395 
  867000    299.01169    7783.4397    23887.872    25.470358 0.0081275383 0.0054442221 0.0046253103 
  868000    298.71635    7139.6041    23887.872    25.923517 -0.0071037814 -0.0043453811 -0.0079521973 
  869000    296.05163    2139.8934    23887.872    26.062889  0.006667518 0.0046999087 0.0036211953 
  870000    298.12514    5070.2158    23887.872    25.831424 -0.005307916 0.0031659903 -0.0025601196 
  871000    295.84987    5487.1368    23887.872    25.133404 -0.0094900323 -0.010704364   0.01029068 
  872000    295.80513    5770.2232    23887.872    25.027415 -0.0081718875 -0.00040961771 0.0048694021 
  873000    296.88236    5415.2558    23887.872    25.682095 -0.0040960734 0.0058657026 -0.0069239013 
  874000    292.97425    5492.6366    23887.872     26.53595 -0.00035502704 -0.0098793207 0.0057881265 
  875000    295.83475    4831.4019    23887.872    27.513639 -0.0063781949 -0.00073768969 -0.021539565 
  876000    304.04605    4537.7828    23887.872    28.309313 0.00075711116 0.0038685013 0.0063735716 
  877000    298.61019    6610.3257    23887.872    28.809441  0.004015898  0.015910827 -0.0030502434 
  878000    297.82173    3548.4483    23887.872    28.843227 -0.0035257092 0.0075453471 -0.0098814446 
  879000    296.06672    3810.8475    23887.872    28.446998   0.01472723 -0.0033348906 -0.001258438 
  880000    297.08195    6483.1227    23887.872    28.117037 -0.0053326443 0.0053507595 0.0074308461 
  881000    303.07633    7009.9103    23887.872    27.649217 -0.0026592883 -0.001035149 0.00087415388 
  882000    295.73557    1569.9032    23887.872    27.054476  0.015342538 -0.0047450771 -0.0046690968 
  883000    298.31939    2385.4557    23887.872    27.002253  0.018966532 -0.010302825 -0.0096496571 
  884000    296.72427    6894.3448    23887.872    27.395028 -0.00087228549 -0.0038522578 -0.0040361574 
  885000    298.82837    7238.9714    23887.872    27.977903 -0.0078939112  0.011390838 -0.0026781356 
  886000    299.52863    5353.4445    23887.872    28.716738 0.0034418958  0.012202851 -0.00051776814 
  887000     291.9723    2883.8103    23887.872    28.976509  0.012903636 0.0098749212 -0.0033838738 
  888000    293.91967    5411.8307    23887.872    29.010152 -0.0076094485 -0.0076897243 0.0069942502 
  889000    296.44487    8946.3835    23887.872    29.082291 0.0028443105 -0.013222165 -0.013578192 
  890000    293.09935    2047.7962    23887.872    28.730225 -0.0069762814 -0.012152329 -0.0081085352 
  891000    300.28709    2829.9303    23887.872    28.097412 0.0091415399 0.0028299592 -0.0085521762 
  892000    296.77963    7801.0077    23887.872    27.906788  0.018922174  0.013102393 -0.0013493218 
  893000    292.24469    5223.0214    23887.872    28.037512 0.0057860731 -0.0093212523 -0.0063523195 
  894000    296.00956    4217.0573    23887.872     27.57791 -0.00022359713 -0.0081562928 0.0043586944 
  895000    294.37941    4508.4885    23887.872    27.107253 -0.00098796596  0.015458695 0.0021851589 
  896000    301.93194      5163.41    23887.872    26.673261 0.0017083457 0.0013216437 -0.018039018 
  897000    296.06133    3307.3143    23887.872    26.740112 0.0030813677  0.013823062 -0.0021317722 
  898000    291.56465    6807.4759    23887.872    26.907366 -0.0091435964 0.00083128846 0.0085542938 
  899000     300.4141    5701.6881    23887.872    27.401644 -0.0011491822 0.0079689415 0.0021447709 
  900000    295.46892    3303.2224    23887.872    27.838292 -0.00014924108  0.010742341 0.0094923216 
  901000    296.14827    4866.2772    23887.872    28.466691 0.00030443936 0.0092517308 0.0061712322 
  902000    304.82821    6004.9724    23887.872    29.290151 0.00050692848  0.012992578 -0.012068856 
  903000    294.82361    5781.3644    23887.872    29.648403  0.012229016 -0.0075384787 -0.00034467093 
  904000    306.80313      3320.21    23887.872    29.362347 0.0068499793 0.0061495977 0.0035769861 
  905000    299.64572    5457.2054    23887.872    29.062082 0.0072485879 -0.0072634586 0.0043734224 
  906000    296.61189    6145.3899    23887.872    28.967101 -0.0016572216 -0.012505273 0.0032965483 
  907000    291.85581    5052.7711    23887.872    29.139051  0.005698283 -0.00039112429   -0.0092636 
  908000    292.22673    4605.4111    23887.872      28.9378 0.0036794657   0.01175628 0.00046956935 
  909000    300.55002     4584.708    23887.872    28.502045 -0.011283566 0.0081875502 -2.7379246e-05 
  910000     295.0306      8912.13    23887.872    27.736139 -0.0051824777 -0.0031292042 3.0527186e-06 
  911000    297.83492     5426.506    23887.872    26.915987 -0.0085539318 -0.010886822  0.014219581 
  912000    295.88284    2451.3315    23887.872    25.693953 -0.0020613234 -0.0070872875  0.016514268 
  913000    291.93716    5146.9219    23887.872    24.988471 -0.0017521517 -0.010709426 0.0057072337 
  914000    299.03592    5626.4706    23887.872    25.002844 -0.0097249406 -0.0036045597 -0.0066077318 
  915000    297.12739    3769.4436    23887.872    25.992359 -0.0091864922 -0.00015923934 -0.013283039 
  916000    294.00581    4231.9564    23887.872    26.469383 -0.020705246 -0.012878967 0.0070059184 
  917000     296.9956    6309.8679    23887.872    26.180814 0.0027432937 0.0065298435 -3.9683983e-05 
  918000    295.05079    6295.6579    23887.872    26.180611 0.0043263331  0.013615982 -0.0032363766 
  919000    290.90745    6314.3022    23887.872    26.625983  0.009394524 -0.012267012 0.0013948763 
  920000    291.72427    4789.6365    23887.872    27.373554  0.005739722 -0.0086939454 -0.0022121224 
  921000    288.72237    5567.7458    23887.872    28.179765 0.0023283217 0.0043139672 0.0097515594 
  922000    293.96802     4603.913    23887.872    28.275603 -0.0044400012 -0.0037357495 -0.0034687023 
  923000    291.29339    5601.7356    23887.872    28.379471 0.0022738657 -0.006537236 0.0032382977 
  924000    288.76432    4313.7388    23887.872    28.128715  0.010286929 0.0048860914 0.0060140523 
  925000    298.19502    5561.0868    23887.872    28.052693 -0.0055050336 0.0026569577 0.0026350663 
  926000    299.95196    5719.5432    23887.872    28.070245 0.00053241002 -0.017665395 -0.002470092 
  927000    295.92885    4327.3901    23887.872    27.884306 -0.010159116 -0.011868618 -0.0093195015 
  928000    297.43371     5262.583    23887.872    27.777399 0.0052031939 -0.013787362 -0.0092755262 
  929000    296.66548    6199.6666    23887.872    27.972634 -0.0051027078 -0.0088542509 -0.0096000956 
  930000    291.22377    4652.5828    23887.872    28.719195 0.0077402599 0.0075042875  0.006633516 
  931000    293.59626    4240.3729    23887.872    29.514035 -0.0088110883  0.007825879 -0.0068258959 
  932000    296.72234    4454.7989    23887.872    29.751033 0.0014518196 -0.011269033 0.0035742063 
  933000    299.05439    8019.7888    23887.872     29.47479 -0.017981281  0.002173112 -0.00017399006 
  934000    292.12252     4927.343    23887.872    28.945692  -0.02335949 0.0082350322 0.0055838775 
  935000    297.47764    3256.9385    23887.872      28.4631 -0.0021826099 0.0017864651 -0.0016070066 
  936000    294.73249    5482.3326    23887.872    27.985521 0.0089317943 0.0031617631  0.021846228 
  937000    296.17574    5084.3959    23887.872    28.118811 -0.0032699259 0.0016381474 0.0023420569 
  938000    303.23394    5444.2703    23887.872    28.458217 0.0033523723 0.0039374057 -0.0047879706 
  939000    292.49288    4779.1703    23887.872    28.577411 0.0018992969 -0.015340968 -0.019820076 
  940000     304.9238     5049.621    23887.872    28.411282  0.001730288 -0.002383529 -0.0024681263 
  941000    302.42258    3942.5532    23887.872     28.32501 0.0056080146 0.0060581885  0.003686368 
  942000    297.50263    6738.7474    23887.872    28.905087 -0.015650713 0.0053521318 -0.005951795 
  943000    299.24573    3362.8205    23887.872    29.999931 -0.0005561576 -0.0071340708 0.0028569769 
  944000    291.86068    3095.7976    23887.872    30.486128 -0.0026690156 0.0018902742 0.0088756095 
  945000    295.41097    6136.9833    23887.872    30.327276 0.0025060045 -0.0014302921 0.0083836415 
  946000    295.21698    4535.4604    23887.872    29.614709 0.0070949343 -0.005046727  0.016577755 
  947000    297.10875    6067.6529    23887.872    28.953861 0.0032163098 -0.014866915  0.014134753 
  948000    297.30881    4076.1596    23887.872    28.407644 -0.0077763504 0.0088244002 -0.019927192 
  949000    298.72465    4849.8807    23887.872    28.228138 -0.00056665677 -0.0034553453 0.00034836346 
  950000    298.64127    3992.9447    23887.872     27.73732 0.0034915337 0.00034537363 -0.010083917 
  951000    289.47573    3445.7611    23887.872    27.227688 -0.008603225 -0.0065060127 0.0010016238 
  952000     290.7309     6864.066    23887.872    27.593406 -0.0098101521 0.0014662326 -0.00094963628 
  953000    289.81405    8852.8333    23887.872    27.593685 -0.0014134951  0.010328278 -0.011331274 
  954000    295.04021    3779.7545    23887.872    27.163427 -0.0070416909 0.0036929338 -0.0084559327 
  955000    292.70743    3035.8717    23887.872    27.192978 0.0087662973 -0.020206821  0.010486041 
  956000    286.94167    5903.2952    23887.872    27.035944 -0.0065887797 -0.0004845632  0.004358755 
  957000    298.01878    6247.4556    23887.872    26.596195 0.0027490706 -0.010590494 0.0097131101 
  958000    298.28281    3038.9657    23887.872    26.008106 -0.0018637264 -0.0057899305 0.0052603946 
  959000    294.77854     5389.591    23887.872    25.120774 -0.0088336887 -0.0040562423  0.014339309 
  960000     294.0911    4516.0377    23887.872     24.27815  0.003081426 -0.013983255 0.0046758098 
  961000    293.01701    4264.0487    23887.872    24.171442 0.0014296387 -0.0021342671  0.015346494 
  962000    299.63712    8133.8863    23887.872    24.474795  0.011595206 -7.4481065e-05 -0.0029363516 
  963000    296.95195    4014.8627    23887.872    24.583657 -0.0007487124  0.015206932 -0.005281302 
  964000    294.13939    2766.4559    23887.872    25.166592  0.011349456 -0.00091002216 0.0060603511 
  965000    300.38075    4361.8315    23887.872    25.772556 -0.0054647439 -0.011335935 0.0046046854 
  966000    291.52615    5373.7518    23887.872    25.506074 -0.0095151165 -0.010599697 0.00035419157 
  967000    291.81865    3795.6295    23887.872    24.483995 -0.0051666346 -0.0057307384 0.0056387307 
  968000     294.2924    3335.8946    23887.872    23.461001 -0.0033085598 -0.0051639818 0.00011840047 
  969000    291.47594    6099.0208    23887.872    22.733543 -0.0021662913 -0.0013350303 0.0011007293 
  970000    296.37267    6036.1144    23887.872    22.586163 -0.0042632091 0.0011977289 -0.00013958663 
  971000    296.17453    4450.3109    23887.872    23.367314 -0.00023037424 0.0013772534 -0.0049924007 
  972000    298.26062    5726.8968    23887.872     24.97732 -0.0045983232 0.0014133406 0.0068487696 
  973000    296.31085    4800.7255    23887.872    25.874629 0.0027512169 6.3445469e-05 -0.0017302962 
  974000    299.54253    4149.9193    23887.872    25.629141 -0.0091870519 0.0038213697  0.011605701 
  975000    297.60827    6049.7867    23887.872    25.328472 -0.00066666358 0.0021116255  0.006115723 
  976000    290.88545    3874.8846    23887.872    25.060244  0.012067978 0.0047041254  0.002562893 
  977000    296.58417     5977.906    23887.872    25.407186 -0.0004133528 -0.0010409747 -0.0047422263 
  978000    296.83752    4412.0732    23887.872      26.2491 -0.0033011666 0.0092832562 0.0015144321 
  979000    299.91128     5854.562    23887.872    27.208672 0.0029539683  0.010883154 0.0047543997 
  980000    293.39131    6127.0365    23887.872    27.691695 -0.0044441567 0.0061206275 -0.0071634513 
  981000    296.39476    3570.8353    23887.872    28.205427 -0.00085524661   0.01019279 -0.0070272451 
  982000    299.21265    4970.0319    23887.872    28.028998 -0.0096903789  0.010822195 0.00084737201 
  983000    299.02345    6530.5475    23887.872    27.101101  0.010807833 -0.0015508642 -0.0047565328 
  984000    294.97401     4577.135    23887.872    26.279388 0.0070182263 -0.0019661326 -0.019526312 
  985000    296.30212      5537.84    23887.872    25.376624 0.0021685373 -0.0001172339 -0.0013364581 
  986000    305.33905    2898.8958    23887.872    24.436155  0.007920416 0.0068329875 -0.0023446823 
  987000    296.78097    3296.9609    23887.872    23.656123 0.0033546792 0.0029610851 -0.0088076258 
  988000    295.31695    6124.8501    23887.872    22.870733 -0.00032873729 0.0031186796 -0.011212339 
  989000    302.24632    5793.9449    23887.872    22.667779 0.0075372607  0.009106332 0.0034880795 
  990000    288.96795    4792.0917    23887.872    23.624195 0.0067530378 0.0036707703 -0.0088030016 
  991000    296.41839    2703.2308    23887.872    24.547401 0.0019014958  0.011208777 -0.013970771 
  992000    294.42387    5718.7864    23887.872    24.914731 0.0093833394 -0.0018535064 -0.011607728 
  993000     294.4233    5542.2203    23887.872    25.044105 -0.00027353365 0.0035969373  0.010194433 
  994000    291.17078    3642.2924    23887.872    25.298595 0.0089842517 -0.0021800055 0.0053707156 
  995000     298.5803    5719.6166    23887.872    25.437477  0.004254771 -8.1603285e-05 -0.0073028867 
  996000    293.39865    5438.8537    23887.872    25.457975 0.0094826619 -0.0032256922 0.0010433889 
  997000    301.97475    3896.0296    23887.872    25.201854 0.0074198636 0.0011300073 -0.0024071875 
  998000    297.42086    3590.8943    23887.872    24.968204 -0.003960312 -0.0043571372 0.0008678212 
  999000     296.6066    6133.7744    23887.872    24.798777 -0.0014186014 -0.013894475 -0.015670703 
 1000000    289.74705    6590.7046    23887.872    24.620884 -0.0023744136  0.002760808 -0.0041025419 
Loop time of 21438.4 on 16 procs for 1000000 steps with 1920 atoms

Pair  time (%) = 19109.7 (89.1378)
Bond  time (%) = 0.48062 (0.00224187)
Neigh time (%) = 39.48 (0.184156)
Comm  time (%) = 1839.17 (8.57886)
Outpt time (%) = 2.63915 (0.0123104)
Other time (%) = 446.907 (2.08461)

Nlocal:    120 ave 125 max 114 min
Histogram: 3 0 0 2 1 3 1 2 1 3
Nghost:    4969.75 ave 5008 max 4941 min
Histogram: 2 2 1 3 1 3 1 2 0 1
Neighs:    52874.5 ave 54937 max 50184 min
Histogram: 2 1 0 1 1 3 2 2 0 4
FullNghs: 105749 ave 109828 max 100236 min
Histogram: 2 1 0 1 2 2 2 2 1 3

Total # of neighbors = 1691984
Ave neighs/atom = 881.242
Ave special neighs/atom = 0
Neighbor list builds = 4628
Dangerous builds = 0
#	run			10000
	unfix			1
	uncompute		myKE
	uncompute		myPE
	uncompute		myStress
	uncompute		flux
	uncompute		myDis
	unfix			JJ

	next seed
	next iseed
jump lmp.in.gk loop_seed
variable iseed loop 10
variable seed index 11111 22222 33333 44444 55555 66666 77777 88888 99999 11110
clear
###########################################################################
#x0
###########################################################################
units 			metal
atom_style		full
read_data		fort.26
  0 = max bonds/atom
  0 = max angles/atom
  0 = max dihedrals/atom
  triclinic box = (0 0 0) to (28.8 28.8 28.8) with tilt (0 0 0)
  2 by 2 by 4 processor grid
  1920 atoms
  0 bonds
  0 angles
  0 dihedrals
  0 = max # of 1-2 neighbors
  0 = max # of 1-3 neighbors
  0 = max # of 1-4 neighbors
  1 = max # of special neighbors
group         		C type = 1
60 atoms in group C
###########################################################################
#OLPS
###########################################################################

################################################################################
#### Pair potentials
################################################################################
pair_style hybrid/overlay tersoff lj/cut 12.0
pair_coeff * * tersoff C.temp.tersoff 1 2 3 4 5 6 7 8 9 10 11 12 13 14 15 16 17 18 19 20 21 22 23 24 25 26 27 28 29 30 31 32
pair_coeff 1 2 lj/cut 0.00070000000 3.5500000000
pair_coeff 1 3 lj/cut 0.00070000000 3.5500000000
pair_coeff 1 4 lj/cut 0.00070000000 3.5500000000
pair_coeff 1 5 lj/cut 0.00070000000 3.5500000000
pair_coeff 1 6 lj/cut 0.00070000000 3.5500000000
pair_coeff 1 7 lj/cut 0.00070000000 3.5500000000
pair_coeff 1 8 lj/cut 0.00070000000 3.5500000000
pair_coeff 1 9 lj/cut 0.00070000000 3.5500000000
pair_coeff 1 10 lj/cut 0.00070000000 3.5500000000
pair_coeff 1 11 lj/cut 0.00070000000 3.5500000000
pair_coeff 1 12 lj/cut 0.00070000000 3.5500000000
pair_coeff 1 13 lj/cut 0.00070000000 3.5500000000
pair_coeff 1 14 lj/cut 0.00070000000 3.5500000000
pair_coeff 1 15 lj/cut 0.00070000000 3.5500000000
pair_coeff 1 16 lj/cut 0.00070000000 3.5500000000
pair_coeff 1 17 lj/cut 0.00070000000 3.5500000000
pair_coeff 1 18 lj/cut 0.00070000000 3.5500000000
pair_coeff 1 19 lj/cut 0.00070000000 3.5500000000
pair_coeff 1 20 lj/cut 0.00070000000 3.5500000000
pair_coeff 1 21 lj/cut 0.00070000000 3.5500000000
pair_coeff 1 22 lj/cut 0.00070000000 3.5500000000
pair_coeff 1 23 lj/cut 0.00070000000 3.5500000000
pair_coeff 1 24 lj/cut 0.00070000000 3.5500000000
pair_coeff 1 25 lj/cut 0.00070000000 3.5500000000
pair_coeff 1 26 lj/cut 0.00070000000 3.5500000000
pair_coeff 1 27 lj/cut 0.00070000000 3.5500000000
pair_coeff 1 28 lj/cut 0.00070000000 3.5500000000
pair_coeff 1 29 lj/cut 0.00070000000 3.5500000000
pair_coeff 1 30 lj/cut 0.00070000000 3.5500000000
pair_coeff 1 31 lj/cut 0.00070000000 3.5500000000
pair_coeff 1 32 lj/cut 0.00070000000 3.5500000000

pair_coeff 2 3 lj/cut 0.00070000000 3.5500000000
pair_coeff 2 4 lj/cut 0.00070000000 3.5500000000
pair_coeff 2 5 lj/cut 0.00070000000 3.5500000000
pair_coeff 2 6 lj/cut 0.00070000000 3.5500000000
pair_coeff 2 7 lj/cut 0.00070000000 3.5500000000
pair_coeff 2 8 lj/cut 0.00070000000 3.5500000000
pair_coeff 2 9 lj/cut 0.00070000000 3.5500000000
pair_coeff 2 10 lj/cut 0.00070000000 3.5500000000
pair_coeff 2 11 lj/cut 0.00070000000 3.5500000000
pair_coeff 2 12 lj/cut 0.00070000000 3.5500000000
pair_coeff 2 13 lj/cut 0.00070000000 3.5500000000
pair_coeff 2 14 lj/cut 0.00070000000 3.5500000000
pair_coeff 2 15 lj/cut 0.00070000000 3.5500000000
pair_coeff 2 16 lj/cut 0.00070000000 3.5500000000
pair_coeff 2 17 lj/cut 0.00070000000 3.5500000000
pair_coeff 2 18 lj/cut 0.00070000000 3.5500000000
pair_coeff 2 19 lj/cut 0.00070000000 3.5500000000
pair_coeff 2 20 lj/cut 0.00070000000 3.5500000000
pair_coeff 2 21 lj/cut 0.00070000000 3.5500000000
pair_coeff 2 22 lj/cut 0.00070000000 3.5500000000
pair_coeff 2 23 lj/cut 0.00070000000 3.5500000000
pair_coeff 2 24 lj/cut 0.00070000000 3.5500000000
pair_coeff 2 25 lj/cut 0.00070000000 3.5500000000
pair_coeff 2 26 lj/cut 0.00070000000 3.5500000000
pair_coeff 2 27 lj/cut 0.00070000000 3.5500000000
pair_coeff 2 28 lj/cut 0.00070000000 3.5500000000
pair_coeff 2 29 lj/cut 0.00070000000 3.5500000000
pair_coeff 2 30 lj/cut 0.00070000000 3.5500000000
pair_coeff 2 31 lj/cut 0.00070000000 3.5500000000
pair_coeff 2 32 lj/cut 0.00070000000 3.5500000000

pair_coeff 3 4 lj/cut 0.00070000000 3.5500000000
pair_coeff 3 5 lj/cut 0.00070000000 3.5500000000
pair_coeff 3 6 lj/cut 0.00070000000 3.5500000000
pair_coeff 3 7 lj/cut 0.00070000000 3.5500000000
pair_coeff 3 8 lj/cut 0.00070000000 3.5500000000
pair_coeff 3 9 lj/cut 0.00070000000 3.5500000000
pair_coeff 3 10 lj/cut 0.00070000000 3.5500000000
pair_coeff 3 11 lj/cut 0.00070000000 3.5500000000
pair_coeff 3 12 lj/cut 0.00070000000 3.5500000000
pair_coeff 3 13 lj/cut 0.00070000000 3.5500000000
pair_coeff 3 14 lj/cut 0.00070000000 3.5500000000
pair_coeff 3 15 lj/cut 0.00070000000 3.5500000000
pair_coeff 3 16 lj/cut 0.00070000000 3.5500000000
pair_coeff 3 17 lj/cut 0.00070000000 3.5500000000
pair_coeff 3 18 lj/cut 0.00070000000 3.5500000000
pair_coeff 3 19 lj/cut 0.00070000000 3.5500000000
pair_coeff 3 20 lj/cut 0.00070000000 3.5500000000
pair_coeff 3 21 lj/cut 0.00070000000 3.5500000000
pair_coeff 3 22 lj/cut 0.00070000000 3.5500000000
pair_coeff 3 23 lj/cut 0.00070000000 3.5500000000
pair_coeff 3 24 lj/cut 0.00070000000 3.5500000000
pair_coeff 3 25 lj/cut 0.00070000000 3.5500000000
pair_coeff 3 26 lj/cut 0.00070000000 3.5500000000
pair_coeff 3 27 lj/cut 0.00070000000 3.5500000000
pair_coeff 3 28 lj/cut 0.00070000000 3.5500000000
pair_coeff 3 29 lj/cut 0.00070000000 3.5500000000
pair_coeff 3 30 lj/cut 0.00070000000 3.5500000000
pair_coeff 3 31 lj/cut 0.00070000000 3.5500000000
pair_coeff 3 32 lj/cut 0.00070000000 3.5500000000

pair_coeff 4 5 lj/cut 0.00070000000 3.5500000000
pair_coeff 4 6 lj/cut 0.00070000000 3.5500000000
pair_coeff 4 7 lj/cut 0.00070000000 3.5500000000
pair_coeff 4 8 lj/cut 0.00070000000 3.5500000000
pair_coeff 4 9 lj/cut 0.00070000000 3.5500000000
pair_coeff 4 10 lj/cut 0.00070000000 3.5500000000
pair_coeff 4 11 lj/cut 0.00070000000 3.5500000000
pair_coeff 4 12 lj/cut 0.00070000000 3.5500000000
pair_coeff 4 13 lj/cut 0.00070000000 3.5500000000
pair_coeff 4 14 lj/cut 0.00070000000 3.5500000000
pair_coeff 4 15 lj/cut 0.00070000000 3.5500000000
pair_coeff 4 16 lj/cut 0.00070000000 3.5500000000
pair_coeff 4 17 lj/cut 0.00070000000 3.5500000000
pair_coeff 4 18 lj/cut 0.00070000000 3.5500000000
pair_coeff 4 19 lj/cut 0.00070000000 3.5500000000
pair_coeff 4 20 lj/cut 0.00070000000 3.5500000000
pair_coeff 4 21 lj/cut 0.00070000000 3.5500000000
pair_coeff 4 22 lj/cut 0.00070000000 3.5500000000
pair_coeff 4 23 lj/cut 0.00070000000 3.5500000000
pair_coeff 4 24 lj/cut 0.00070000000 3.5500000000
pair_coeff 4 25 lj/cut 0.00070000000 3.5500000000
pair_coeff 4 26 lj/cut 0.00070000000 3.5500000000
pair_coeff 4 27 lj/cut 0.00070000000 3.5500000000
pair_coeff 4 28 lj/cut 0.00070000000 3.5500000000
pair_coeff 4 29 lj/cut 0.00070000000 3.5500000000
pair_coeff 4 30 lj/cut 0.00070000000 3.5500000000
pair_coeff 4 31 lj/cut 0.00070000000 3.5500000000
pair_coeff 4 32 lj/cut 0.00070000000 3.5500000000

pair_coeff 5 6 lj/cut 0.00070000000 3.5500000000
pair_coeff 5 7 lj/cut 0.00070000000 3.5500000000
pair_coeff 5 8 lj/cut 0.00070000000 3.5500000000
pair_coeff 5 9 lj/cut 0.00070000000 3.5500000000
pair_coeff 5 10 lj/cut 0.00070000000 3.5500000000
pair_coeff 5 11 lj/cut 0.00070000000 3.5500000000
pair_coeff 5 12 lj/cut 0.00070000000 3.5500000000
pair_coeff 5 13 lj/cut 0.00070000000 3.5500000000
pair_coeff 5 14 lj/cut 0.00070000000 3.5500000000
pair_coeff 5 15 lj/cut 0.00070000000 3.5500000000
pair_coeff 5 16 lj/cut 0.00070000000 3.5500000000
pair_coeff 5 17 lj/cut 0.00070000000 3.5500000000
pair_coeff 5 18 lj/cut 0.00070000000 3.5500000000
pair_coeff 5 19 lj/cut 0.00070000000 3.5500000000
pair_coeff 5 20 lj/cut 0.00070000000 3.5500000000
pair_coeff 5 21 lj/cut 0.00070000000 3.5500000000
pair_coeff 5 22 lj/cut 0.00070000000 3.5500000000
pair_coeff 5 23 lj/cut 0.00070000000 3.5500000000
pair_coeff 5 24 lj/cut 0.00070000000 3.5500000000
pair_coeff 5 25 lj/cut 0.00070000000 3.5500000000
pair_coeff 5 26 lj/cut 0.00070000000 3.5500000000
pair_coeff 5 27 lj/cut 0.00070000000 3.5500000000
pair_coeff 5 28 lj/cut 0.00070000000 3.5500000000
pair_coeff 5 29 lj/cut 0.00070000000 3.5500000000
pair_coeff 5 30 lj/cut 0.00070000000 3.5500000000
pair_coeff 5 31 lj/cut 0.00070000000 3.5500000000
pair_coeff 5 32 lj/cut 0.00070000000 3.5500000000

pair_coeff 6 7 lj/cut 0.00070000000 3.5500000000
pair_coeff 6 8 lj/cut 0.00070000000 3.5500000000
pair_coeff 6 9 lj/cut 0.00070000000 3.5500000000
pair_coeff 6 10 lj/cut 0.00070000000 3.5500000000
pair_coeff 6 11 lj/cut 0.00070000000 3.5500000000
pair_coeff 6 12 lj/cut 0.00070000000 3.5500000000
pair_coeff 6 13 lj/cut 0.00070000000 3.5500000000
pair_coeff 6 14 lj/cut 0.00070000000 3.5500000000
pair_coeff 6 15 lj/cut 0.00070000000 3.5500000000
pair_coeff 6 16 lj/cut 0.00070000000 3.5500000000
pair_coeff 6 17 lj/cut 0.00070000000 3.5500000000
pair_coeff 6 18 lj/cut 0.00070000000 3.5500000000
pair_coeff 6 19 lj/cut 0.00070000000 3.5500000000
pair_coeff 6 20 lj/cut 0.00070000000 3.5500000000
pair_coeff 6 21 lj/cut 0.00070000000 3.5500000000
pair_coeff 6 22 lj/cut 0.00070000000 3.5500000000
pair_coeff 6 23 lj/cut 0.00070000000 3.5500000000
pair_coeff 6 24 lj/cut 0.00070000000 3.5500000000
pair_coeff 6 25 lj/cut 0.00070000000 3.5500000000
pair_coeff 6 26 lj/cut 0.00070000000 3.5500000000
pair_coeff 6 27 lj/cut 0.00070000000 3.5500000000
pair_coeff 6 28 lj/cut 0.00070000000 3.5500000000
pair_coeff 6 29 lj/cut 0.00070000000 3.5500000000
pair_coeff 6 30 lj/cut 0.00070000000 3.5500000000
pair_coeff 6 31 lj/cut 0.00070000000 3.5500000000
pair_coeff 6 32 lj/cut 0.00070000000 3.5500000000

pair_coeff 7 8 lj/cut 0.00070000000 3.5500000000
pair_coeff 7 9 lj/cut 0.00070000000 3.5500000000
pair_coeff 7 10 lj/cut 0.00070000000 3.5500000000
pair_coeff 7 11 lj/cut 0.00070000000 3.5500000000
pair_coeff 7 12 lj/cut 0.00070000000 3.5500000000
pair_coeff 7 13 lj/cut 0.00070000000 3.5500000000
pair_coeff 7 14 lj/cut 0.00070000000 3.5500000000
pair_coeff 7 15 lj/cut 0.00070000000 3.5500000000
pair_coeff 7 16 lj/cut 0.00070000000 3.5500000000
pair_coeff 7 17 lj/cut 0.00070000000 3.5500000000
pair_coeff 7 18 lj/cut 0.00070000000 3.5500000000
pair_coeff 7 19 lj/cut 0.00070000000 3.5500000000
pair_coeff 7 20 lj/cut 0.00070000000 3.5500000000
pair_coeff 7 21 lj/cut 0.00070000000 3.5500000000
pair_coeff 7 22 lj/cut 0.00070000000 3.5500000000
pair_coeff 7 23 lj/cut 0.00070000000 3.5500000000
pair_coeff 7 24 lj/cut 0.00070000000 3.5500000000
pair_coeff 7 25 lj/cut 0.00070000000 3.5500000000
pair_coeff 7 26 lj/cut 0.00070000000 3.5500000000
pair_coeff 7 27 lj/cut 0.00070000000 3.5500000000
pair_coeff 7 28 lj/cut 0.00070000000 3.5500000000
pair_coeff 7 29 lj/cut 0.00070000000 3.5500000000
pair_coeff 7 30 lj/cut 0.00070000000 3.5500000000
pair_coeff 7 31 lj/cut 0.00070000000 3.5500000000
pair_coeff 7 32 lj/cut 0.00070000000 3.5500000000

pair_coeff 8 9 lj/cut 0.00070000000 3.5500000000
pair_coeff 8 10 lj/cut 0.00070000000 3.5500000000
pair_coeff 8 11 lj/cut 0.00070000000 3.5500000000
pair_coeff 8 12 lj/cut 0.00070000000 3.5500000000
pair_coeff 8 13 lj/cut 0.00070000000 3.5500000000
pair_coeff 8 14 lj/cut 0.00070000000 3.5500000000
pair_coeff 8 15 lj/cut 0.00070000000 3.5500000000
pair_coeff 8 16 lj/cut 0.00070000000 3.5500000000
pair_coeff 8 17 lj/cut 0.00070000000 3.5500000000
pair_coeff 8 18 lj/cut 0.00070000000 3.5500000000
pair_coeff 8 19 lj/cut 0.00070000000 3.5500000000
pair_coeff 8 20 lj/cut 0.00070000000 3.5500000000
pair_coeff 8 21 lj/cut 0.00070000000 3.5500000000
pair_coeff 8 22 lj/cut 0.00070000000 3.5500000000
pair_coeff 8 23 lj/cut 0.00070000000 3.5500000000
pair_coeff 8 24 lj/cut 0.00070000000 3.5500000000
pair_coeff 8 25 lj/cut 0.00070000000 3.5500000000
pair_coeff 8 26 lj/cut 0.00070000000 3.5500000000
pair_coeff 8 27 lj/cut 0.00070000000 3.5500000000
pair_coeff 8 28 lj/cut 0.00070000000 3.5500000000
pair_coeff 8 29 lj/cut 0.00070000000 3.5500000000
pair_coeff 8 30 lj/cut 0.00070000000 3.5500000000
pair_coeff 8 31 lj/cut 0.00070000000 3.5500000000
pair_coeff 8 32 lj/cut 0.00070000000 3.5500000000

pair_coeff 9 10 lj/cut 0.00070000000 3.5500000000
pair_coeff 9 11 lj/cut 0.00070000000 3.5500000000
pair_coeff 9 12 lj/cut 0.00070000000 3.5500000000
pair_coeff 9 13 lj/cut 0.00070000000 3.5500000000
pair_coeff 9 14 lj/cut 0.00070000000 3.5500000000
pair_coeff 9 15 lj/cut 0.00070000000 3.5500000000
pair_coeff 9 16 lj/cut 0.00070000000 3.5500000000
pair_coeff 9 17 lj/cut 0.00070000000 3.5500000000
pair_coeff 9 18 lj/cut 0.00070000000 3.5500000000
pair_coeff 9 19 lj/cut 0.00070000000 3.5500000000
pair_coeff 9 20 lj/cut 0.00070000000 3.5500000000
pair_coeff 9 21 lj/cut 0.00070000000 3.5500000000
pair_coeff 9 22 lj/cut 0.00070000000 3.5500000000
pair_coeff 9 23 lj/cut 0.00070000000 3.5500000000
pair_coeff 9 24 lj/cut 0.00070000000 3.5500000000
pair_coeff 9 25 lj/cut 0.00070000000 3.5500000000
pair_coeff 9 26 lj/cut 0.00070000000 3.5500000000
pair_coeff 9 27 lj/cut 0.00070000000 3.5500000000
pair_coeff 9 28 lj/cut 0.00070000000 3.5500000000
pair_coeff 9 29 lj/cut 0.00070000000 3.5500000000
pair_coeff 9 30 lj/cut 0.00070000000 3.5500000000
pair_coeff 9 31 lj/cut 0.00070000000 3.5500000000
pair_coeff 9 32 lj/cut 0.00070000000 3.5500000000

pair_coeff 10 11 lj/cut 0.00070000000 3.5500000000
pair_coeff 10 12 lj/cut 0.00070000000 3.5500000000
pair_coeff 10 13 lj/cut 0.00070000000 3.5500000000
pair_coeff 10 14 lj/cut 0.00070000000 3.5500000000
pair_coeff 10 15 lj/cut 0.00070000000 3.5500000000
pair_coeff 10 16 lj/cut 0.00070000000 3.5500000000
pair_coeff 10 17 lj/cut 0.00070000000 3.5500000000
pair_coeff 10 18 lj/cut 0.00070000000 3.5500000000
pair_coeff 10 19 lj/cut 0.00070000000 3.5500000000
pair_coeff 10 20 lj/cut 0.00070000000 3.5500000000
pair_coeff 10 21 lj/cut 0.00070000000 3.5500000000
pair_coeff 10 22 lj/cut 0.00070000000 3.5500000000
pair_coeff 10 23 lj/cut 0.00070000000 3.5500000000
pair_coeff 10 24 lj/cut 0.00070000000 3.5500000000
pair_coeff 10 25 lj/cut 0.00070000000 3.5500000000
pair_coeff 10 26 lj/cut 0.00070000000 3.5500000000
pair_coeff 10 27 lj/cut 0.00070000000 3.5500000000
pair_coeff 10 28 lj/cut 0.00070000000 3.5500000000
pair_coeff 10 29 lj/cut 0.00070000000 3.5500000000
pair_coeff 10 30 lj/cut 0.00070000000 3.5500000000
pair_coeff 10 31 lj/cut 0.00070000000 3.5500000000
pair_coeff 10 32 lj/cut 0.00070000000 3.5500000000

pair_coeff 11 12 lj/cut 0.00070000000 3.5500000000
pair_coeff 11 13 lj/cut 0.00070000000 3.5500000000
pair_coeff 11 14 lj/cut 0.00070000000 3.5500000000
pair_coeff 11 15 lj/cut 0.00070000000 3.5500000000
pair_coeff 11 16 lj/cut 0.00070000000 3.5500000000
pair_coeff 11 17 lj/cut 0.00070000000 3.5500000000
pair_coeff 11 18 lj/cut 0.00070000000 3.5500000000
pair_coeff 11 19 lj/cut 0.00070000000 3.5500000000
pair_coeff 11 20 lj/cut 0.00070000000 3.5500000000
pair_coeff 11 21 lj/cut 0.00070000000 3.5500000000
pair_coeff 11 22 lj/cut 0.00070000000 3.5500000000
pair_coeff 11 23 lj/cut 0.00070000000 3.5500000000
pair_coeff 11 24 lj/cut 0.00070000000 3.5500000000
pair_coeff 11 25 lj/cut 0.00070000000 3.5500000000
pair_coeff 11 26 lj/cut 0.00070000000 3.5500000000
pair_coeff 11 27 lj/cut 0.00070000000 3.5500000000
pair_coeff 11 28 lj/cut 0.00070000000 3.5500000000
pair_coeff 11 29 lj/cut 0.00070000000 3.5500000000
pair_coeff 11 30 lj/cut 0.00070000000 3.5500000000
pair_coeff 11 31 lj/cut 0.00070000000 3.5500000000
pair_coeff 11 32 lj/cut 0.00070000000 3.5500000000

pair_coeff 12 13 lj/cut 0.00070000000 3.5500000000
pair_coeff 12 14 lj/cut 0.00070000000 3.5500000000
pair_coeff 12 15 lj/cut 0.00070000000 3.5500000000
pair_coeff 12 16 lj/cut 0.00070000000 3.5500000000
pair_coeff 12 17 lj/cut 0.00070000000 3.5500000000
pair_coeff 12 18 lj/cut 0.00070000000 3.5500000000
pair_coeff 12 19 lj/cut 0.00070000000 3.5500000000
pair_coeff 12 20 lj/cut 0.00070000000 3.5500000000
pair_coeff 12 21 lj/cut 0.00070000000 3.5500000000
pair_coeff 12 22 lj/cut 0.00070000000 3.5500000000
pair_coeff 12 23 lj/cut 0.00070000000 3.5500000000
pair_coeff 12 24 lj/cut 0.00070000000 3.5500000000
pair_coeff 12 25 lj/cut 0.00070000000 3.5500000000
pair_coeff 12 26 lj/cut 0.00070000000 3.5500000000
pair_coeff 12 27 lj/cut 0.00070000000 3.5500000000
pair_coeff 12 28 lj/cut 0.00070000000 3.5500000000
pair_coeff 12 29 lj/cut 0.00070000000 3.5500000000
pair_coeff 12 30 lj/cut 0.00070000000 3.5500000000
pair_coeff 12 31 lj/cut 0.00070000000 3.5500000000
pair_coeff 12 32 lj/cut 0.00070000000 3.5500000000

pair_coeff 13 14 lj/cut 0.00070000000 3.5500000000
pair_coeff 13 15 lj/cut 0.00070000000 3.5500000000
pair_coeff 13 16 lj/cut 0.00070000000 3.5500000000
pair_coeff 13 17 lj/cut 0.00070000000 3.5500000000
pair_coeff 13 18 lj/cut 0.00070000000 3.5500000000
pair_coeff 13 19 lj/cut 0.00070000000 3.5500000000
pair_coeff 13 20 lj/cut 0.00070000000 3.5500000000
pair_coeff 13 21 lj/cut 0.00070000000 3.5500000000
pair_coeff 13 22 lj/cut 0.00070000000 3.5500000000
pair_coeff 13 23 lj/cut 0.00070000000 3.5500000000
pair_coeff 13 24 lj/cut 0.00070000000 3.5500000000
pair_coeff 13 25 lj/cut 0.00070000000 3.5500000000
pair_coeff 13 26 lj/cut 0.00070000000 3.5500000000
pair_coeff 13 27 lj/cut 0.00070000000 3.5500000000
pair_coeff 13 28 lj/cut 0.00070000000 3.5500000000
pair_coeff 13 29 lj/cut 0.00070000000 3.5500000000
pair_coeff 13 30 lj/cut 0.00070000000 3.5500000000
pair_coeff 13 31 lj/cut 0.00070000000 3.5500000000
pair_coeff 13 32 lj/cut 0.00070000000 3.5500000000

pair_coeff 14 15 lj/cut 0.00070000000 3.5500000000
pair_coeff 14 16 lj/cut 0.00070000000 3.5500000000
pair_coeff 14 17 lj/cut 0.00070000000 3.5500000000
pair_coeff 14 18 lj/cut 0.00070000000 3.5500000000
pair_coeff 14 19 lj/cut 0.00070000000 3.5500000000
pair_coeff 14 20 lj/cut 0.00070000000 3.5500000000
pair_coeff 14 21 lj/cut 0.00070000000 3.5500000000
pair_coeff 14 22 lj/cut 0.00070000000 3.5500000000
pair_coeff 14 23 lj/cut 0.00070000000 3.5500000000
pair_coeff 14 24 lj/cut 0.00070000000 3.5500000000
pair_coeff 14 25 lj/cut 0.00070000000 3.5500000000
pair_coeff 14 26 lj/cut 0.00070000000 3.5500000000
pair_coeff 14 27 lj/cut 0.00070000000 3.5500000000
pair_coeff 14 28 lj/cut 0.00070000000 3.5500000000
pair_coeff 14 29 lj/cut 0.00070000000 3.5500000000
pair_coeff 14 30 lj/cut 0.00070000000 3.5500000000
pair_coeff 14 31 lj/cut 0.00070000000 3.5500000000
pair_coeff 14 32 lj/cut 0.00070000000 3.5500000000

pair_coeff 15 16 lj/cut 0.00070000000 3.5500000000
pair_coeff 15 17 lj/cut 0.00070000000 3.5500000000
pair_coeff 15 18 lj/cut 0.00070000000 3.5500000000
pair_coeff 15 19 lj/cut 0.00070000000 3.5500000000
pair_coeff 15 20 lj/cut 0.00070000000 3.5500000000
pair_coeff 15 21 lj/cut 0.00070000000 3.5500000000
pair_coeff 15 22 lj/cut 0.00070000000 3.5500000000
pair_coeff 15 23 lj/cut 0.00070000000 3.5500000000
pair_coeff 15 24 lj/cut 0.00070000000 3.5500000000
pair_coeff 15 25 lj/cut 0.00070000000 3.5500000000
pair_coeff 15 26 lj/cut 0.00070000000 3.5500000000
pair_coeff 15 27 lj/cut 0.00070000000 3.5500000000
pair_coeff 15 28 lj/cut 0.00070000000 3.5500000000
pair_coeff 15 29 lj/cut 0.00070000000 3.5500000000
pair_coeff 15 30 lj/cut 0.00070000000 3.5500000000
pair_coeff 15 31 lj/cut 0.00070000000 3.5500000000
pair_coeff 15 32 lj/cut 0.00070000000 3.5500000000

pair_coeff 16 17 lj/cut 0.00070000000 3.5500000000
pair_coeff 16 18 lj/cut 0.00070000000 3.5500000000
pair_coeff 16 19 lj/cut 0.00070000000 3.5500000000
pair_coeff 16 20 lj/cut 0.00070000000 3.5500000000
pair_coeff 16 21 lj/cut 0.00070000000 3.5500000000
pair_coeff 16 22 lj/cut 0.00070000000 3.5500000000
pair_coeff 16 23 lj/cut 0.00070000000 3.5500000000
pair_coeff 16 24 lj/cut 0.00070000000 3.5500000000
pair_coeff 16 25 lj/cut 0.00070000000 3.5500000000
pair_coeff 16 26 lj/cut 0.00070000000 3.5500000000
pair_coeff 16 27 lj/cut 0.00070000000 3.5500000000
pair_coeff 16 28 lj/cut 0.00070000000 3.5500000000
pair_coeff 16 29 lj/cut 0.00070000000 3.5500000000
pair_coeff 16 30 lj/cut 0.00070000000 3.5500000000
pair_coeff 16 31 lj/cut 0.00070000000 3.5500000000
pair_coeff 16 32 lj/cut 0.00070000000 3.5500000000

pair_coeff 17 18 lj/cut 0.00070000000 3.5500000000
pair_coeff 17 19 lj/cut 0.00070000000 3.5500000000
pair_coeff 17 20 lj/cut 0.00070000000 3.5500000000
pair_coeff 17 21 lj/cut 0.00070000000 3.5500000000
pair_coeff 17 22 lj/cut 0.00070000000 3.5500000000
pair_coeff 17 23 lj/cut 0.00070000000 3.5500000000
pair_coeff 17 24 lj/cut 0.00070000000 3.5500000000
pair_coeff 17 25 lj/cut 0.00070000000 3.5500000000
pair_coeff 17 26 lj/cut 0.00070000000 3.5500000000
pair_coeff 17 27 lj/cut 0.00070000000 3.5500000000
pair_coeff 17 28 lj/cut 0.00070000000 3.5500000000
pair_coeff 17 29 lj/cut 0.00070000000 3.5500000000
pair_coeff 17 30 lj/cut 0.00070000000 3.5500000000
pair_coeff 17 31 lj/cut 0.00070000000 3.5500000000
pair_coeff 17 32 lj/cut 0.00070000000 3.5500000000

pair_coeff 18 19 lj/cut 0.00070000000 3.5500000000
pair_coeff 18 20 lj/cut 0.00070000000 3.5500000000
pair_coeff 18 21 lj/cut 0.00070000000 3.5500000000
pair_coeff 18 22 lj/cut 0.00070000000 3.5500000000
pair_coeff 18 23 lj/cut 0.00070000000 3.5500000000
pair_coeff 18 24 lj/cut 0.00070000000 3.5500000000
pair_coeff 18 25 lj/cut 0.00070000000 3.5500000000
pair_coeff 18 26 lj/cut 0.00070000000 3.5500000000
pair_coeff 18 27 lj/cut 0.00070000000 3.5500000000
pair_coeff 18 28 lj/cut 0.00070000000 3.5500000000
pair_coeff 18 29 lj/cut 0.00070000000 3.5500000000
pair_coeff 18 30 lj/cut 0.00070000000 3.5500000000
pair_coeff 18 31 lj/cut 0.00070000000 3.5500000000
pair_coeff 18 32 lj/cut 0.00070000000 3.5500000000

pair_coeff 19 20 lj/cut 0.00070000000 3.5500000000
pair_coeff 19 21 lj/cut 0.00070000000 3.5500000000
pair_coeff 19 22 lj/cut 0.00070000000 3.5500000000
pair_coeff 19 23 lj/cut 0.00070000000 3.5500000000
pair_coeff 19 24 lj/cut 0.00070000000 3.5500000000
pair_coeff 19 25 lj/cut 0.00070000000 3.5500000000
pair_coeff 19 26 lj/cut 0.00070000000 3.5500000000
pair_coeff 19 27 lj/cut 0.00070000000 3.5500000000
pair_coeff 19 28 lj/cut 0.00070000000 3.5500000000
pair_coeff 19 29 lj/cut 0.00070000000 3.5500000000
pair_coeff 19 30 lj/cut 0.00070000000 3.5500000000
pair_coeff 19 31 lj/cut 0.00070000000 3.5500000000
pair_coeff 19 32 lj/cut 0.00070000000 3.5500000000

pair_coeff 20 21 lj/cut 0.00070000000 3.5500000000
pair_coeff 20 22 lj/cut 0.00070000000 3.5500000000
pair_coeff 20 23 lj/cut 0.00070000000 3.5500000000
pair_coeff 20 24 lj/cut 0.00070000000 3.5500000000
pair_coeff 20 25 lj/cut 0.00070000000 3.5500000000
pair_coeff 20 26 lj/cut 0.00070000000 3.5500000000
pair_coeff 20 27 lj/cut 0.00070000000 3.5500000000
pair_coeff 20 28 lj/cut 0.00070000000 3.5500000000
pair_coeff 20 29 lj/cut 0.00070000000 3.5500000000
pair_coeff 20 30 lj/cut 0.00070000000 3.5500000000
pair_coeff 20 31 lj/cut 0.00070000000 3.5500000000
pair_coeff 20 32 lj/cut 0.00070000000 3.5500000000

pair_coeff 21 22 lj/cut 0.00070000000 3.5500000000
pair_coeff 21 23 lj/cut 0.00070000000 3.5500000000
pair_coeff 21 24 lj/cut 0.00070000000 3.5500000000
pair_coeff 21 25 lj/cut 0.00070000000 3.5500000000
pair_coeff 21 26 lj/cut 0.00070000000 3.5500000000
pair_coeff 21 27 lj/cut 0.00070000000 3.5500000000
pair_coeff 21 28 lj/cut 0.00070000000 3.5500000000
pair_coeff 21 29 lj/cut 0.00070000000 3.5500000000
pair_coeff 21 30 lj/cut 0.00070000000 3.5500000000
pair_coeff 21 31 lj/cut 0.00070000000 3.5500000000
pair_coeff 21 32 lj/cut 0.00070000000 3.5500000000

pair_coeff 22 23 lj/cut 0.00070000000 3.5500000000
pair_coeff 22 24 lj/cut 0.00070000000 3.5500000000
pair_coeff 22 25 lj/cut 0.00070000000 3.5500000000
pair_coeff 22 26 lj/cut 0.00070000000 3.5500000000
pair_coeff 22 27 lj/cut 0.00070000000 3.5500000000
pair_coeff 22 28 lj/cut 0.00070000000 3.5500000000
pair_coeff 22 29 lj/cut 0.00070000000 3.5500000000
pair_coeff 22 30 lj/cut 0.00070000000 3.5500000000
pair_coeff 22 31 lj/cut 0.00070000000 3.5500000000
pair_coeff 22 32 lj/cut 0.00070000000 3.5500000000

pair_coeff 23 24 lj/cut 0.00070000000 3.5500000000
pair_coeff 23 25 lj/cut 0.00070000000 3.5500000000
pair_coeff 23 26 lj/cut 0.00070000000 3.5500000000
pair_coeff 23 27 lj/cut 0.00070000000 3.5500000000
pair_coeff 23 28 lj/cut 0.00070000000 3.5500000000
pair_coeff 23 29 lj/cut 0.00070000000 3.5500000000
pair_coeff 23 30 lj/cut 0.00070000000 3.5500000000
pair_coeff 23 31 lj/cut 0.00070000000 3.5500000000
pair_coeff 23 32 lj/cut 0.00070000000 3.5500000000

pair_coeff 24 25 lj/cut 0.00070000000 3.5500000000
pair_coeff 24 26 lj/cut 0.00070000000 3.5500000000
pair_coeff 24 27 lj/cut 0.00070000000 3.5500000000
pair_coeff 24 28 lj/cut 0.00070000000 3.5500000000
pair_coeff 24 29 lj/cut 0.00070000000 3.5500000000
pair_coeff 24 30 lj/cut 0.00070000000 3.5500000000
pair_coeff 24 31 lj/cut 0.00070000000 3.5500000000
pair_coeff 24 32 lj/cut 0.00070000000 3.5500000000

pair_coeff 25 26 lj/cut 0.00070000000 3.5500000000
pair_coeff 25 27 lj/cut 0.00070000000 3.5500000000
pair_coeff 25 28 lj/cut 0.00070000000 3.5500000000
pair_coeff 25 29 lj/cut 0.00070000000 3.5500000000
pair_coeff 25 30 lj/cut 0.00070000000 3.5500000000
pair_coeff 25 31 lj/cut 0.00070000000 3.5500000000
pair_coeff 25 32 lj/cut 0.00070000000 3.5500000000

pair_coeff 26 27 lj/cut 0.00070000000 3.5500000000
pair_coeff 26 28 lj/cut 0.00070000000 3.5500000000
pair_coeff 26 29 lj/cut 0.00070000000 3.5500000000
pair_coeff 26 30 lj/cut 0.00070000000 3.5500000000
pair_coeff 26 31 lj/cut 0.00070000000 3.5500000000
pair_coeff 26 32 lj/cut 0.00070000000 3.5500000000

pair_coeff 27 28 lj/cut 0.00070000000 3.5500000000
pair_coeff 27 29 lj/cut 0.00070000000 3.5500000000
pair_coeff 27 30 lj/cut 0.00070000000 3.5500000000
pair_coeff 27 31 lj/cut 0.00070000000 3.5500000000
pair_coeff 27 32 lj/cut 0.00070000000 3.5500000000

pair_coeff 28 29 lj/cut 0.00070000000 3.5500000000
pair_coeff 28 30 lj/cut 0.00070000000 3.5500000000
pair_coeff 28 31 lj/cut 0.00070000000 3.5500000000
pair_coeff 28 32 lj/cut 0.00070000000 3.5500000000

pair_coeff 29 30 lj/cut 0.00070000000 3.5500000000
pair_coeff 29 31 lj/cut 0.00070000000 3.5500000000
pair_coeff 29 32 lj/cut 0.00070000000 3.5500000000

pair_coeff 30 31 lj/cut 0.00070000000 3.5500000000
pair_coeff 30 32 lj/cut 0.00070000000 3.5500000000

pair_coeff 31 32 lj/cut 0.00070000000 3.5500000000

special_bonds lj 0.0 0.0 0.0 coul 0.0 0.0 0.0

#pair_style tersoff 
#pair_coeff * * C.4.tersoff 1 2 3 4

#pair_style lj/cut 12.0
#pair_coeff 1 1 0.00070000000 3.5500000000
#special_bonds lj 0.0 0.0 0.0 coul 0.0 0.0 0.0
###########################################################################


#--------------------------------------------------------------------------
#variables
#--------------------------------------------------------------------------
variable   	dt 		equal 0.001
#--------------------------------------------------------------------------
#kappa parameters
#--------------------------------------------------------------------------
variable    	p 		equal 100000 	# correlation length
variable    	s 		equal 10  	# sample interval
variable    	d 		equal $p*$s 	# dump interval 
variable    	d 		equal 100000*$s 	variable    	d 		equal 100000*10 	
#--------------------------------------------------------------------------
variable 	T_run 		equal 300
#--------------------------------------------------------------------------

log 	log_heat_${iseed}.lammps
log 	log_heat_6.lammps
