	reset_timestep  	0
	fix 			1 all nve
	compute   		myKE all ke/atom
	compute   		myPE all pe/atom
	compute   		myStress all stress/atom virial
	compute   		flux all heat/flux myKE myPE myStress
	variable  		Jx equal c_flux[1]/vol
	variable  		Jy equal c_flux[2]/vol
	variable  		Jz equal c_flux[3]/vol
	fix       		JJ all ave/correlate $s $p $d c_flux[1] c_flux[2] c_flux[3] type auto file J0Jt_${iseed}.dat ave running
	fix       		JJ all ave/correlate 10 $p $d c_flux[1] c_flux[2] c_flux[3] type auto file J0Jt_${iseed}.dat ave running
	fix       		JJ all ave/correlate 10 100000 $d c_flux[1] c_flux[2] c_flux[3] type auto file J0Jt_${iseed}.dat ave running
	fix       		JJ all ave/correlate 10 100000 1000000 c_flux[1] c_flux[2] c_flux[3] type auto file J0Jt_${iseed}.dat ave running
	fix       		JJ all ave/correlate 10 100000 1000000 c_flux[1] c_flux[2] c_flux[3] type auto file J0Jt_1.dat ave running
	compute 		myDis all msd 
	thermo_style 		custom step temp press vol c_myDis[4] v_Jx v_Jy v_Jz 
	thermo			1000
	timestep		${dt}
	timestep		0.001
	run			1000000
Memory usage per processor = 6.0234 Mbytes
Step Temp Press Volume myDis[4] Jx Jy Jz 
       0    300.45794    6139.7534    23887.872 8.6527373e-30 -0.0046323532  0.012702363  0.013364509 
    1000    295.11341    7317.1513    23887.872    2.5316076 -0.0080195924 0.0047843467 -0.0061887239 
    2000    304.26103    7061.0461    23887.872    8.0105598 0.0051488571 0.0050604804  0.010608935 
    3000    302.08382    5247.3484    23887.872    13.858653 0.0013004618 0.0014363837 0.0064374951 
    4000    300.51445    5665.2701    23887.872    18.840238  0.011330031  0.011467567 -0.0024576217 
    5000    299.77766    8849.7464    23887.872    21.852769  0.007610329 -0.0046674122  0.010451052 
    6000    307.17723    5525.2757    23887.872    22.826791 -0.0081005066 0.0024083367  0.013490391 
    7000    294.61738     5462.097    23887.872    23.048638 -0.0084093921 0.0074913538 -0.0053045358 
    8000    299.99171     6406.717    23887.872    23.088555 -0.0026633111  0.014853521 -0.021156581 
    9000    296.51872    8179.9305    23887.872    23.648847 -0.010483801 -0.0096607455 -0.021005952 
   10000    303.44863    6277.9665    23887.872     24.87811  0.014944462 7.1831806e-05 -0.011236231 
   11000    299.96071     5779.336    23887.872    26.332403 0.0025168173 -0.0051012714 0.00086651604 
   12000    295.46137    6807.5992    23887.872    27.175955  0.015571676 0.0080241358 -0.0042748149 
   13000    301.33639    7442.0033    23887.872    27.065274 0.0038429264  0.007677178 0.0043130865 
   14000    290.99404    6049.7436    23887.872    27.125973 0.0015952303 -0.0036146502 0.0085959948 
   15000    298.44462    4994.2877    23887.872     26.97465 -0.0077935321 -0.0039949605 0.0056393448 
   16000    298.88223    7752.8028    23887.872    26.850452 0.00033650135 0.0028563726 0.0022930657 
   17000     301.0828    5415.9131    23887.872    27.101732 -0.0031189598 0.00012643864  0.010229751 
   18000     307.3454    5672.3558    23887.872    27.546296 -0.0048874112 -0.0043737624 -0.00048071197 
   19000     303.7953     3470.879    23887.872    27.816264 -0.0089081453 0.0020686611  0.006648502 
   20000    298.86155    5822.7478    23887.872    28.285585 -0.0036513954 0.00064885605 -0.0070439956 
   21000    303.11624    6831.6421    23887.872    28.391134 -0.0045607584 -0.0052286497  0.015245362 
   22000     303.4735    4008.7157    23887.872    28.529938 -0.00013462716 0.0010011808 -0.0020705832 
   23000    303.76766    4582.6713    23887.872    27.670018  0.005412831  0.011373257 0.0033021745 
   24000     301.7177    4018.9802    23887.872    27.598487  0.003107681  0.013728781  0.017232549 
   25000    309.53207    7092.2312    23887.872    27.909906 -0.0045682551 0.0089863714 -0.010987065 
   26000    306.67246    5959.8771    23887.872     27.91843  0.001963231 0.0094304897 -0.0012662194 
   27000    301.54888    5873.7043    23887.872    26.991197  0.008709088 -0.019748481 -0.0007584982 
   28000    304.67335    3833.3854    23887.872    26.108451 0.0043168817 -0.00045552625 0.0096674732 
   29000    302.54376    8047.4583    23887.872    25.579823   0.01368209 -0.013022413  0.018424787 
   30000    298.57174     8095.918    23887.872    25.257655 -5.1147815e-05 0.0041365975 0.0050959266 
   31000    304.46267    5231.4876    23887.872    25.684725 -0.00085789165 0.0067319579 0.0096065156 
   32000     295.2884    6661.9513    23887.872    26.500564 0.0080699234   0.01067871 -0.0015801235 
   33000    302.22823    6172.4126    23887.872     26.82864 -0.0018746984  0.011049445  -0.01290689 
   34000    307.55371    4279.8506    23887.872    27.375878 -0.0063437042 -0.00041790804 -0.0063982892 
   35000    307.13134    7023.7496    23887.872    28.742197 -0.0047766652 -0.013498998 -0.003718071 
   36000    306.02075    7925.9025    23887.872    30.018703 -0.0025566524 0.00066711555 0.0016084752 
   37000    306.67368    5097.1571    23887.872    30.316275 0.0092418868 0.0098196501 -0.0091272429 
   38000    304.29973    6332.0399    23887.872    29.939382 -0.0051766816  0.016803229  0.002744366 
   39000    297.11136    6442.7838    23887.872     29.30351 0.00013303344  0.011065867 -0.0015639867 
   40000    295.75383    5619.3138    23887.872    28.399309 -0.007203584 0.00030740095 0.00077961809 
   41000    300.52449    6612.7841    23887.872    26.996759 -0.0016956156 -0.015418412 0.0042134964 
   42000    300.07607    6290.6178    23887.872    25.344749 2.7254349e-05  0.015984961 0.00071247136 
   43000    308.37297     7879.965    23887.872    24.351877 0.0072015635  0.013751475 0.0030739416 
   44000    299.85905    5751.4799    23887.872    24.700079 0.0044460785 -0.0028713444  -0.00433298 
   45000    297.26859    7109.3604    23887.872    26.057808 -0.0034442158 -0.003313739 -0.013409037 
   46000    298.15091    7014.4839    23887.872    27.627242 -0.0045827285  0.011781562 0.0094519254 
   47000    301.22675    5351.7484    23887.872    28.494635  -0.01030909 0.00059535445 0.0054784325 
   48000    305.43842    6730.6592    23887.872    28.304372 0.0091866667 -0.0072456063 0.00091940663 
   49000    303.54401    8302.4669    23887.872    27.665129  0.018164066 -2.7225176e-05  0.005389398 
   50000    297.84481    6067.8298    23887.872    27.142981 0.0090175664 0.00083586311 -0.0091283846 
   51000    300.31885    8236.9667    23887.872    27.462313 0.00040483262 0.0073831538 0.0006870196 
   52000    294.28439    8221.1894    23887.872    27.961262 -0.004592538  0.013106892 -0.0024091274 
   53000    297.50364    4683.1395    23887.872    28.538184 -0.016637103 0.0063638314 0.0038232416 
   54000     297.0118    6034.2029    23887.872    28.570083 -0.007675733 -0.0049157599 -0.0047093769 
   55000    301.12552    6718.5883    23887.872    28.150399 0.0024789858  0.016175097 0.0028713737 
   56000    302.23039    4949.6306    23887.872    27.526246 -0.0073806355 0.0061034268 0.0033796933 
   57000    303.36584    5917.9427    23887.872    26.868369 -0.0044111105  0.015781527 -0.003006863 
   58000    308.36095    5060.6376    23887.872    27.376188 -0.00091710823 -0.017655835  0.014230636 
   59000    296.22051    9316.4559    23887.872    28.950275 -0.0039951037 -0.015749583 0.0037282768 
   60000    299.58779    7011.9236    23887.872    29.938712  0.014686726  0.008143784 -0.0012318587 
   61000    305.18332    2548.5327    23887.872    29.861674 -0.0031008662 0.0048004713 0.0058625058 
   62000    296.68471    6686.9682    23887.872    28.831638 0.0027578532 0.0036791423 -0.0036838563 
   63000    301.55468    6870.9342    23887.872    27.854166 -0.0025896806 0.0073971624   0.00484952 
   64000    294.40389    8428.9138    23887.872    26.601279 0.0051941609 0.00060279583 -0.0055703115 
   65000    296.57124     6659.631    23887.872    25.864078 0.0086830069 0.0062854594 0.0068224576 
   66000    297.98896    3755.8289    23887.872    25.738628  0.012664574 -0.0083788018 0.0077904843 
   67000    306.46234    10051.042    23887.872     26.15563 -0.0010168021 0.0035848356  0.005506582 
   68000    300.78921    7608.8411    23887.872    26.771217 0.00045576355 -0.00012505049 0.00082140552 
   69000     295.2685    6492.4273    23887.872    27.693575 -0.0036296234 0.0058066102 -4.6774514e-05 
   70000    297.50963    6000.4981    23887.872    28.281197 -0.0032903953 0.0039565264 0.0098461535 
   71000    301.90096    2181.4957    23887.872     28.35992 -0.011833404 -0.012716344 0.0013280201 
   72000    303.16002    8967.3572    23887.872    27.891571 -0.0084410678 -0.015150281 -0.0010257235 
   73000    305.89324    8445.2844    23887.872    26.655743  0.011590847 -0.0056354367 -0.010097029 
   74000    300.48569    3907.7461    23887.872    25.976308 0.0057955341  0.014828285 -0.0058535788 
   75000    307.30298    7291.6142    23887.872    26.145057 0.0018168433 0.0025459562  0.012813206 
   76000    292.36567    7933.3882    23887.872    27.238064 -0.013970799 0.0082076722  0.005024999 
   77000    297.39091    3665.5538    23887.872    28.231035 -0.0070989345 -0.0058751492 -0.0023176334 
   78000    291.15934    5738.1975    23887.872    28.536482 -0.0015796979 -0.0014392733 -0.019762326 
   79000     296.3965    10150.427    23887.872    28.380677 -0.016650486 0.0097948386 0.0018274147 
   80000    297.14221    7482.3376    23887.872    28.356703 -0.0034470793 -0.0039009008 -0.011515724 
   81000    294.76852    4555.5055    23887.872    28.623294 -0.0084327077  0.005548935 -0.010031648 
   82000    299.35796    9907.4536    23887.872    29.253741 -0.015263641 0.0020594925 0.0071208278 
   83000     305.9493    7840.8381    23887.872    30.518617 -0.00020451448 -0.0076238218 -0.0033816652 
   84000    295.60934    2260.9183    23887.872    31.593073 0.0078979284 -0.0066675377 -0.0055518052 
   85000    309.15546    5808.4896    23887.872    31.707386 0.0047819006  0.011526143 0.0061985086 
   86000    299.66657    8621.1945    23887.872    31.082379 -0.0082868555 -0.00021019645 -0.0058935018 
   87000    297.77495    8381.5094    23887.872    30.448143 -0.016111224 0.0034072563  0.010401688 
   88000    302.80837    6708.6971    23887.872    30.112827 0.0050844143 -0.0013280185 -0.00053324116 
   89000    314.27356    4169.4257    23887.872    29.748255 -0.013363838  0.023481758  0.010074983 
   90000    305.12386    5113.4454    23887.872    29.859811   0.01284088 -0.0032948735 0.0090620177 
   91000    302.49562    8211.4507    23887.872    30.000698 1.459392e-05 0.0062808387 -0.0029915073 
   92000    297.35978    6549.0108    23887.872    29.649477 0.0021834049 0.0010176247 0.0050607052 
   93000    306.24863    2482.0679    23887.872    29.270473 -0.0041094168 -0.0092622572 -0.0091913966 
   94000    300.20973    7549.1948    23887.872     28.46981 -0.0014588128   0.01151461 -0.0070067664 
   95000    303.96864    6634.6557    23887.872    27.563814 0.0039103022 0.0057514826 -0.0035654621 
   96000      299.139    4642.8399    23887.872    26.965139 0.0020301205 -0.00049344868 -0.0052999987 
   97000    297.54684    7927.3147    23887.872    26.606377 0.0054646086 -0.0023098271 -0.010094483 
   98000    304.57359    7405.4043    23887.872    26.560445 0.0059954641 -0.00029025158 -0.016235121 
   99000    299.72488    6027.9269    23887.872    26.891261 0.0048675345 -0.0089869599 -0.0050136713 
  100000    299.22836    4134.0974    23887.872    27.214523 0.0014523447 -0.015131632 -0.0028897947 
  101000    296.54498    8176.6808    23887.872    27.620548 0.00057091526 -0.003836266 -0.0062409771 
  102000    307.35704     6982.611    23887.872     28.17433 -0.0042419318  0.008706919 -0.0048132717 
  103000     305.6113    4621.6586    23887.872    28.391277 -0.00093773636 -0.0040247704 -0.0080342027 
  104000      303.117    7174.1219    23887.872     28.28036 -0.011622088 -0.0061450304 -0.0064788975 
  105000    305.85833    4132.5996    23887.872    27.551056 0.0033169781  0.028929992 0.0015861059 
  106000    301.35592    6253.1506    23887.872    26.415511 -0.0013750466 -0.0044911999 0.0093521727 
  107000    299.03266    7915.7528    23887.872    25.227328 -0.012883716 0.00061233549   0.01348529 
  108000    302.38311    5747.1744    23887.872    24.609453 0.0043132865 -0.0081493572  0.013201443 
  109000    293.71751    6472.8194    23887.872     25.33275 0.0027996889 -0.0040228867 -0.0032586836 
  110000    293.90232    4510.5819    23887.872    26.812189 0.0023666049 -0.0011946185 -0.001625441 
  111000    302.01161    9182.2962    23887.872    28.166612 0.0078579652 0.0045699885 -0.008974459 
  112000    299.07677    8547.0219    23887.872    29.032673 -0.0029330181 -0.00016812466 -0.0061265642 
  113000    307.87058      5380.56    23887.872    28.818461 0.00075473355  0.012057396 0.0058414922 
  114000    302.60736    3966.6714    23887.872    28.222204 -0.0066110227 -0.013036643 -0.0033373655 
  115000     301.7993    7314.5326    23887.872     27.76298 -0.012615289 -0.0050627559 -0.0082326509 
  116000    304.62031    7859.2901    23887.872    27.417174 0.0023748383 -0.0014925838 0.0053415074 
  117000    303.98003    7552.9042    23887.872    27.522117 -0.0024182699 -0.0065249185 0.0043051502 
  118000    295.78935    4025.5156    23887.872    27.321901 0.0016149925 0.0026422953 0.0096762462 
  119000    296.36198    6812.4974    23887.872     26.98703 0.0043066794 -0.020221846 -0.0055749721 
  120000    292.65019    6773.0621    23887.872     26.71785 0.0038905847 -0.0063643647  0.010720889 
  121000    298.11704    7197.1084    23887.872    26.921754 0.0090239861 0.0015010269 0.0069961289 
  122000    292.43621    7268.8477    23887.872    27.058543 -0.0027416512 -0.0056857436 0.0016236245 
  123000     298.5795    6944.5724    23887.872    26.894236 -0.00059887638 -0.0043275419 -0.0013204459 
  124000    302.24476    7241.1556    23887.872    27.031584  0.013200068 0.0073654948 -0.010523649 
  125000    308.63206    5567.9464    23887.872    27.470777 0.0064482944 -0.002730168 0.0069130086 
  126000    297.28771    6812.8903    23887.872    27.761585  -0.00440972 0.00071848025 -0.0042591316 
  127000    303.24218    7577.1931    23887.872    27.662866 -0.0015713434 -0.0028841625 -0.0048495871 
  128000    293.09923    4793.9253    23887.872    28.294717 -0.0055041574 0.0029637796 -0.0039317144 
  129000    298.03928    3878.6634    23887.872    29.010665 0.0085832948 -0.003730664 -0.0023792092 
  130000    301.93754    6095.0097    23887.872    29.726826 0.0030297805  0.010068428  0.018432041 
  131000    300.39051    7571.1738    23887.872    30.036518 0.0079886889 -0.0051847446  0.010873244 
  132000    299.16637    5342.4035    23887.872    29.855064   0.01269176 -0.012605487 0.0022124441 
  133000    297.13391    7833.1889    23887.872     29.84975  0.011019287 0.0059018156 0.0089137987 
  134000    297.14546    6426.7103    23887.872    30.175314 -0.0011557463 -0.00029219467 -0.00071594698 
  135000    302.63985    6335.5514    23887.872    30.346076 -0.008710269  0.013181328 -0.0030924201 
  136000    298.18155    8683.4607    23887.872    30.348506 0.0037019852  0.005051054 -0.0059150645 
  137000    304.46425    5176.0559    23887.872      30.2037 0.0020734891 0.0082604228 -0.0033997963 
  138000    299.02148    6636.0118    23887.872     29.66984 -0.012560568  -0.01621333 0.00042041582 
  139000    297.70472    4799.2357    23887.872    28.566728 -0.028324553 -0.011610834 -0.014812944 
  140000    305.06704    5630.8002    23887.872    27.143079 -0.003925526 -0.0071016287 0.0029818509 
  141000    300.49351    7016.7018    23887.872    27.188257   0.01075398 0.0037353671 -0.0081003194 
  142000    295.59551    7546.1922    23887.872    28.139431 -0.00092807941 -0.0024299296 -0.004667021 
  143000    302.11399    4927.6034    23887.872    29.342749 -0.0071673856 -0.00063053021   0.01682004 
  144000    301.95696    7207.4609    23887.872    29.348197 0.0011493762 -0.0084948136 0.0023742162 
  145000    300.83858    5611.6807    23887.872    28.642172 -0.0082010706 0.0083671973 0.0026818905 
  146000    302.50674     4105.997    23887.872    28.123972 0.0098484405  0.012651969  0.012584699 
  147000    305.70577    6069.9199    23887.872    28.387656  0.002096493 -0.00021696607 0.0023280457 
  148000    304.10836    8491.6487    23887.872    29.560821  0.010811129 -0.012642491  0.011312927 
  149000    306.65647    5279.1271    23887.872    30.112846 0.0014447957 0.0028722182  0.010403097 
  150000    296.75833    4676.5601    23887.872     29.73178 0.00012811975 0.0052545162   0.00753239 
  151000    304.79938    6831.7585    23887.872    29.129087 -0.0020252725  0.016677517 -0.0030498504 
  152000    297.36466    5534.3371    23887.872    28.562522 -8.5424417e-05  0.011241659 0.0055647719 
  153000    302.56258    7438.3412    23887.872    28.065485 -0.0030999741 0.0069261861 -0.0060796635 
  154000    302.35603    5189.3533    23887.872    28.038253 0.0057606008 -0.0074252028 0.0049548346 
  155000    299.45005    4283.2502    23887.872    28.339192 -0.0062007938  -0.01773736 -0.0015097405 
  156000    292.34243    7348.6254    23887.872    28.893669 -0.012637521 0.0045922421 -0.0088889441 
  157000    297.72644    7526.6105    23887.872    28.989476 -0.0039229581 -0.0027277088 0.00071335384 
  158000    298.44634    6638.5684    23887.872    28.308169  0.013550111 0.00068185448 -0.0086391906 
  159000    298.09051    4566.2535    23887.872    27.939548 -0.009377111 -0.0023916628 -0.012789715 
  160000     303.8391    7492.0119    23887.872    27.255309 -0.0040101754 0.0032410538 0.0028366927 
  161000    299.58824    6869.1561    23887.872    27.114372 -0.0027226389 0.0049249707 0.00037409007 
  162000     305.9665    4178.2637    23887.872    27.498185 -0.0044484473 0.0039128637 -0.00064795975 
  163000    300.79946    7741.7002    23887.872     28.08734 0.0061009784 -0.0021046189  0.011523183 
  164000    296.12563    3034.4034    23887.872    28.671412 -0.0096928802 -0.0075013346 0.0072335876 
  165000    306.30078    5565.6925    23887.872    28.888255 -0.0062761548 -1.4142823e-05 -0.0022049436 
  166000    297.18599    6174.9454    23887.872    29.155578 -0.014277359 -0.0051640489 -0.0062665064 
  167000    303.89611     7582.754    23887.872    29.393783 0.0032992252 -0.0092660118 -0.0079590452 
  168000    302.68148    6865.0135    23887.872    28.950943 0.0047701553 -0.0086065603 0.0076181019 
  169000    301.28918    4856.6171    23887.872    28.637577 -0.0067151064 -0.011584218  0.010282351 
  170000    300.47792    4891.2656    23887.872    28.689559  0.007467018  0.010234675 0.00011222236 
  171000    304.41778    6494.2042    23887.872    28.409643 0.0025850235 0.0043942968 0.0084008999 
  172000    299.70742    4886.5095    23887.872    28.234897 -0.016134311  0.015085042 -0.0045485152 
  173000    299.70535    4936.5726    23887.872    27.877695 -0.0052522034  0.014042324 -0.00097250479 
  174000    297.14103    8029.9169    23887.872    27.123008  -0.00126144 0.0065174052 0.0045239105 
  175000    296.11788     6530.048    23887.872    26.668592 0.0039482094 -0.0081857199  0.017949812 
  176000    304.26147    4955.6013    23887.872    26.731431  0.010194197 0.0018942536 0.0066721174 
  177000    302.34228    6354.4589    23887.872    27.090451 0.0061893588 0.0039677935 -0.0073146436 
  178000    304.63219    8454.0591    23887.872    27.526166 0.0038890888 0.0050443516 -0.0067231135 
  179000    301.06449    8506.7055    23887.872    27.624749 0.0029917948 0.0030465738 0.0035812607 
  180000     299.6593    4090.4629    23887.872    27.368369 -0.0089513968 -0.0050230881 -0.0019768571 
  181000    301.00478    1977.6738    23887.872    26.930613 0.0034569517 -0.0020041914 0.0044654216 
  182000    306.63578     7557.984    23887.872    26.887065  0.012333934 -0.0074646928 -0.00052232578 
  183000     302.1716    6913.7847    23887.872     27.24958 -0.00069183816  0.021249644 -0.0085233305 
  184000    304.68468    3827.0116    23887.872    27.826425  0.012541754  0.010101291 0.0010080237 
  185000    300.99704    6493.6441    23887.872    28.842039 0.0032877665 0.0007338501  0.011388832 
  186000    292.14535    7362.7159    23887.872    29.161104 0.0065382569  0.017106765  0.012879599 
  187000    301.21844    6549.2691    23887.872    28.688053 -0.0064244327  0.011928489 -0.0022787665 
  188000    302.49961    7665.7794    23887.872    27.406829 -0.011247926   0.01106719 0.0076764325 
  189000    299.11708    5263.1783    23887.872    26.213618 -0.0067460357 -0.0042749862 0.0089077947 
  190000    292.18594    5544.2127    23887.872    25.946079 0.0027489614  0.004594252 -0.0013270096 
  191000    299.70427    3807.7163    23887.872     26.13778 -0.0024975771 -0.0037347508 -0.012034262 
  192000       297.63    6923.6999    23887.872    27.177581 0.0036763247 0.0057243452 0.00018950982 
  193000     299.0675    8029.7217    23887.872    28.149118 0.0018077029  0.010888395 -0.0017617564 
  194000    302.06997     5209.057    23887.872     29.00608 0.0069659568 -0.0077610823 -0.0017341536 
  195000    301.17047    5811.1512    23887.872     29.08129 -0.0029869926 -0.014856878 -0.010623452 
  196000    299.23326    7598.8044    23887.872    29.422268 -0.0028870043 -0.0014299833 0.0055618124 
  197000    299.34874    5727.7663    23887.872    29.227132  0.019187346 -0.0018373564 0.0012332302 
  198000    295.95049    3330.7342    23887.872    28.208047  0.023580716 0.0088113258 0.0082369303 
  199000    295.04953    7725.2869    23887.872    27.531874 0.0098346101 -0.0065856818 0.0041338675 
  200000    301.36663    6519.5274    23887.872     27.26313 -0.011865862 -0.012997013 0.0020683541 
  201000    297.23757    4614.4027    23887.872    27.135277 -0.0042087385 -0.002378295 0.0079595965 
  202000    294.43696    6843.6118    23887.872    27.472288 -0.0076535532 -0.0030276742 -0.004060093 
  203000    308.49038    8303.8293    23887.872     28.03604 -0.0051116652 0.0044574761 -0.0027906479 
  204000    298.86627    5577.3731    23887.872    28.565689  0.012989587 0.0042822329 -0.010619063 
  205000    294.30134    3996.1999    23887.872    29.376059 0.0013078216 -0.0011223001 -0.006038125 
  206000    296.71043    8123.8624    23887.872    29.997583 0.0014475736 0.0019750003 0.0037099498 
  207000    304.85671    6284.0576    23887.872    29.789048 -0.0026728515 -0.0095067406  0.003886164 
  208000    296.48332    7458.2477    23887.872    29.647426 0.0041607993 0.0012697654 -0.0021650735 
  209000    299.42452    6693.7699    23887.872     29.92771 -0.00031069577 -0.0039322573 0.0025003709 
  210000    296.43605    4002.9558    23887.872    29.927444 0.0049993803 0.0079908601 -0.0019313035 
  211000    299.92561    6738.2463    23887.872    29.946751 -0.0079713412 -0.0079060799 -0.011344841 
  212000    300.07342    6837.5285    23887.872    29.855112 0.0082045877 0.0058568497 -0.00046401444 
  213000    301.14653    4818.3296    23887.872    29.265302 0.0035313914 -0.0076820598 -0.0043178061 
  214000    302.68442    4979.5894    23887.872    29.223689 0.0035420727 0.0090773385 0.00062642095 
  215000    301.38552    5624.4222    23887.872    30.076396 0.0042601262 0.0080085649  0.012476129 
  216000    304.91845    8315.4658    23887.872     30.46094 -0.0065160197 -0.0056364196 -4.5083949e-05 
  217000    304.75762    3542.2547    23887.872    30.489219  0.013362471 -0.0087890102 -0.020612263 
  218000    306.00383    5711.8433    23887.872    30.332795 0.00063002252 -0.002358049 0.0061016385 
  219000    301.18467    7189.5432    23887.872    30.274712 0.0012897624 0.00077883457  0.011826587 
  220000    305.03402    5408.0189    23887.872    29.579565  0.005892037 9.7313683e-06 -0.0094880323 
  221000    298.35205    5364.8478    23887.872    28.395766 -0.014634796 -0.0071443371 -0.0053320764 
  222000    301.01937    7516.2206    23887.872    27.348296 0.0010130806 -0.017279094 -0.020054848 
  223000    302.84689    7016.6279    23887.872    27.112139 -0.0015604666 -0.021596354 0.0095661211 
  224000    302.75952      5881.86    23887.872    26.971449 -0.012609385 -0.0093784579 0.00062115809 
  225000    302.21833    4831.8566    23887.872    26.760985 -0.00051628427  0.014267143 -0.00055054979 
  226000     295.3436    4190.4587    23887.872    26.529472 -0.012689257 0.0084036865 0.0036016075 
  227000    306.49197    5645.5785    23887.872    25.912453  0.024232248 -0.0047787176  0.014793631 
  228000    302.97693    6626.8141    23887.872    26.027993 -0.010139301  0.012910768 -0.0051708991 
  229000    296.84348    7903.3809    23887.872    26.178883 0.0054800757 -0.0080514785 -0.0075216806 
  230000    301.01169    6024.9369    23887.872    26.417961 -0.0062335799  -0.01808424 -0.0030690955 
  231000    307.03853    4393.1934    23887.872    26.588106 -0.0080739507 0.00052274395 -0.0030861617 
  232000    296.46178    7985.3158    23887.872    26.725985  0.005308479 0.00046450704 0.0052810506 
  233000    303.77596    7333.4544    23887.872     27.58998 0.0056737236 -0.020666424  0.013171762 
  234000    299.59077    4973.4037    23887.872    28.454524 0.0094871066 -0.0054585301 0.0070369583 
  235000    304.44873    5178.6508    23887.872     28.96424 -0.0057369505 0.0026819402 0.0048693752 
  236000    300.58418    6255.0101    23887.872    28.334766 -0.0097684249  0.011360312 -0.0040050237 
  237000    296.59729    6429.1804    23887.872    27.740942 0.0074273801 -0.0023331443 0.0053479931 
  238000    302.89097    4877.7956    23887.872    26.973538 -0.0083637917  0.001392512 0.0027789619 
  239000    302.27928    7163.5114    23887.872     26.91603 -0.0055149679 -0.0066922906 -0.0079377577 
  240000    296.63214    7053.1634    23887.872    27.589405  0.015594117 -0.0049468338 -0.016961262 
  241000    300.45946    3542.3741    23887.872    27.935536 -0.014010308 -0.00085431609 0.00071549812 
  242000    300.35781    5498.4642    23887.872    27.723891 -0.0082646753 -0.011466719 -0.0090123022 
  243000    293.44021    8041.5015    23887.872     27.33705 0.0030945448 -0.0020034577 -0.0069274534 
  244000    297.22921    6238.5575    23887.872    26.890368 -0.0086256396 -0.0030608001  0.014945139 
  245000    296.34978    7479.6665    23887.872    26.877187 -0.0043198884  0.012117745  0.002762562 
  246000    297.06573    6085.6583    23887.872    27.487476 0.00095481768 0.00092723708  0.011514949 
  247000    295.33028    6655.7861    23887.872     27.80393 -0.0023977373 0.0040952501 0.0042781653 
  248000    297.78152    6512.0249    23887.872    27.972588 -0.014673405 -0.012376711 -0.0052441553 
  249000    301.09562    5790.3857    23887.872    28.392914 -0.0057313061 0.0037286729 0.0014360028 
  250000    292.98114    5663.8382    23887.872     28.44286 0.0029074329 0.0025665682  0.011325551 
  251000    299.26101    6036.1085    23887.872    28.518934  0.015889528 -0.00040866095   0.01415005 
  252000    309.61913    5581.1337    23887.872    28.298173 0.0012172813 0.0051205401 -0.011259046 
  253000    306.27518    7177.5115    23887.872    27.812745 -0.0067272399 -0.00015952955 -0.002971092 
  254000    299.16295    7760.1378    23887.872    27.412786 -0.010731063 -0.0091633567 -0.0012360568 
  255000    302.77037    4147.7479    23887.872    26.838032 0.0047102602 0.0053263719 -0.010139915 
  256000    297.65687    10178.439    23887.872    26.549918 -0.0046520627 -0.0084258202 0.0011433275 
  257000    297.80927    5934.7948    23887.872     26.49144 -0.0038815382 -0.002276167  0.013863901 
  258000    300.94189    3745.3234    23887.872    27.635986 0.0016928492 -0.008294827 0.0032380273 
  259000    294.26419    5412.0979    23887.872    29.018817  0.010886063 0.0049898266 -0.012554585 
  260000    296.11933    6554.1582    23887.872    29.870356  0.002156144 -0.0044058835 0.0061590268 
  261000    302.73717    6445.8587    23887.872    30.387188  0.018202942  0.013288669 0.0010881718 
  262000    302.25341    5993.5686    23887.872    30.221405  -0.01920657  0.010245856 -0.013472829 
  263000    304.54056    6682.6221    23887.872    29.394304 0.0073363701 0.0047673199 -0.0027805293 
  264000    298.81893    9035.0732    23887.872    28.658759 0.0020629862 0.0035113374 -0.014827809 
  265000    302.36808     5776.455    23887.872     28.12559 -0.00038383327 0.00081672959 -0.0041235237 
  266000    300.52634    3766.7098    23887.872     27.71317 0.0090662129   -0.0076253  0.001563589 
  267000    298.96091    6241.9212    23887.872    27.638327 -0.0089646972 0.0016590811 0.0016563524 
  268000    293.46168    9271.8158    23887.872    28.058285 -0.020107516 0.0057739212 -0.003268224 
  269000    300.18307    5373.7958    23887.872    28.759056 -0.0035728747 -0.015605794  0.004702426 
  270000    307.17954    2494.0699    23887.872    29.607489 -0.011985656 -0.003811465  0.012091218 
  271000     294.6913    7480.8446    23887.872    29.860631 -0.0017248255 0.0074326359 -0.0083414231 
  272000    295.01202      6571.47    23887.872    29.151135  0.012324988 0.0010495543 -0.0074792885 
  273000     303.7854    3392.5487    23887.872    27.828982 0.0063924168 -0.0071123282 0.0016888849 
  274000    305.47331    5466.4148    23887.872    27.155618 -0.0062792747 0.0069069755 -0.0095885278 
  275000    301.91454    6307.4494    23887.872    27.760517 0.00050568705 0.0020242089 -0.007829071 
  276000    308.63734    4637.1077    23887.872    28.661648 0.0015056677 -0.0040809628 -0.0061446403 
  277000    300.39394    5702.3059    23887.872    29.437254 -0.009102003 0.0044284309 -0.013318191 
  278000    297.20102     5735.185    23887.872    29.934651 -0.0076718407  0.012701718 -0.0041410583 
  279000    306.77709    6847.3714    23887.872    30.783675 -0.0087017524 -0.0077756172 0.00092866985 
  280000    297.02345    4121.1861    23887.872    31.349981 -0.0062950406 -0.0062332507 0.00068997313 
  281000     294.3753      4849.93    23887.872    31.352381 0.0076232744 0.0060358619 -0.0017722293 
  282000    303.16608    5651.2404    23887.872    30.537633  0.002940678 -0.0029919117 0.0077690437 
  283000     298.0631    8372.6402    23887.872    28.730144 -0.014935889 0.0043308478 0.0050837017 
  284000    302.85263    5388.3318    23887.872     26.87891 -0.0069418711 -0.014691158  0.017154896 
  285000    294.99633    5377.3817    23887.872    25.682537 -0.010689877 0.0012576499 0.0026231069 
  286000    300.86097    7309.8201    23887.872    25.838996 -0.0054092946 0.00073403243 0.0079970855 
  287000    297.33257    5607.6279    23887.872    27.042929 -0.00093569229 0.00016972247 0.0047380575 
  288000    299.17593    5514.2299    23887.872    28.263511 -0.018195798  0.012858905 -0.016737458 
  289000    291.66721    8578.1748    23887.872    28.878916 -0.0072782417 0.0045742277 -0.011596781 
  290000    295.89532    7311.0252    23887.872    29.377349 0.0052743169 -0.00076235552 0.0063316437 
  291000    298.03736     2736.074    23887.872    29.809022  0.015022901   0.01776003 -0.0012197114 
  292000    297.64827     4968.399    23887.872    29.833242  0.002603216 0.0029053659  0.005880691 
  293000    304.86277    8147.4008    23887.872    29.582512 -0.00053531416 -0.0050567726 -0.0037037479 
  294000    294.78616    4133.2752    23887.872    29.228289 -0.011054954 0.0092447357 -0.012520098 
  295000    293.51132    2966.4921    23887.872    28.871627 -0.0040687186 -0.0010379409 0.0016930963 
  296000    296.76684    5822.7068    23887.872    28.598912 -0.0068933274 -0.014559449 0.0094285239 
  297000    298.32494    10703.547    23887.872    28.555158 -0.0046897542  0.016194103 -0.010668289 
  298000    302.49879    6127.3476    23887.872    28.964675 -0.0078955005 0.0039099947 -0.0020716934 
  299000    301.15612    2644.2821    23887.872    29.119404 -0.00085093321 0.0081673235 0.0014152072 
  300000    298.49362    5643.8901    23887.872     28.70066 0.0026048546 0.0012481867 0.0071372705 
  301000    300.28911    10336.029    23887.872    27.898028 -0.018059122  0.014968855  0.015546666 
  302000    296.12366    4820.6467    23887.872    26.733552 -0.00028060124 0.0066757497 0.0077168966 
  303000    297.39972    4171.4547    23887.872     26.28625 -0.011884448  0.016694239 -0.0029836269 
  304000    299.58959    6369.0601    23887.872    25.588482 0.0044755025 0.00025342959 0.0096548132 
  305000    301.81431    7795.6095    23887.872    25.193415 -0.013522647  0.001106176 0.0091001023 
  306000    299.81592    5475.4653    23887.872    25.052739 -0.011837694 -0.0039666008 -0.0002767879 
  307000    294.84685    5614.2639    23887.872    25.655594 0.0027169115 -0.012582443 -0.0058932069 
  308000     309.2557    6519.5244    23887.872    26.367519 0.0023414529 0.0022710059 -0.0065183364 
  309000    300.63202    6680.4596    23887.872    26.449828 0.0018945909  0.014941564 -0.0020766173 
  310000    296.82997    4643.4357    23887.872    25.875941 -0.017527847 0.0097676618 0.0017405159 
  311000    307.28089    6057.7402    23887.872    25.351791 -0.015872416 0.00082059007 -0.001742485 
  312000    303.64838    5618.3959    23887.872    25.204066 -0.0051188511 -0.0021471319  0.011876819 
  313000    300.65995     5192.909    23887.872    25.988893 -0.0041056142 0.0058687105 0.0074272836 
  314000    301.67397    6430.0725    23887.872    26.728423 -0.00012810031 0.0015137227 -0.0061961452 
  315000    301.33441    6805.1023    23887.872    26.749087 -0.0028247871  0.017459757 -0.0029981169 
  316000    296.59121    7886.3294    23887.872    26.799783 -0.010885015  0.016178895 0.0097792735 
  317000    304.61769    4906.4964    23887.872    26.728924  0.010696804 0.0094785817 -0.0095446489 
  318000    296.07146    5629.7496    23887.872    26.728862 0.0094976008 -0.014772525  0.013511413 
  319000    313.36264    6714.1482    23887.872    26.669632 -0.0040757442 0.0055828267 -0.0079160573 
  320000    301.62822    7507.4456    23887.872    26.700115 -0.0089374342 -0.0083455242 -0.0049344755 
  321000    292.97228    5631.1892    23887.872    26.924946 0.0083974244 -0.0045452807 2.2846092e-05 
  322000    299.90609    4827.5704    23887.872    26.659608 -0.0067746462 -0.010044267 0.0070068712 
  323000    301.51567    6846.8191    23887.872    26.767294 0.0099882448 0.0052195742 0.0060700838 
  324000    296.39744    6990.6196    23887.872    26.757402 -0.0073192526 -0.0081225093 0.0072306065 
  325000    297.20252     2667.562    23887.872    26.480046 0.0013946737 0.0050244281  0.010765486 
  326000    292.89887    6177.0567    23887.872    25.980659 0.0015734727 0.00069059621 0.0043370911 
  327000    298.20268    9560.8103    23887.872     26.24488 -0.002976552 -0.0038646062 0.0058054837 
  328000    302.77887    4370.6544    23887.872    27.101604 0.0080376062 -0.00054899287 0.0031181434 
  329000    293.45453    3919.3587    23887.872    27.722883 -0.0060696997 0.00017726821 -0.002115358 
  330000    298.26952    7759.9364    23887.872    27.821379 -0.0016816846 -0.0086553585 -0.0024885429 
  331000    299.40365    7130.2371    23887.872    28.391244 -0.0053819887 -0.0030326853 -0.0090716839 
  332000     300.1046    3576.4072    23887.872    28.525962 -0.0051964755 0.0091262143  -0.01180624 
  333000    298.58523    6391.8386    23887.872    27.576394 0.0073580466 -0.0052119864 -0.0055957621 
  334000    296.56318    7632.4168    23887.872    26.438645 -0.0080347173 -0.010260307 -0.010427668 
  335000    294.82281    4970.9431    23887.872    25.948003 -0.0043661763 -0.0055948673 0.0028464361 
  336000    299.54677    6206.3376    23887.872    26.584224  0.012236643 0.0044634352 0.0070227811 
  337000    299.75744    6456.8522    23887.872    27.564661  0.015679943 0.0025042163 -6.5177453e-05 
  338000    297.63593    4828.5567    23887.872    28.017969 -0.0014300039  -0.01319907 0.0030747442 
  339000    294.12144    4071.2679    23887.872    27.150184 0.0064165045 -0.0080123341 -0.0021971823 
  340000    301.48768    7641.3474    23887.872     26.00941 -0.0076364193 -0.0027534226 0.0041947577 
  341000    298.14279    5668.9662    23887.872    25.277198  0.005410544 0.0047881203 -0.009503417 
  342000    294.88699    6508.2506    23887.872    25.292121  0.006175773 0.0037521856 0.0014377993 
  343000    300.66601    7261.3396    23887.872    26.673698 -0.0065703841 0.0044982879 -0.0080409346 
  344000    298.05167    5725.6588    23887.872    28.001378 -0.013029739 0.00026168133  0.002037347 
  345000    291.69849    4316.8713    23887.872    28.690442 -0.012087236 0.0070821389  0.005544498 
  346000    294.32549     5751.355    23887.872    28.715995  0.012432341 -0.0023944413 -0.0091230033 
  347000    295.05305    3265.4791    23887.872    28.125468  0.004741401 -0.0079046377 -0.0072501274 
  348000    299.46565    7393.7133    23887.872    27.421322 -0.0094483985 0.0033337825 -0.013735412 
  349000    300.46014    8222.3846    23887.872    26.880468 0.0011990506 -0.0018591453 -0.0026721747 
  350000    298.35527    6055.2771    23887.872    26.132859 -0.0023615311 -0.0085827921 -0.0021653136 
  351000    294.62419    3137.6803    23887.872    26.052681 -0.011296707  0.015055146 0.0049375267 
  352000    303.89542    6431.6325    23887.872    26.112522 -0.00028995774 -0.0031753366   0.01307055 
  353000    296.87489    8275.8472    23887.872    25.891712 -0.011125795 0.00030342327 -0.005418321 
  354000    305.22771     5068.334    23887.872     26.12365 0.0024952924 -0.0012854349 0.0017556994 
  355000    307.52042    3959.4248    23887.872    27.207499 0.0081905705 0.0053629314 0.00019015156 
  356000     299.1033    5130.6086    23887.872    27.685471 0.0072679885 -0.002861988 -0.004055951 
  357000    301.03677    7132.5942    23887.872    27.478186 -0.0056580177  0.021231341 -0.015396407 
  358000    301.11591    3875.1747    23887.872    27.322293 -0.007853838 0.0068323498 -0.012955329 
  359000    303.30682    4292.5184    23887.872     27.47791 -0.0018941149 -0.0016813955 0.00024170001 
  360000    307.02583    5710.8564    23887.872    27.836024 0.0027780928 -0.0041425158 0.0001978429 
  361000    293.56666    6924.9224    23887.872    28.373314 0.0020727514 -0.0057958684 -0.004091565 
  362000    305.19514    3827.1772    23887.872    29.112155 -0.0013327446 0.0055577192 -0.006031926 
  363000    298.69394    4461.8536    23887.872    29.809016 -0.0055592292 0.00036334237 -0.0015700042 
  364000    297.91277    7399.0586    23887.872    30.124456 0.0035489089 0.00013105103 -0.0072269968 
  365000    304.25656    6409.0205    23887.872    29.913526 -0.00034224623 0.0022858932 -0.016232996 
  366000    298.65861    5517.6223    23887.872    29.494276 -0.0086456132 0.0089496325 -0.0062744927 
  367000    302.93941    4751.5221    23887.872    29.474391  -0.01512845 0.0085960327 0.0015859376 
  368000    297.99836    6627.8601    23887.872    29.263431   0.01418854 -0.0042384342 -0.012986334 
  369000    295.73303    3134.6204    23887.872    28.784767 0.0077671223 0.0023650894 0.0048393358 
  370000    292.05321     7308.907    23887.872     28.59328 -0.0019680888 -0.0021307877 -0.0091336902 
  371000    295.69228    7152.1707    23887.872    28.326633 0.0044108759  0.005889287  0.012122793 
  372000    308.03653    2707.6879    23887.872    27.891413  -0.01412261 -0.0040782416  0.010241367 
  373000     297.2081    6288.9815    23887.872    27.240857 -0.00069642684  0.020949271  0.017024398 
  374000    308.38242    9006.8314    23887.872    27.757566  0.012682297 -0.0077399967 0.0020605764 
  375000    299.32451    2822.7893    23887.872     28.99989  0.011403007 -0.0017579133 0.0090025326 
  376000    296.17999    5125.8542    23887.872    30.052873 0.0027660744 0.0020002036  0.010418521 
  377000    301.10158    9349.3807    23887.872    30.054765 -0.0022042824  0.015705442  0.011219587 
  378000    301.01941    6081.5573    23887.872    29.839398 0.0031193268 -0.0051095606 0.0082210672 
  379000    297.66332    3695.2275    23887.872    29.078452 0.0066493209 0.0010328915 0.00013091385 
  380000    299.94625    7151.6261    23887.872    28.175258 -0.0061933495 0.0033143042  0.017301196 
  381000    302.75897     6266.389    23887.872    27.380364 -0.0072018526 -0.0086790581 -0.0025719223 
  382000    300.55306    7130.3631    23887.872    26.922322 -0.024175432 -0.014423744 -0.019267647 
  383000    296.02684    3354.3645    23887.872    26.151359 -0.0039170246 -0.009076181 0.0039464613 
  384000    298.17527    4704.1782    23887.872    25.175896 0.0029334414 0.0042277614  0.022449543 
  385000    298.23132    8742.7605    23887.872    24.643164 -0.007589694  0.012529452 0.0069547719 
  386000    300.87874    6586.2948    23887.872     25.24772 -0.0050286317 -0.0097231602 0.00081736214 
  387000    301.25615     3517.263    23887.872    26.429193 -1.396862e-05 -0.0074470146 -0.00026805177 
  388000    299.57566    6195.1969    23887.872    27.441143 0.00067217326  0.016369562 -0.013982664 
  389000    308.77579    6231.0229    23887.872    27.992259 -0.0055868934 0.00022679496 -0.0020576126 
  390000    300.58308    5491.0454    23887.872    27.706474 -0.0092626124 0.0034791682 -0.0041452237 
  391000    295.91066    3749.7767    23887.872    27.266379 0.0054462975 -0.0033020272 -0.0005138527 
  392000    302.38763    3993.3408    23887.872    26.455806 0.0044071784 -0.008747731 -0.0030984483 
  393000    299.18322    6431.4939    23887.872    25.658676 0.0065419186 0.0096889495 -0.012217552 
  394000    293.59332    5399.4129    23887.872    24.795511 0.0053288595 -0.0068755031  0.013754424 
  395000     295.0326     4699.202    23887.872    24.338029 0.0032415951 -0.0013691657 -0.0061720617 
  396000    298.26373    5637.2679    23887.872    24.862807 0.0010136542 -0.0086992812 0.0085871689 
  397000    302.02054     7474.317    23887.872    26.447519 -0.0073664412 0.0023570958 -0.0012234739 
  398000    299.48604    3737.5536    23887.872    27.789254 0.0002213742 0.0033546311 0.0063855086 
  399000    296.84796    4547.9001    23887.872    27.910435  0.011787939 -0.0022859881 -0.014991872 
  400000    302.11428    8091.2703    23887.872    27.535307 -0.0020444966 -0.008113277 0.0032321533 
  401000    301.97342    5672.3322    23887.872     26.81274 0.0043778511 -0.0031841428 0.0081154519 
  402000    297.89286    3221.3495    23887.872      26.4687 -0.0010689859 -0.001520605   0.01347291 
  403000    303.15632    7697.7763    23887.872    26.628144  -0.01546182  0.010974284 0.0055741389 
  404000    305.29237    7723.7481    23887.872    27.417293 -0.0033436532  0.012463551 -0.0098829881 
  405000    301.02951     3982.594    23887.872     28.56563 -0.016244171 0.0056015037 -0.0080301788 
  406000    303.47213    5185.3208    23887.872    29.058927 0.00065096433  0.011203164 -0.0024845836 
  407000    302.30203    7572.2615    23887.872    28.070174 -0.0015017069 -0.022105631 -0.0050730164 
  408000    297.55094    6077.4966    23887.872    26.505049 -0.0011724265 -0.00046620778 0.0080897708 
  409000    296.34388    4356.8875    23887.872    25.085451  0.010778783 -0.0026653049 -0.0055020146 
  410000    295.37915    6896.5202    23887.872    24.586929 0.0026297353 -0.00026419955 0.0044547763 
  411000    294.47233    4949.2135    23887.872    25.462585 -0.0095242403 0.0022354828 -0.0027364696 
  412000    300.02333    5338.6277    23887.872    25.785952 -0.0062026591 -0.001826257 -0.0034779306 
  413000    301.80215    6631.7744    23887.872    26.207813 -0.0021825271 -0.011647706 -0.0018638825 
  414000    304.83383    6066.4392    23887.872    26.842081 0.0084396666 0.0061362505 -0.0021680292 
  415000    298.35762    6218.6678    23887.872    26.950198 -0.0072030034 0.0030011289 -0.023126171 
  416000    303.23933    6023.9095    23887.872    26.713844 0.0038245375 -0.001041026 -0.014239317 
  417000    299.42002    5074.5717    23887.872     26.23241 0.0091161928 0.0016925502 -0.0056872867 
  418000    298.88582     6133.085    23887.872    26.241278 -0.00044873249 -0.0083613915 -0.0097771287 
  419000    299.44221    10712.765    23887.872    27.068549 0.0080559467 0.0037337182 -0.0015267115 
  420000    298.47721    5574.8371    23887.872    28.127829  0.010624594 -0.0047267753 -0.017341208 
  421000    296.19351     4299.656    23887.872    28.519682 0.0049334938 0.0067029698 -2.935647e-06 
  422000     299.2654    8583.6254    23887.872    28.353502 0.0025036641 -0.0018438211 -0.0050369642 
  423000    296.86457    5746.7999    23887.872    27.408187 -0.0032019625 0.0032373649 -0.0060424889 
  424000    300.59184    2228.7799    23887.872    26.200247 -0.0020903416 0.0094790447 -0.011371211 
  425000    297.94769    7560.0773    23887.872    25.438164 0.0065565957  0.014545472 -0.0075402898 
  426000    298.26134    7250.9264    23887.872    24.712583 0.0055338628 0.0092271979 -0.0085358303 
  427000    307.34752    4167.4892    23887.872    23.709883 0.0074170211 0.0076392805  0.012810721 
  428000    298.61857    5503.8973    23887.872     22.97376 -0.0010132748 -0.0076468593 -0.0017008337 
  429000    298.50418    6029.1262    23887.872    23.488435 0.0050939879 -0.0034861263 -0.0083113572 
  430000    297.05488    5423.5419    23887.872    25.356426  0.011759361 0.0051694589 -0.0054196355 
  431000    303.53361    1964.9741    23887.872    26.969237 0.0045270523 -0.00052125311  -0.00118889 
  432000    299.95687    6238.0281    23887.872    27.891584 0.0052737015 -0.0055832533 -0.0053278583 
  433000    303.04081    6002.5796    23887.872    28.311965 -0.0012286765  0.011970608  0.010250965 
  434000    299.92585    6862.7275    23887.872    27.822355 -0.0021697039  0.010285156 0.0021308049 
  435000    297.30752    4246.4205    23887.872    26.903076 0.00045699457 0.0072732842 0.0049284721 
  436000    295.74153    6419.8165    23887.872    26.498087 -0.0066533541 -0.0046243445 -0.0035122441 
  437000    300.48623      4957.21    23887.872    26.354956 -0.011017729 -0.0034253861 -0.0024411271 
  438000    303.67641    3842.1969    23887.872    26.471472 -0.0027830528 0.0028308198 -0.0012272989 
  439000    298.34278    7441.9163    23887.872    27.046116 -0.0051575671 0.0018066094 -0.017252693 
  440000    300.01555     6685.682    23887.872     28.06601 0.0012199114 -0.0091333584 -0.0012078537 
  441000    306.98042    5416.4671    23887.872    29.324194 -0.0035328955 0.0076635963 0.0032671246 
  442000    301.93518    3995.2387    23887.872    30.115011 0.0086752202 -0.00061903477 -0.005016168 
  443000    297.64502    7558.0134    23887.872    30.365551 -0.0053461787 -0.00070718974 0.0087160638 
  444000    305.32277    6587.5206    23887.872    30.546807 -0.00039449732 0.0071704662 -0.00092831772 
  445000    298.24222    5187.3408    23887.872    30.584758 0.0032129149 -0.0049158843 0.0020059733 
  446000    295.43682    3959.2855    23887.872    29.995515 -0.0050355587  0.009337605 0.0016962001 
  447000    296.46011    6065.7905    23887.872    29.023925 -0.0015656327 -0.00088435515 -0.0082164928 
  448000    296.16161    6512.2903    23887.872    28.298271  0.010880008 -0.0041042156 0.0021937989 
  449000    297.93322    6540.7213    23887.872    28.059406 -0.0052664675 -0.0014641493 -0.0043740434 
  450000    297.11492    4534.3287    23887.872    28.159688 0.00084640372 -0.0048697262  -0.01755828 
  451000    299.69948    6281.6081    23887.872    28.216277  0.011277962 0.0020027078 -0.0095785871 
  452000    300.48134    6248.4306    23887.872    28.195118 0.00089144615 0.0070565043 0.0060040695 
  453000    298.63242    4129.6125    23887.872    27.584401 -0.0062989111 -0.00048742068 -0.0047883151 
  454000    299.90187     8770.228    23887.872    27.318142 0.0023372278 0.0028960169 -0.00076752899 
  455000    299.66877    6778.4892    23887.872    27.039048 0.0050907863 0.0069329517 0.0033465213 
  456000    295.40293    2620.6973    23887.872    26.896037 -0.00042669101 -0.0054436142 -0.018359084 
  457000    297.40589    6220.1562    23887.872    26.528075 -0.0091289028 -0.0030030515 0.0027284061 
  458000    301.59048    6481.6004    23887.872    25.744437 0.0097692167 0.0078418681 -0.013876454 
  459000    299.41523    3935.1584    23887.872    25.473801 0.0091563437 0.0043884367 -0.013260859 
  460000    305.68034    5475.2101    23887.872    25.475278 0.0097547381 0.0031876462 -0.0089630531 
  461000    297.72495     8783.346    23887.872    25.338518 0.0094097237  0.014213948  0.010164646 
  462000    296.95247    6936.6577    23887.872     24.96897 0.0051649732 0.0059831315  0.014941674 
  463000    293.83666    4255.7028    23887.872     24.89842 -0.004462727 -1.6061929e-05  0.002331508 
  464000    294.05063    5666.1403    23887.872    24.764168 -0.0054804751 0.0038620682 0.0014854248 
  465000    293.85259    8954.7517    23887.872     24.42325 -0.00056302741 0.0088000297 0.0089471226 
  466000    306.47534    6905.9561    23887.872    24.425939   0.01029109 0.0046394108 -0.0029526613 
  467000    292.15484    5398.3349    23887.872    25.112415 -0.007071658 0.0065292037 -0.0022661904 
  468000    301.01691    4385.1934    23887.872     25.96579 -0.0039269071  -0.00706819 -0.00053117117 
  469000    301.40707    5179.8762    23887.872    26.483326 0.0084225543 0.0097026814 0.0028463496 
  470000    300.56326    6554.4195    23887.872    26.497933 0.0018767973 -9.5948523e-05 -0.024509653 
  471000    301.13746    6032.0541    23887.872    26.337691 -0.0065361193  -0.01802886 0.00066766003 
  472000    292.38915    4463.0567    23887.872    25.708586 -0.004510856 -0.00084392586 -0.002847213 
  473000    297.24479    3923.2569    23887.872     25.04854 0.0049670773  0.008252449 0.0056061819 
  474000    302.87342    6103.7759    23887.872    24.965341 0.00010522381 0.0089911059  0.001173919 
  475000    302.24513    7124.0903    23887.872    24.922223 0.0024054181 -0.0020573265 0.0098035629 
  476000     309.1743     5749.462    23887.872    25.506549 0.00097132586 0.0059190295 -0.0052048858 
  477000    302.49437    6196.0682    23887.872    26.390772 0.0090574734 0.0004545859 -0.010999364 
  478000    300.71811    6038.6767    23887.872    27.342998 -0.007929908 0.0073791593 -0.0069253292 
  479000    299.94878    3781.7782    23887.872    27.494579 -0.0088110044 0.0063752592 0.0029709793 
  480000    297.60629    5432.8239    23887.872    26.788272 0.0063556927 -0.0024954948  -0.01784388 
  481000    290.56323    5412.0126    23887.872    26.256283 0.0060635833 0.0050426594 0.0056455176 
  482000    292.82077    5198.6815    23887.872    26.098666 -0.015967564 -0.0053626838 0.0095833763 
  483000     299.2476     5624.282    23887.872    26.331138 0.0039355358 0.0016675503  0.025248578 
  484000    299.52353    5533.9791    23887.872    26.412921 0.0050233859 0.0031288411  0.011753392 
  485000    289.52192     5553.288    23887.872     26.75369 0.00042048662 0.0024452608  0.014306955 
  486000    302.33753    5563.1857    23887.872    27.138651 -0.0036709757 0.00026998917  0.017271234 
  487000    298.80348    4608.7218    23887.872    27.338465  -0.01151645 0.0066889009 -0.001801567 
  488000    298.93121    7079.9374    23887.872    28.050674 -0.0049978766  0.004394843 -0.0098454523 
  489000    302.50968    5814.9598    23887.872     27.91182 0.0087683887 -0.007985705 -0.013551817 
  490000    295.59289    5221.1155    23887.872    27.351832 -0.0011901638 -0.012090687 0.00075211179 
  491000    295.17297    5911.5479    23887.872    27.104321 0.0059914168 0.0025957884 -0.0076842279 
  492000    293.17193    6113.0736    23887.872    26.581762 0.0095598013 -0.0069514346 -0.0082524847 
  493000    291.98349    5677.7071    23887.872    26.204019 0.0038081603  0.017097115 -0.0043628287 
  494000    303.44974    5740.3865    23887.872    26.651782 -0.0058685401 -0.0063776754 -0.0030150012 
  495000     300.2823    4130.1901    23887.872    27.689774 -0.000816805  0.011572082  0.014033643 
  496000    300.56889    8832.0068    23887.872    27.555562  0.006920937 0.0033007227 0.0030446727 
  497000    298.71436    7216.9386    23887.872    26.577184  0.022794367  0.013784032 0.0097478061 
  498000    294.84605    3210.8876    23887.872      25.6964 -0.0031411442 0.0046619539 -0.0066396811 
  499000    297.23406    8811.9362    23887.872    24.735657 -8.3285067e-05  0.012544105 0.0089936054 
  500000    300.48014    7109.3163    23887.872    23.671448 -0.012423205 0.0080515494 0.0012392522 
  501000    296.22403     5782.627    23887.872    23.006897  0.001070409 -0.017217621 -0.0025478466 
  502000    306.57805    4605.7673    23887.872    23.075691 -0.0059989016 0.0010841968 0.0029388357 
  503000    296.28087    5280.8399    23887.872    23.480048 -0.001817752 0.0037566869 0.0077612499 
  504000    293.11877    6473.8922    23887.872    23.849355  0.010513482 0.00056488479 -0.00040811022 
  505000    300.40171     3820.059    23887.872    24.563477 -0.0032278237 0.0014843254 -0.005419141 
  506000    290.64211    2674.8611    23887.872    25.606155  0.012490798 -0.00054516354 -0.015358137 
  507000    295.96079    8412.3062    23887.872     26.94109  0.010272791 -0.0052377624 -0.0025193741 
  508000    289.68482    7869.1216    23887.872    27.146372  0.012174851 0.0060804749 0.0058292676 
  509000    298.77601    2628.9009    23887.872     25.91899 -0.0052230026  0.018205968 0.0057721782 
  510000    299.18953    3131.8918    23887.872    24.826159 -0.002138477 -0.0041924816 -0.0069207332 
  511000    296.69744    6580.4945    23887.872    24.114838 -0.0055414871  0.014600219 -0.011474705 
  512000    295.47671    7667.1809    23887.872    23.264379 -0.0015236144 0.0044232346 -0.0066727465 
  513000    303.87013    5505.7484    23887.872    22.952407 0.00028133674 0.0033769354 -0.0020243892 
  514000     301.9438    2667.0911    23887.872    23.953014 -0.0050650693 -0.014748336 -0.0057397328 
  515000    300.68692    3928.7225    23887.872    24.807163 -0.0025370511  0.005645211 0.00040739578 
  516000    300.09605    7511.4991    23887.872    25.837041 -0.0024527237  0.010409505 0.0098169091 
  517000    301.61229    6530.9393    23887.872    26.370678 0.0013545207 0.0023108369 -0.0068843396 
  518000    290.54322    4100.2929    23887.872    26.758089  0.007548823 0.0084541877 -0.0061550421 
  519000    299.39105    4935.9703    23887.872    27.059558 -0.0040604413 -0.0059705816 0.0040219287 
  520000    295.26314     6512.412    23887.872     27.31622 0.0077125053 0.0016169188 0.0011223284 
  521000    296.90696    5052.2214    23887.872    27.214807 0.0015365137 0.0068858012 -0.0074664422 
  522000    295.71993    4783.6788    23887.872    27.541365    0.0145476 0.00021145233 -0.0026595742 
  523000    304.39588    5726.7899    23887.872    27.854093 -0.0064527286  0.012548751 -0.0029349055 
  524000    305.03916    6094.1738    23887.872    27.559641 0.0077573865 -0.0048744931 -0.0013436443 
  525000    301.02095    6927.3384    23887.872    26.953934 -0.0031164562 0.0097358849 -0.0072624376 
  526000    300.85515    5083.8069    23887.872    26.492264 0.0063943261  0.013780258 -0.015664048 
  527000    295.13505    4594.8157    23887.872    26.452132 0.0037127506 -0.0039550403 -0.0027921608 
  528000    298.48806    4738.0474    23887.872    26.730674 0.0016276043 -0.0083394855 -0.010066554 
  529000    291.50802    7766.3554    23887.872    26.344054 0.0040957107 -0.001769893  -0.01385387 
  530000    292.60644    6042.9489    23887.872    26.382605 -0.0082697683 0.0011447643 0.0020634362 
  531000    295.74309     4495.176    23887.872    26.612714  0.014232969 0.0090905405 -0.0041579585 
  532000    298.93916    6228.9983    23887.872     26.59372 -0.0010162106  0.005032344  0.012348932 
  533000    294.08945    4485.1534    23887.872    26.360854 -0.00024421306 0.0034276846 0.0099174892 
  534000     297.3919    6108.6167    23887.872    26.229711 -0.013779804 -0.011412779 0.0013711171 
  535000    297.31303    7566.7022    23887.872    27.173092 -0.013929108  0.014498818   0.00209823 
  536000    305.73858    6152.4258    23887.872    27.580489 -0.0032970951 0.0062049998 0.0017193898 
  537000    296.52154    5604.3972    23887.872    28.171884 -0.0051609424  0.014967943 -0.0045378795 
  538000    304.70724    4211.6098    23887.872    28.768351 -0.001795216 0.00066820862 -0.0014775841 
  539000    303.54863    5006.8594    23887.872    29.102772 -0.0075617619 -0.00072318538 0.0032443674 
  540000    294.79468    8859.4048    23887.872    28.888801 0.0011092765 0.0022148686 -0.013121919 
  541000     293.0247    2506.7675    23887.872    28.615613  0.015265597 0.0076771055 7.4675661e-05 
  542000    298.40918    2999.9222    23887.872    28.008039  0.015242847 -0.0033831127 -0.0021986793 
  543000    304.94944    8604.7447    23887.872    27.310302 0.0031706146  0.010334045 0.0051690362 
  544000    304.31634    8761.4644    23887.872    26.827838 0.0049617721  0.011574403 0.0057921689 
  545000    303.95478    3631.0015    23887.872    26.643434 0.0014627772 0.0062446869 0.0091450312 
  546000    294.98818    4676.6307    23887.872    26.718528 -0.010771916 -0.0060741854 0.0082096822 
  547000    300.46571    7013.6232    23887.872    27.034246 -0.0024819237 0.0052232853 -0.013500822 
  548000    298.58623    7575.9916    23887.872    27.389224 0.0044625784 -0.0077534769  -0.01400539 
  549000     297.0093    5229.6498    23887.872    27.736657 0.00091217527 -0.0032486459 0.0078949276 
  550000    294.98568    4711.4228    23887.872    26.971519 -0.001397076 0.0079340815 -0.0031124904 
  551000    298.62134    6106.8266    23887.872    26.888551 0.0047030802 0.0044888068 -0.0046253881 
  552000    298.74325    6592.4383    23887.872    27.110977 -0.0081886862 -0.0093687343  0.004189069 
  553000    298.38865    5535.8369    23887.872    26.933651   0.00543186  -0.01052465 0.0052732532 
  554000    300.93754    5696.8762    23887.872    26.388899 -0.0055958248 0.0076814318 0.0014816459 
  555000    297.55398    5454.0349    23887.872     26.15022  -0.01009488 0.0057251896 0.0062790548 
  556000    297.71451    5438.3257    23887.872    25.862908 -0.017441281 -0.0049451636 -0.0023965081 
  557000    295.39962    5692.8869    23887.872    26.302842 0.0032974755 0.00059283131 -0.0070513472 
  558000    301.94631    5847.8151    23887.872    26.940031 -0.015000522 -0.00041659797 -0.013201577 
  559000    303.47651    5121.4719    23887.872    27.191741 0.0023656227 -0.002052903 0.0031398836 
  560000    300.14401    8082.1084    23887.872    28.031694 0.0072139256  0.017504843 -0.0034585292 
  561000    302.45129    4584.6135    23887.872    28.874068 -0.008452411   0.00718996 -0.00010201256 
  562000    296.26988    5364.9912    23887.872    29.236377 -0.0025107624 0.0009913755 -0.0042824728 
  563000    298.41204    4838.1922    23887.872    28.727879 -0.010255597  0.011640482 0.0062311784 
  564000    304.73997    4871.0105    23887.872    27.933629 0.0071273917 0.0046877787 -0.015635483 
  565000    306.39066    8438.1077    23887.872    27.076161 0.0025463199 0.0043687445 -0.010816662 
  566000    301.65794    6477.8882    23887.872    26.565575 0.0073895627   0.00499636 0.0049972833 
  567000    301.36369    3194.4934    23887.872    26.393309  -0.01020343 0.0065214554 -0.0095288977 
  568000    300.55968    4549.8324    23887.872    26.316308  0.011924003 -0.00099251296 0.0051649802 
  569000    295.77429    8115.0319    23887.872    26.182389 0.00099708729 -0.0019198617 0.0046255472 
  570000    292.44605    4381.3274    23887.872    25.786722 0.0069529413 0.0049735888 0.0018101143 
  571000    299.55273    5807.8628    23887.872    25.796374  0.017703761 -0.0099453506 -0.005819535 
  572000    301.33377    5979.0488    23887.872    26.539392  0.014116913 0.0060273323 0.0014684505 
  573000    305.63017    6944.2293    23887.872    27.346781 -0.0028290313 0.0018013528 0.00010751215 
  574000    294.62317    6326.2745    23887.872    28.231282 -0.013675149 -0.0017327963 0.0048567859 
  575000    300.70309    5944.6497    23887.872    28.697858 0.0056264952 0.0065127452 -0.00053014046 
  576000    299.23854    6968.7938    23887.872    28.522098 0.00094804634 -0.009752085 0.0004090255 
  577000    290.92073    4995.8213    23887.872    27.842977 -0.0052997019 -0.0060619944 -0.0027510837 
  578000    294.41701    3528.2213    23887.872    26.608292  0.014125805 -0.009660689 0.0071186171 
  579000    300.95943    4892.6776    23887.872    25.262327  0.017166601 -0.0083771496 -0.003251127 
  580000     301.4365    5814.1735    23887.872    24.346176 0.0027276964 -0.0082695828 -0.00094063222 
  581000    302.95109    5056.6883    23887.872    24.340428 -0.004288186  0.027392013  0.007737191 
  582000    303.07077    5661.9601    23887.872    24.728467 0.0016984975 0.0049169477 0.0011101806 
  583000    297.31795     5767.575    23887.872    25.156973 -0.0093357876 0.00066646731 -0.012966924 
  584000     299.6558     3580.476    23887.872    25.665988 0.0081933013 0.0034223126 0.0036631697 
  585000    300.17096    4478.9566    23887.872     26.31598 -0.0063217753 -0.0049477473 -0.0023286619 
  586000    298.81344     7077.275    23887.872    26.552292  0.015204707 -0.0050507225 -0.0014172254 
  587000    300.54925    4210.5785    23887.872    25.817799 -0.019952563 0.0072581093  0.013027073 
  588000    296.79541    4979.3313    23887.872    24.738203 0.0076653561 -0.0050261695  -0.01168843 
  589000    305.12086     6468.293    23887.872     24.25877 -0.0086773413 -0.017631871 0.0023890843 
  590000    297.96937    8865.5995    23887.872    24.780287  0.001521493 -0.00095042877 -0.010340416 
  591000    295.00198    2382.5192    23887.872    25.563904 -0.0027607494 0.0044345877 -0.0089518409 
  592000     296.1623    5548.7563    23887.872    26.826354 -0.0022247908 0.0023029513 -0.004466447 
  593000    298.02638    7950.9457    23887.872    28.151614 -0.0030136585  0.004541706  0.001568486 
  594000    296.11787    6652.7485    23887.872    28.684842 0.0053840894 -0.001116924 0.0024450063 
  595000     297.3534    3661.2858    23887.872    28.840793 0.0073281514  0.011195297  0.007555853 
  596000    294.31795    4851.6056    23887.872    28.929601 -0.0040719383 0.0072488568 0.0055672949 
  597000    289.15692    5995.3642    23887.872    28.963211 0.0072351684 0.0045857957 -0.0066738344 
  598000    295.13759    5683.1376    23887.872    28.768077  0.014142951 0.0068654936 0.0057055221 
  599000    300.10057    3730.8347    23887.872    28.218614  0.011985493 -0.0072178545 -0.00028359865 
  600000    300.79964    6078.4778    23887.872    27.683442 0.0038903601 0.0056228623 -0.0013016208 
  601000    302.94394    4901.2271    23887.872    26.962944 -0.0012049411 0.0027636291 -0.011414848 
  602000    297.02016    6759.0618    23887.872    26.125293 0.0023473447 -0.0073442161 0.0064675639 
  603000    301.91489    4678.7351    23887.872    25.550452  0.011140558 -0.0069394156 0.0069236751 
  604000    298.12682     5881.697    23887.872    25.987553 -0.015473036 0.0097519362 -0.00054204187 
  605000    298.79966    5215.4016    23887.872    25.846738 -0.0065625132 0.0098495393 -0.00037708511 
  606000    302.41395    3773.7844    23887.872    25.254471 -0.0056419057 0.00084004955 0.0013593915 
  607000    302.26477    7369.7903    23887.872    24.941316 0.0017699809 -0.0030114101  0.012553571 
  608000    303.47491    4376.9343    23887.872    25.365301 -0.006606934 -0.0030311037  0.012312016 
  609000    301.40307    4484.9504    23887.872    26.604031 -0.013105844 -0.017257994  0.010870884 
  610000    301.36089    4960.5729    23887.872    27.959382 -0.00092908815 -0.012813013 -0.0036102495 
  611000    298.41223    7110.6041    23887.872    28.797803 0.0016564593 -0.0017807508 -0.0043225018 
  612000    297.95162    4038.3483    23887.872    28.899507 -0.0032389429 0.0051894032 -0.0058924251 
  613000    299.29033    5656.4472    23887.872    28.510876 -0.0040583253  0.012677082 0.0028690401 
  614000    294.95856    6175.9416    23887.872    27.734933 0.0029490963 7.1669757e-05 -0.0026397705 
  615000    293.47983    5833.7999    23887.872    27.034897 0.00089047052  0.021967877 -0.015819925 
  616000    293.65643    8438.7207    23887.872    26.643467 -0.014069252 0.0097147169 -0.013593321 
  617000    296.86395    4490.5966    23887.872    26.711141 0.0053187111 -0.0010519888 -0.0058546942 
  618000    300.06062    4382.4529    23887.872    26.925528 -0.011801886 0.0080989683 0.0088994188 
  619000    304.86129    5160.3866    23887.872    27.425151  0.020511144 0.0070219072 0.0072419437 
  620000    293.52383     7245.516    23887.872    28.001797 -0.0077814396 -0.0092078488 -0.017305808 
  621000    302.77961    5997.6617    23887.872    28.549427 0.0072069451 0.00053564125  0.009859031 
  622000    296.58663    4566.4682    23887.872    28.881482 0.0078131539 -0.0047926902 -0.0016097482 
  623000    301.27218    7931.8518    23887.872    29.014165 0.00066536346 0.0091656676 0.0059928411 
  624000    298.29642    6893.8416    23887.872    29.104392  0.009572542  -0.01544144  0.018131393 
  625000    298.17488    3871.5476    23887.872    29.276422  0.001521584   0.01282086 0.0026495872 
  626000    303.27468    5409.0897    23887.872    29.304753  0.014302619 0.0039097713 -0.0050766344 
  627000    297.52863    5577.0668    23887.872    29.349476  0.010303652 -0.0061310241  0.024496791 
  628000    302.04712    7456.2318    23887.872    28.714955 0.0088199076 -0.0085051248 -0.0026868925 
  629000    300.87191     4950.773    23887.872    28.244668 -0.00035299878 -0.0015295941 -0.0039346333 
  630000    301.55431    6397.4944    23887.872    27.897148 0.0028089044 -0.00011697609 -0.012107595 
  631000    303.07486    4042.3474    23887.872    28.342986 -0.0027507894 0.0081613307 -0.0030123777 
  632000    302.88893    3147.2104    23887.872    28.681646 -0.0021545332 -0.011095021 -0.010939375 
  633000     302.2455     8949.666    23887.872    28.849196 -0.0056153722 -0.0023774732 -0.010969248 
  634000    299.92549    8389.6589    23887.872    29.166968 0.0099572408 0.0053995579  0.011057812 
  635000    300.24501    804.85088    23887.872    29.031468  0.003602253 -0.0016418976 0.00015433383 
  636000     295.7931    4170.4276    23887.872    28.890818 -0.0027099881 -0.0043605833 -0.0056782119 
  637000    302.34883    9926.5076    23887.872    28.780724 -0.010722436  0.012653711 0.00062919005 
  638000    305.87039    5345.5007    23887.872    28.271125 -0.0082469686 0.0075339424  0.005507462 
  639000    303.38139    4600.3204    23887.872    27.895894 -0.006093457 -0.0016695003  0.012542509 
  640000    302.47324    3265.9468    23887.872    27.627267 -0.010854459 -0.0059902742 -0.0034779519 
  641000    293.94543    5564.0715    23887.872    27.681339 -0.0010049234 0.00061060859 0.0065392142 
  642000    301.59724    7593.4875    23887.872    27.687387 0.0094827447 -0.012489446 -0.0045150261 
  643000     295.0475    5642.0136    23887.872    27.515071  0.014360793 0.0053343513 -0.0069536838 
  644000    292.70782    3795.4336    23887.872     26.77219 -0.0035638246 0.0041103599 0.00037688025 
  645000    298.48792    5066.5355    23887.872    26.686307 0.0017268029 0.0092897303 0.0069948847 
  646000    301.70964    7661.7169    23887.872    26.519571 -0.004531256 -0.018071694 -0.0049206347 
  647000    303.75413     6877.555    23887.872    26.306351 -0.00097520684  0.010622874 -0.001643595 
  648000      295.335    4718.1188    23887.872    26.493884 0.0084648658 -0.011698013 -0.012050077 
  649000    297.45332    4433.3536    23887.872    26.677731  0.018880084 -0.00095308786  0.013793265 
  650000    298.15659    5774.0715    23887.872    27.564103  0.010019462 -0.0032963341 -0.0034948975 
  651000    296.24803     5428.104    23887.872    28.818556 -0.0084575175 0.0064922521 -0.001427688 
  652000     300.1396    6666.9609    23887.872    30.247328 0.00091804926 0.0017310466 -0.010044776 
  653000    297.76717    6060.8702    23887.872    31.011094 -0.0088375524 0.0063871572  0.011308177 
  654000    294.95682    4383.7683    23887.872    30.603662 -0.0066582281  -0.01547673 -0.0080428079 
  655000    299.82818    4062.4814    23887.872    29.523671 0.0047354925  0.012527387 0.0069544954 
  656000    300.55714    7121.3715    23887.872    28.232199 -0.0014568382 4.1221018e-05 -0.0080541858 
  657000    304.43891    4281.3231    23887.872     27.80034 0.0083747674 -0.0041229999 0.0074825334 
  658000     305.9037    3850.3717    23887.872    27.542183  0.015774306 0.0075608134 -0.0089371202 
  659000    297.76301    3675.6093    23887.872    26.800706  -0.01050523  0.012411689 -0.025362964 
  660000     297.1954    6630.4265    23887.872    26.142092  0.010357219 0.0044697731 -0.012838723 
  661000    301.35039    7571.1018    23887.872    26.389275 -0.0099641827 -0.0033277345 0.0038334444 
  662000    289.80709    4087.8012    23887.872    26.163714 0.0048695452 -0.0033588569  0.012347638 
  663000    297.56747    3219.3708    23887.872    26.240799 0.0081454583 -0.013760034 0.0017758908 
  664000    300.93251    7149.8357    23887.872    26.549261 0.0008034954 -0.0035572728  0.002946202 
  665000    292.21875    6630.6377    23887.872    26.991018   0.00911906 -0.0071540947 -0.0033611103 
  666000    302.52367    4399.0903    23887.872      27.2869 -0.0059043879 -0.011196928 -0.004429675 
  667000    299.47648    7369.8709    23887.872     27.53958 -0.012180241 0.0076319486  0.010807534 
  668000    310.24849    8218.4466    23887.872    28.198329 0.0078785504 0.0055170082 0.0020942336 
  669000     298.4425     3214.054    23887.872    28.793941  0.007697283  0.013037935 -2.0186886e-05 
  670000    300.34438    1995.4885    23887.872    28.775109 0.0071275699 -0.0085619341 -0.0072557898 
  671000    292.31808      7546.58    23887.872    28.517554 -0.016532323 -0.00040971583  0.011701784 
  672000    295.97803    7772.9082    23887.872    27.462132 -0.003441024 -0.0023372186 0.0020196024 
  673000    290.96248     4264.407    23887.872    26.307744 -0.0043770607 -0.0045641867 -0.012061202 
  674000     300.3981    3492.1379    23887.872    25.714714 -0.0013451201 0.0026769092  0.016741794 
  675000    292.93652    5146.0746    23887.872    25.728613 0.0084542549 0.0017591304 -0.0014115444 
  676000    294.25309    6536.0654    23887.872    26.537356 -0.0016894705 -0.0043131811 0.0041783003 
  677000    296.69563    5494.4517    23887.872    27.411019 -0.010415079 -0.0021427533 0.0064084491 
  678000    304.72335     8035.562    23887.872    27.453003 0.0026927337 0.0024234294 -0.0091145457 
  679000    296.74834    6877.2012    23887.872    27.139896 -0.011741479 -0.0059992866 0.0093633641 
  680000    305.86941    2755.7204    23887.872    26.226456 -0.0095306841 -0.0079438961 -0.0097714531 
  681000    299.58937    6767.3711    23887.872    25.822694  -0.01083264 0.0011763898 0.0081858311 
  682000    301.56009    2170.7342    23887.872    26.426267 -0.017248157  0.013289281 -0.0022980467 
  683000    310.77288    4715.6725    23887.872    26.931793 -0.0035420858 0.0065361444 -0.0017863592 
  684000    298.60217    7182.1671    23887.872    27.151486 -0.016429396 -0.0048760478 0.0055840474 
  685000    298.44737    5337.8983    23887.872    27.507432 -0.0098547052 -0.0083608147 0.0082837867 
  686000    299.39045    6098.8115    23887.872    27.711363 -0.010983733 -0.017578617  0.017529774 
  687000    301.80744    5062.0605    23887.872    28.092925 0.0034496317 -0.0078051161 0.0013244159 
  688000    294.83167    6287.8253    23887.872    27.731486 0.0010563713 0.0083098651 0.0088863612 
  689000    304.06992    4391.9023    23887.872    27.228411 0.0014330855  0.009736523 0.0057582146 
  690000    300.58903    6091.7252    23887.872    26.889795 -0.0019699429 -0.00034301973 0.0066101078 
  691000    301.39242    3392.9888    23887.872    26.481136 0.0062862789 0.0099872205 -0.0075810548 
  692000    302.88048    3360.5595    23887.872    26.325805 0.0022587007 0.0053198228 -0.0079086313 
  693000     303.3903    10324.638    23887.872    27.001026 0.00016850317 -0.003041232 0.0093730538 
  694000     304.0883    8317.4477    23887.872    28.205593  0.010938281 -0.002212576 -0.0050295115 
  695000    297.33227    362.18338    23887.872    29.396038 0.0081943779 -0.0071855822 -0.00085085122 
  696000    301.24404     3913.724    23887.872    29.945152 0.0076925408 0.0067906465 -0.003231463 
  697000    300.68828    6151.6228    23887.872    29.224617 -0.0033058317 0.0064131903 0.0086644092 
  698000    300.14056    5700.8657    23887.872    28.356041 -0.0007931046 -0.012019416 -0.0080357266 
  699000    297.88538    5199.0239    23887.872    27.400501 -0.0094168175 0.0048674001 0.00057986628 
  700000    301.12999    6325.4015    23887.872     26.52266 0.0017898775 -0.0054672973 -0.0048902125 
  701000    305.21573    3109.3345    23887.872    26.702154  -0.00278591 0.0033102884 -0.012189693 
  702000    297.70623    4211.3869    23887.872    27.484488 0.0054254544 -0.0014197026 -0.0085408905 
  703000    303.77704    9085.0874    23887.872    28.527708 -0.0057577668 -0.011239822 -0.005528046 
  704000    297.90143    5796.6409    23887.872    28.849099 -0.0043182629 -0.0086860665 -0.018529938 
  705000    295.59799    3056.8442    23887.872    28.692507 0.0066940355 -0.00034711373 -0.0088288458 
  706000    299.68112    5952.1254    23887.872    27.857995 0.0050199462  0.015974488 -0.001907926 
  707000    299.77792    6436.3248    23887.872    27.256256 0.0052756391  0.010201434 0.0030836163 
  708000    300.86535    3449.2585    23887.872      26.9247 -0.0021448373 0.0001624817 -0.0061688337 
  709000    306.74092     6452.177    23887.872      27.3887 0.0063747715 -0.0034520953 0.0093844201 
  710000    303.65104    6513.1354    23887.872      28.1051 -0.0068394386 0.0044733519 -0.0066398842 
  711000    296.28058    4327.4784    23887.872    28.563996 -1.8167099e-05 0.0049063629 6.2521699e-05 
  712000    299.57765    3740.1441    23887.872    28.558731 0.0065609256 -0.0071622704 0.0014516656 
  713000    290.21521    6706.8602    23887.872    28.285132 -0.0031048381 0.0043666491 -0.0076122563 
  714000     290.9618    4587.4942    23887.872    28.189801 0.0022408608 -0.008039646 -0.010220818 
  715000    297.01339    6044.3151    23887.872    28.271638 -0.0058832696 -0.0066723722 -0.0093363126 
  716000     292.8575    6416.4753    23887.872    28.341805 -0.0036966269 0.0097749836 -0.0064822094 
  717000    294.83733    3774.4069    23887.872    27.888108 0.0059147116  0.009945871 0.0012280752 
  718000    297.17837    4015.8666    23887.872    26.982203 -0.0076554847  0.011228776  0.010522396 
  719000    299.72264    6159.1341    23887.872    26.816489 -0.0004660486 -0.012774723 0.0041883796 
  720000    298.82734    6403.5022    23887.872    27.419595 0.0035741521  0.015774692 -0.0032464365 
  721000    298.75617    5206.0061    23887.872    27.534311  0.015112729   0.01131103 -0.0078540101 
  722000    304.05015    5007.1634    23887.872    27.351392  0.010329161  0.011064012 0.0084459808 
  723000    304.88781    5668.1856    23887.872    26.848871  0.012479179 0.0057005595 -0.0047172856 
  724000     296.0739    5055.1855    23887.872    27.520598 0.0014453659 -0.0019189677 -0.0051337475 
  725000    295.30147    7450.1183    23887.872    28.470355 0.0096906604 -0.0033477702  0.015611842 
  726000    295.31642     6176.989    23887.872     28.87548 0.0044433722 0.0053505415 -0.0038086832 
  727000    294.41263    5421.5755    23887.872    28.936748 -0.0040715135 0.0078079389 -0.013671054 
  728000    301.57231    4634.7375    23887.872    28.525375 -0.0040254619  0.015321425   0.01107644 
  729000    300.71472    6700.6552    23887.872    28.268046 -0.0041125538   0.01036376 -0.0028588072 
  730000    292.60619     4366.807    23887.872    28.281809 -0.0020754295  0.011547817 0.0054666143 
  731000    297.82742    3651.7307    23887.872    28.002502 -0.0019801739 0.00018218119 -0.0034727086 
  732000      303.985    5204.5777    23887.872    28.398702 -0.0052868773 -0.0040834485 0.0071565297 
  733000    302.60784     4212.039    23887.872    28.656735 -0.0084542931 0.0070044983  -0.01254806 
  734000    295.56568    7602.1462    23887.872    28.547401  0.010881718 -0.0037227978 -0.006677545 
  735000    296.65553    4676.0887    23887.872    28.782573 -0.0061131873 0.0071966617 -0.015429299 
  736000    295.72993    3389.5914    23887.872    29.211443 -0.001194838 0.0095574292 -0.0042791933 
  737000    300.62506     7369.114    23887.872    29.273561  0.005865098 0.0023271867 -0.0002978438 
  738000    299.03062    6234.7761    23887.872    29.306858 -0.0013523197 -0.011827466  0.012263808 
  739000    297.50343     4663.213    23887.872    29.052265 0.0005243474 0.0086933894 -0.0057309162 
  740000    297.48106     5905.095    23887.872    29.162184 0.0083814721 -0.0090877991 -0.009345897 
  741000    298.65228    6761.0594    23887.872    29.645494 0.0081632348 0.0093681378 -0.011469829 
  742000    299.06535    4680.9373    23887.872    30.409188 -0.0027237319 -0.0024818433 -0.0029919133 
  743000    302.97443    3856.5961    23887.872    30.582233 -0.018249455 -0.0041388855 -0.024836521 
  744000    299.11452    7072.3778    23887.872    30.102095 -0.0027869765 -0.0011253712 -0.011537964 
  745000    292.77966    6742.6929    23887.872    29.404303  0.019399474 0.0012217494 0.00076651213 
  746000    300.39671    3881.5186    23887.872    28.144325 -0.022079719 -0.0059652815 0.00019554155 
  747000    300.80348    3135.9086    23887.872    27.321806 -0.011303275 0.0025945684 0.0017728941 
  748000    301.80085    7818.1849    23887.872    26.740241 -0.010278949 -0.0095412361 -0.00058705147 
  749000    297.28495    6258.4274    23887.872    27.389265 0.0061748782 -0.0091561888 -0.0039382424 
  750000    300.28141    3130.8892    23887.872    28.280396 -0.011150274 -0.0086267435 0.0043334716 
  751000    301.13786     6431.086    23887.872    28.841742 0.0034869213  0.010725976 0.0051005396 
  752000    295.51246    4807.2437    23887.872    28.912689 -0.022868396 -0.006787618 0.0070429211 
  753000    301.71881    6548.0528    23887.872    28.895755 0.0032671338 -0.00057275267  0.010738845 
  754000    294.56321    3087.0203    23887.872    28.998699 -0.0071340177 0.0063937509 -0.0054700544 
  755000     301.1014    7387.6245    23887.872    28.780962 -0.0024611116 -0.00098949153 -0.0084114689 
  756000    303.93445    8054.3081    23887.872    27.756874 0.0039263646 0.0059440609 0.0099730008 
  757000    299.69655    3338.8678    23887.872    27.498752 0.0028822698 -0.0046125596 -0.0071377667 
  758000    291.72119    2104.4361    23887.872     27.63751  0.015272592 0.0028454971 -0.001471178 
  759000    303.74897    5361.8775    23887.872    27.313462 -0.0012247404 0.00048349637 0.0015043727 
  760000    295.25033    6116.9284    23887.872    26.419118 0.0021353444 -0.00093673432 -0.010171932 
  761000    293.99386    6090.5436    23887.872    24.980627 -0.010082931 0.0029528201 -0.027353406 
  762000    298.25318    3622.8376    23887.872    23.725311 -0.0027193828 -0.014524836 0.0088844488 
  763000    300.18578    5754.0712    23887.872     23.38182 0.0085417371 -0.0044081458 0.0057350471 
  764000    299.74759    5917.9767    23887.872    23.849404 -0.0015671802 -0.015288083 0.00027740736 
  765000    306.07257     6938.443    23887.872    24.454964 -0.0044778058 -0.0081990397 -0.00036992164 
  766000    302.59477    6986.1556    23887.872    24.851408 0.0017023514 0.00033180474   0.00374305 
  767000    297.14448    2808.8175    23887.872    24.903095 -0.011187346 0.0018916582  0.024136175 
  768000    303.80738    4319.0861    23887.872    25.341947 -0.012559873 -0.0010078693 0.0039995311 
  769000    295.54171    5305.5524    23887.872    25.818804 -0.0062547342 -0.00054455611 0.0040958143 
  770000    299.43254    5654.6001    23887.872    26.197908 -0.00058507683 0.0053876587 -0.0065474906 
  771000    296.58198     5168.127    23887.872    26.248524 0.0022180897 -0.0016588826 -0.0052189941 
  772000    297.80306     6973.693    23887.872    25.973901 -0.0053549578 0.0045084017 0.0017910339 
  773000    295.54697    7219.2449    23887.872    25.819207 -0.0019618058 0.0033134337 -0.0032471879 
  774000    284.88445    5752.0407    23887.872    26.035662 -0.0080453892 -0.0033157404 -0.0020537302 
  775000    293.27454    3703.1268    23887.872    26.515708  0.015873967 -0.019838354 0.0065298648 
  776000    297.10224    3736.2648    23887.872    27.414494 0.0089373192 -0.0047350223  0.013239764 
  777000    301.10764    6653.1063    23887.872    28.329234 -0.010992589 0.00071926314 -0.0050972402 
  778000    304.93122    6613.0832    23887.872    29.107704  0.003099033 0.0055264455 0.0080803406 
  779000    293.63668    3996.9459    23887.872    29.552356 -0.011402346 -0.015613384  0.006294221 
  780000     289.4392    4766.0889    23887.872    29.557587 0.0023681236 -0.0036516053  0.016353751 
  781000    294.69184    3934.2967    23887.872    29.466197 -0.013183971 0.0027793993 -0.005639511 
  782000     301.1232    6402.2118    23887.872    29.188387 0.0046727348 -0.0024175544 -0.012532339 
  783000    302.77212    6492.8133    23887.872    28.812249 -0.0033781408 0.0021267812 -0.0022976337 
  784000    296.89785    6893.3448    23887.872    27.902806 -0.00016204073 0.0016367587 0.0030560862 
  785000    292.12576    5524.4719    23887.872    27.260038 0.0007492875 -0.0076947196 0.0064446915 
  786000     298.1772    4184.1164    23887.872    27.495684 -0.00028737004 0.0030121405 -0.0032762501 
  787000    295.95019    2219.1539    23887.872     27.43867 0.0058673031 0.0052831792 0.0017218394 
  788000    296.87679     6401.194    23887.872    27.473379 -0.0061554449 0.0023075719 -0.0034288842 
  789000    302.21537    8268.6571    23887.872    27.841495 9.8455565e-05  0.011798117 -0.0014866741 
  790000    290.52027    3625.0869    23887.872    27.785097 0.0022165776 0.0041001686 -0.019733349 
  791000    295.45517    2841.4371    23887.872    27.868795 0.0055525086 0.0029095147  0.016374577 
  792000    297.36052    7887.4541    23887.872    28.199224 -0.0045321545  0.011489937 -0.0099617891 
  793000    291.72506    5538.4201    23887.872    28.467418 0.0021327256 -0.011363112 -0.011117202 
  794000    297.34799    4845.2378    23887.872    28.153219 0.0057073008 0.0040562025 0.00039028797 
  795000    296.75596    5231.9993    23887.872    27.569348 0.0044148978 -0.010815694 -0.013298548 
  796000    300.17833    6487.8136    23887.872     27.12694 0.0062303812 -0.0079330243 0.0023205006 
  797000    298.49278    4326.0156    23887.872    26.549018 -0.0021833869 -0.0011403383 -0.0054434795 
  798000    294.56317    3662.6486    23887.872    26.453213 -0.016321426 0.0030416516 0.0056061001 
  799000    296.00702    7601.4177    23887.872    26.530533  0.012832697  0.013016563 0.0077527412 
  800000    308.68618    6065.4599    23887.872     26.60807 -0.013075694 0.0052725118   0.01207353 
  801000      301.447    4729.9533    23887.872    26.634842 -0.00045669076 0.0055379682 0.0057059084 
  802000    299.00476    3940.0969    23887.872     26.47237 -0.005061257 0.0087308736 0.0039256332 
  803000     296.1338    6062.4757    23887.872    26.386787 0.0021631914  0.012407579 0.0033752997 
  804000    303.38122    7276.0602    23887.872     26.68345   0.01872468 -0.0017205341 0.0089010358 
  805000    299.62852    5314.8729    23887.872    27.054248 0.0007594642 0.00082983402 -0.0011708873 
  806000    292.77458    2974.0751    23887.872    26.889789 -0.005224151 0.0054783478 -0.0025302588 
  807000    288.08424    6313.5971    23887.872     26.48192  -0.01462976 -0.0053395413 0.0028344733 
  808000    301.35865    5016.0543    23887.872    26.717705 0.0031944225  0.010041776 0.0042405649 
  809000    291.20574     7986.969    23887.872    27.195149  0.014023167 0.0091514747 -0.0038807426 
  810000    291.23535    7171.1933    23887.872    27.415211 0.0061626496 -0.010108798 -0.0020884742 
  811000    296.34295    2802.7957    23887.872    27.227016 0.0022727758 -0.00070393542 -0.00050832371 
  812000    294.45026    3121.9448    23887.872    27.136675 0.0051888354 -0.013385854 0.0044732783 
  813000    301.59363    6501.9261    23887.872    27.605887 -0.00019162816 -0.00018124625 0.0039450954 
  814000    294.77604    3912.0343    23887.872    28.217801 0.0080353971 -0.014409783 -0.0014626511 
  815000    299.14423    4167.3791    23887.872    28.777094 -0.0082335572 0.0069036669 0.0050125902 
  816000    293.66763    6344.8161    23887.872    29.391185 -0.00044549664 -0.0084892641 0.0024363196 
  817000    297.93527    4013.3278    23887.872    29.914573 0.0064181769 -0.0056605837 -0.0078105813 
  818000    294.27142    5349.5592    23887.872    30.270133  0.017503899 -0.005837324 0.0061668669 
  819000     302.0431    3368.3562    23887.872    30.205428 0.00088690869 0.0068388155 -0.0016496495 
  820000    301.28973    5701.5252    23887.872    29.991533 -0.010545519 -0.00032979925  -0.00674309 
  821000    295.92902    5924.3563    23887.872    29.644507  0.018026892 0.0060563673 0.0011922935 
  822000    297.45377    2463.5896    23887.872    29.165995 -0.004131595 -0.013521501 0.0036758953 
  823000    293.73269    5833.9777    23887.872    28.820308 -0.00061487956 -0.0018209998 -0.0070494968 
  824000    292.82695    6394.2823    23887.872    28.746665 -0.0060388482 -0.011211146 -0.013292848 
  825000    303.06766    4251.2486    23887.872    29.220054 -0.0048747664 -0.009736641 -0.021041598 
  826000    293.19387    4435.6551    23887.872    29.908727 -0.0094820301 0.0042743857 -0.011623285 
  827000    293.73041    4565.2683    23887.872     30.24994 0.0017789814 -0.0054787092 0.0055859763 
  828000    301.11352    8259.3093    23887.872      30.3016 0.0034431303 -0.0024966112 0.0026799789 
  829000    296.47464    4347.7749    23887.872    30.082295 -0.0065764648 -0.013740415 -0.0056706994 
  830000    299.38337    2916.7431    23887.872    29.513756 -0.012751448 0.0060317556 0.0015688661 
  831000    293.20853    5108.2135    23887.872    29.007038 -0.0020151961 -0.0060760861 -0.0040502693 
  832000    295.11254    7130.0304    23887.872    29.218726 0.0037258292 0.0047754643  -0.00255038 
  833000    299.51136    6420.7683    23887.872     29.78805 0.0071468798 -0.005007998 -0.00056027788 
  834000     304.4763    2621.1749    23887.872    30.230419 -0.014031166 0.0035135114 0.0096865219 
  835000    293.55279    6044.9486    23887.872    30.372679 0.00043840199 -0.014496856 0.0058248158 
  836000    297.18205     7573.281    23887.872    30.116821 0.0074898941 -0.003667252  0.014145269 
  837000    297.12508    3762.3316    23887.872    29.939664 0.0054311218 -0.00030888663 0.00014105546 
  838000    297.55014    5089.4982    23887.872    29.551098  0.014747194  0.013754684 -0.014058562 
  839000    298.75641    8624.2119    23887.872    28.722087  0.008885692 0.0047424912 -0.020257789 
  840000    297.55713    4288.0849    23887.872    27.557128 0.0011546135  0.002418117  0.010906155 
  841000    292.99926    3798.3403    23887.872    26.689232 0.0021339089 0.0051953896 -0.0043771454 
  842000    300.38232    5759.8925    23887.872    26.958179  0.016498012 0.00097021713 0.0013449047 
  843000    296.56136    7423.8964    23887.872    27.621464 -0.0025690272 -0.00056017446  0.010312445 
  844000    288.72387    4200.7682    23887.872    28.184752 0.0074176803 0.0067532555 0.0010219573 
  845000    298.50483    3379.3249    23887.872    28.091375  0.016972588 -0.00089249534 -0.0022532256 
  846000    300.43174    6242.1848    23887.872    28.085073 0.0038997095 -0.011582885 0.0094694777 
  847000    296.17633    8324.2357    23887.872     28.40507 -0.0047187449 0.0083696001  0.012489794 
  848000    300.11108     3759.009    23887.872    28.793846 0.0033442948 -0.010193867 0.0045005208 
  849000    295.62431    4281.8443    23887.872     28.63375 -0.0048918065 -0.012096993 0.0087608453 
  850000    304.97645    3450.3236    23887.872    28.642235 -0.017721974 -0.0011337324 0.00061933994 
  851000    295.25623    8560.7371    23887.872    29.212144 0.0014169702 0.0090211879 0.0028183528 
  852000    302.39765    5547.5627    23887.872    29.379419 0.0068572719 0.0096505562 0.0037855473 
  853000    299.23084    3566.1693    23887.872    29.369965 -0.0082056971 0.0030717032  0.010368801 
  854000    299.50544    4963.0627    23887.872    28.658885 0.0040256201 -0.0019413787 0.0071543531 
  855000    302.22316    5735.7452    23887.872    28.335336 -0.0024172538 -0.0068325859 -0.0035286177 
  856000    295.43012    6553.6772    23887.872    28.395307 0.0022627759 0.0023427703 -0.0023545502 
  857000    300.17146    3159.8725    23887.872    28.077882 -0.0023479704 -0.016302252 -0.010618176 
  858000     299.6601    5864.0902    23887.872     28.16015 -6.0885388e-05 0.0087945047   0.01091329 
  859000    303.97556    3976.9825    23887.872    28.310913 0.0060089451 0.0015892161 -0.0034760391 
  860000     298.6017    3943.1515    23887.872    27.950991 -0.0022752041 0.0035882742 0.0031650793 
  861000    297.49916    7937.8925    23887.872    27.605316 0.0092807223 0.0059074641 -0.010001905 
  862000    296.90194    3942.5837    23887.872    27.678519  0.007654469  0.013280826 0.0011122185 
  863000    304.03216    3173.7065    23887.872    27.828868 0.0044532375  0.012726264 -0.0040676742 
  864000    294.97364     4009.955    23887.872    28.223539 -0.013705906 0.0091571476 0.0047126328 
  865000    292.75973    7472.2617    23887.872     28.13495 -0.003030034 -0.010452224  0.010120368 
  866000    296.42531    6089.7779    23887.872    27.848719 -0.010947119 0.0034820787 -0.014270916 
  867000    290.00092    2497.6294    23887.872    27.653316 0.0087471016 -0.0055860136 -0.0039591127 
  868000     291.7854    4034.8873    23887.872    27.445606 0.0064329525 0.0065308592 -0.0021681953 
  869000    294.66667    8408.1913    23887.872    27.177773 0.0094824046    0.0146602 -0.0098795818 
  870000    301.28943    5718.1014    23887.872    26.716621 -0.010205672 -6.8473423e-06 -0.010376948 
  871000    297.80031     6430.678    23887.872     26.68572 -0.0091625473  0.019575831 0.0030707387 
  872000    288.75286    5441.6279    23887.872    26.766234 -0.0050475904 0.0094889456  0.002577845 
  873000    296.71889    4722.0433    23887.872    26.783847  0.002165297  0.004924459  0.009023955 
  874000    309.14811    6006.0587    23887.872    26.794695 0.0091227953 0.0012547046 0.0067721913 
  875000    296.49246    4273.1164    23887.872    26.827976 0.0064322434 0.0031461107 -0.0095175392 
  876000    295.87872    4832.0612    23887.872    26.557183  0.004494341  0.011000549 -0.010730127 
  877000    291.95305    9639.9852    23887.872    26.297905 -0.0037842181 -0.007181707 0.0055482831 
  878000    301.09563    3774.3606    23887.872    26.341028 -0.00067093497 -0.0040912863  0.012188169 
  879000    294.74072    3250.9031    23887.872    26.242527 0.0050007288 0.0086357642 -0.0077031721 
  880000    291.13222    5287.1207    23887.872     25.99609 -0.0027194772 0.0091314289 0.0083940954 
  881000    298.04502     5683.495    23887.872    26.034298  0.001862079 0.00091887492 -0.012119294 
  882000    302.29555    4809.6035    23887.872    26.300006 0.00024729754 -0.0040089655 -0.0013227046 
  883000    290.72281    4350.4344    23887.872    26.526449 0.0015166562  -0.00997098 -0.013186493 
  884000     301.6108    6093.4412    23887.872    26.725284 0.0014662837 -0.0080686224   0.00678825 
  885000     301.0384    6209.6194    23887.872    26.706481 0.0069278436  -0.01433408 0.0075227391 
  886000    294.26018    4942.8908    23887.872    26.555318   0.01519365 0.0034270591  -0.01394942 
  887000      299.126    4575.3038    23887.872    25.979028  0.011913479 -0.009336635  0.010445599 
  888000    300.96721    4172.0291    23887.872    25.489675 -0.022884879 -0.0075304935 -0.013040404 
  889000    298.69214    6029.6542    23887.872    25.409643 0.0020031492 -0.0049132976 0.00078655262 
  890000    291.52057    7452.6542    23887.872    25.712478 -0.0007922129 -0.0025832825 0.0074235425 
  891000    298.14259    5641.6098    23887.872    26.335819   0.01477883 -0.0081656458 -0.0022778726 
  892000    299.09015    5189.2688    23887.872    27.300367 0.0060312034  0.012128698  0.010929913 
  893000    298.20476     4668.164    23887.872    27.965788 -0.0017314823 -0.010443982 0.00050160817 
  894000    294.95176    4594.1573    23887.872    28.584073  0.006880111 -0.015442463 -0.0014100794 
  895000    298.75889    6531.9967    23887.872    29.224344 0.0011968169 -0.0055009092  0.010472185 
  896000    296.14758    4300.4801    23887.872    29.278138 -0.0055823524 -0.00025638088 -0.0017422578 
  897000    297.83654    3269.4722    23887.872    28.616616 -0.013663131 0.00058926596  0.015896797 
  898000    296.95676    5769.8827    23887.872    28.063738  0.013676767 0.00056876572 0.0047546771 
  899000    294.92948    8218.6739    23887.872    27.596211 0.00027466455 -0.018693306 0.0015453969 
  900000    293.01748    5513.3555    23887.872    26.958173 -0.00047714428 -0.0054325012 -0.0044370091 
  901000    300.72887    3433.8342    23887.872    26.184315 0.0016598414 0.0016186218 -0.0093439318 
  902000    301.92766    5744.1837    23887.872    25.399126 0.0045925351 -0.0031420816 -0.011234739 
  903000    290.74522    5598.1729    23887.872    25.378652 0.0028920977 0.0074111082 0.0039439843 
  904000     296.2987    5146.3166    23887.872    25.769825 -0.00078192822 0.0089657782 -0.0030964874 
  905000     303.3369    2932.2953    23887.872    26.061735 -0.0065329896 -0.0051209599 -0.0066620763 
  906000    300.70956    4081.7388    23887.872    26.359087 -0.009218604 -0.0035000502 0.0097858306 
  907000    292.75894    6462.9411    23887.872     26.50239 -0.0032736084 -0.011841523 0.0088809219 
  908000    291.39065    8778.7359    23887.872    26.529467 -0.0055952138 0.00016287601 0.0050500192 
  909000    302.30869    4969.5007    23887.872     27.16144 0.0044600955 -1.2407909e-05 0.0091223358 
  910000    297.10137    2784.5189    23887.872    27.759035 -0.014711191 0.0026532108 -0.018397033 
  911000    297.65646    3880.8754    23887.872    27.677381 0.0044309924 0.0014797404 -0.0074314494 
  912000    293.53956    8463.2518    23887.872    27.208443 0.0024332916 0.0021873886 0.0031290485 
  913000    300.80488     3821.424    23887.872    26.819419 -0.0066862717 -0.0035492793 -0.0085238122 
  914000    300.93296    5926.3409    23887.872    26.327136 -0.004070483 0.0016571152 -0.015242184 
  915000    295.58938    4959.5256    23887.872    25.764907  0.014466847 -0.00077468031 -0.010990596 
  916000    303.42392    3131.1073    23887.872     25.43684  0.011576035 -0.00084496241 0.0056557229 
  917000    299.41296    4318.6794    23887.872    25.476419 0.0010542091 -0.0090479663   0.00263282 
  918000    293.05762    7992.0297    23887.872    25.448064 -0.0070114881 -0.0019475744  0.013881783 
  919000    296.60927    7038.1621    23887.872    25.647271  0.001726908 0.0076777958 0.0084343939 
  920000    286.77483    3937.8151    23887.872    25.468182 -0.00011277742  0.024601995  0.015238823 
  921000    298.25931    3895.2583    23887.872    25.095914 0.0057285814 -0.00050690681  0.016181615 
  922000    292.51182    5254.7711    23887.872    24.582104  0.004385387 0.0097935423 0.0052831628 
  923000    295.27954    5951.8939    23887.872    24.283178 -0.0053819621 -0.0066350436 0.0044819258 
  924000    290.97817    5039.6771    23887.872    24.597909 -0.010386236 -0.001935311 -0.0083097436 
  925000    296.07864    3881.7469    23887.872    25.212488 0.0012100259  0.012455801   0.00169052 
  926000    305.74409    6482.4601    23887.872    25.895712 -0.008854775  0.025287207 0.0084045537 
  927000    301.52502    4334.2622    23887.872     26.64876 0.0078778283  0.010253214 -0.001854627 
  928000     300.6265    5630.3152    23887.872    27.466203 -0.0028223443 -0.0016137934 -0.014770676 
  929000    298.70487    4803.9186    23887.872    27.379127 -0.0024304749 0.0067571012 -0.014945151 
  930000    301.00316    4240.5836    23887.872    26.540974 -0.015763995  0.011782053 -0.0087633598 
  931000    299.71217    4072.3259    23887.872    25.637114 -0.0044437907  0.005285408 0.00046983796 
  932000    293.12708     3821.975    23887.872    24.823853 0.0078741307 -0.004412809 0.0051772545 
  933000    302.51853    3202.2991    23887.872    24.408745 0.0033448794 -0.0091472614 -0.0003555619 
  934000    294.95919     6743.813    23887.872     24.29643 -0.0029216644  0.011948285 0.0092957434 
  935000     302.1081    6254.0983    23887.872    23.949935  0.011533136 -0.0082201837 -0.0073809466 
  936000    298.29439    3996.8408    23887.872     23.42862 0.0074984732  0.005144677 0.0058739078 
  937000    294.23472     3750.985    23887.872     23.90816  0.005183514 -0.0052970813 0.0021988117 
  938000    303.89748    5877.2491    23887.872    24.828257 -0.0073093302 0.0077519289 0.0081944212 
  939000    299.38148    5186.4298    23887.872    25.216988 -0.0062734233  0.013130198 -0.0014051453 
  940000    298.30919    5320.2757    23887.872    25.824954 0.0066174217 0.0030502403 -0.0037711542 
  941000    301.44208    3933.1098    23887.872    26.730006 0.0048336311 0.0065611819 -0.0047007259 
  942000    299.90002    6005.7029    23887.872    26.905666 0.0050710162 -0.011574098 -0.0058911231 
  943000    295.99084    7832.8223    23887.872    26.628039 -0.0061919823  0.016856835 -0.0014449716 
  944000    293.89148    5546.6745    23887.872    26.256438 0.00088807169 0.0044905589 0.0093009133 
  945000    297.21806    3193.1049    23887.872    25.592162 -0.0034079343 0.00029125465 -0.0048224207 
  946000     297.8388    7246.5603    23887.872     24.43993 -0.0044411527  0.015466089 -0.024943283 
  947000    304.33483    7213.8692    23887.872    23.692214 -0.0018914255 -0.0017531621 -0.017141608 
  948000    298.32316    3334.2157    23887.872    23.866462   0.00295612 0.0098016516 0.0031331348 
  949000    290.54022    3697.5426    23887.872    24.089267 -0.011004162 0.0052357607 0.0010090674 
  950000    300.06495    6828.1225    23887.872    24.522416 -0.00058506117 0.0026386332 0.0066195683 
  951000    294.04913    4265.3515    23887.872    25.483694 0.0036753638 0.0016744859 0.0071682525 
  952000    295.28052    3912.4096    23887.872    26.267946 -4.4202577e-05 0.0036496909 -0.0010585145 
  953000    296.59803    7545.3514    23887.872    26.772411   0.01517574  0.013922631 0.0076066238 
  954000    296.29281     5509.647    23887.872     27.63581  0.015503177 0.0076792984  0.014284376 
  955000    297.62807    3972.4384    23887.872    28.637795 0.0082470428 0.0017198446 -0.0036103843 
  956000    301.30609    5395.6204    23887.872    29.046586  0.015207846 0.00011360799 -0.0081683396 
  957000    306.08537     4349.391    23887.872    29.366716 0.0010717935 0.00011112977 -0.010348217 
  958000    296.65848    4789.3433    23887.872    29.708791 -0.0059853946 -0.012210987 0.0012833992 
  959000    298.39948    4932.1604    23887.872    30.129202 0.0040398742 -0.0088801094 -0.0034127774 
  960000    305.63003    2901.4847    23887.872    30.515208 0.00083598278 -0.0091244828 -0.0024088132 
  961000    287.85523    8171.4426    23887.872    30.851855 -0.00043318289 0.0013168504 -0.0067509264 
  962000    293.13644    8220.2946    23887.872    30.963069 -0.00074500576 0.0060871083 0.0011857448 
  963000    296.32816    386.43121    23887.872    30.838449 0.0087710358 -0.0014449748   -0.0190212 
  964000    296.61235    4203.5919    23887.872     29.86302  -0.02258224 -0.0095660831 0.0051439884 
  965000    297.27321    8396.5219    23887.872    28.809771 -0.009803092 -0.00028726563 -0.005141864 
  966000     298.7484    5698.7956    23887.872    27.899799 -0.0021228806 0.0018498654 -0.0072549332 
  967000    297.63197    2747.9598    23887.872     27.85008 0.0044627429   0.01230303  0.013246743 
  968000    300.52557    3498.5957    23887.872    28.261716 0.0067055678 -0.0045841101 -0.013331419 
  969000    295.94103    6756.9654    23887.872    28.859848 0.0030565794 0.00083467206 0.0019830574 
  970000     303.4647    4990.8961    23887.872    28.802436 -0.0054541511 0.00062312786 0.0086778532 
  971000    297.77401    5373.6856    23887.872    28.147504 -0.0065487667 -0.0049604048 0.0029718314 
  972000    298.95333    5236.9729    23887.872    27.246426 0.00066403021 -0.0032030315 0.0058617539 
  973000    295.41026    5071.6229    23887.872     27.05876 0.00024567162 -0.0061876213 0.0033869409 
  974000    290.96725    5431.3162    23887.872    27.395035 -8.998218e-05 0.0020512958 -0.010272603 
  975000    297.33685    3362.5643    23887.872    28.407025 0.0092475556 0.0032895092 -0.0016650336 
  976000    301.14488    4803.8146    23887.872    29.250239 -0.004069704 -0.019476094 -0.0024322002 
  977000    297.67116    7697.7545    23887.872    29.665165 0.0044206768 -0.0065982128 0.0027440367 
  978000    297.13398     5260.008    23887.872    29.383978 -0.0086788473 0.0025791045 -0.0040928526 
  979000    293.39158    4119.1141    23887.872     28.84397 -0.0089475223 0.0081233261 0.0056994442 
  980000    297.43847    6231.2943    23887.872    28.437088 -0.0062784252 -0.0004266439 0.0042261765 
  981000    293.65346    7780.7728    23887.872    28.811998 0.0093987943 0.0077972342 0.0051974883 
  982000    290.31695    7186.5543    23887.872    29.256376 -0.0050730933 -0.004827113 -0.00018973211 
  983000    298.46784    2869.4626    23887.872    30.025456 -0.0032673797 -0.001188006  0.012726449 
  984000    298.58365    3743.0897    23887.872    30.636761 0.0025589355  0.010255162 0.0062600066 
  985000     302.9008     6797.231    23887.872    30.692521  0.003713701 0.0058090004 0.0093816639 
  986000    300.21259    5409.9834    23887.872    30.230385 -0.0075156008   0.01502365 -0.00015240734 
  987000    295.77135    3086.8328    23887.872    29.698932 -0.0076398549 0.0006386302 -0.0040257366 
  988000    290.63388    6556.3388    23887.872    29.298621 -0.011480863 -0.0031218974 0.00042194511 
  989000    296.41538    5846.7354    23887.872    29.082241 0.0020369097 -0.0097434116 -0.00089325714 
  990000    289.25287    1602.1037    23887.872    29.002838 -0.019212938  0.006416879 -0.00054691929 
  991000    302.26026    3451.9195    23887.872    28.514866 -0.0037516346 -0.0026039281 -0.0072210119 
  992000     295.6988    8945.8369    23887.872    27.639924 0.0093496021 0.0016702751 -0.0029700657 
  993000    290.54102    7144.6536    23887.872    26.808912 -0.00055296141 0.0058383889 -0.0077784896 
  994000    293.01118    1415.4308    23887.872    26.592095 -0.00016468561   0.00519329 0.0032931042 
  995000    294.28581    2531.4159    23887.872    26.870146 -0.00042610123 -0.004746621 0.0098362456 
  996000    303.28848    7767.6996    23887.872    27.084571 -0.0068586465 0.0099085793 -0.0050140049 
  997000    298.75399    6453.2086    23887.872    27.563849 0.0043984987 -0.012811146   0.00588085 
  998000    302.31423    2594.1353    23887.872    27.747571 0.0096427938 -0.010004887 -0.0028218832 
  999000    297.17704    5380.7045    23887.872    27.667268  0.012627515 0.0040040575 -0.0040544053 
 1000000    298.20074     7125.937    23887.872    27.465108 0.0026853556 -0.0039411925 0.0031284498 
Loop time of 23594.7 on 16 procs for 1000000 steps with 1920 atoms

Pair  time (%) = 19322.7 (81.8941)
Bond  time (%) = 0.446646 (0.00189299)
Neigh time (%) = 40.4087 (0.171262)
Comm  time (%) = 3322.36 (14.081)
Outpt time (%) = 20.8093 (0.0881948)
Other time (%) = 887.998 (3.76355)

Nlocal:    120 ave 127 max 115 min
Histogram: 3 0 0 3 4 4 0 1 0 1
Nghost:    4987.44 ave 5007 max 4962 min
Histogram: 1 2 1 1 2 1 0 3 2 3
Neighs:    52880.1 ave 55992 max 50763 min
Histogram: 3 0 2 2 3 4 0 1 0 1
FullNghs: 105760 ave 111939 max 101459 min
Histogram: 3 0 0 3 5 3 0 1 0 1

Total # of neighbors = 1692164
Ave neighs/atom = 881.335
Ave special neighs/atom = 0
Neighbor list builds = 4718
Dangerous builds = 0
#	run			10000
	unfix			1
	uncompute		myKE
	uncompute		myPE
	uncompute		myStress
	uncompute		flux
	uncompute		myDis
	unfix			JJ

	next seed
	next iseed
jump lmp.in.gk loop_seed
variable iseed loop 10
variable seed index 11111 22222 33333 44444 55555 66666 77777 88888 99999 11110
clear
###########################################################################
#x0
###########################################################################
units 			metal
atom_style		full
read_data		fort.26
  0 = max bonds/atom
  0 = max angles/atom
  0 = max dihedrals/atom
  triclinic box = (0 0 0) to (28.8 28.8 28.8) with tilt (0 0 0)
  2 by 2 by 4 processor grid
  1920 atoms
  0 bonds
  0 angles
  0 dihedrals
  0 = max # of 1-2 neighbors
  0 = max # of 1-3 neighbors
  0 = max # of 1-4 neighbors
  1 = max # of special neighbors
group         		C type = 1
60 atoms in group C
###########################################################################
#OLPS
###########################################################################

################################################################################
#### Pair potentials
################################################################################
pair_style hybrid/overlay tersoff lj/cut 12.0
pair_coeff * * tersoff C.temp.tersoff 1 2 3 4 5 6 7 8 9 10 11 12 13 14 15 16 17 18 19 20 21 22 23 24 25 26 27 28 29 30 31 32
pair_coeff 1 2 lj/cut 0.00070000000 3.5500000000
pair_coeff 1 3 lj/cut 0.00070000000 3.5500000000
pair_coeff 1 4 lj/cut 0.00070000000 3.5500000000
pair_coeff 1 5 lj/cut 0.00070000000 3.5500000000
pair_coeff 1 6 lj/cut 0.00070000000 3.5500000000
pair_coeff 1 7 lj/cut 0.00070000000 3.5500000000
pair_coeff 1 8 lj/cut 0.00070000000 3.5500000000
pair_coeff 1 9 lj/cut 0.00070000000 3.5500000000
pair_coeff 1 10 lj/cut 0.00070000000 3.5500000000
pair_coeff 1 11 lj/cut 0.00070000000 3.5500000000
pair_coeff 1 12 lj/cut 0.00070000000 3.5500000000
pair_coeff 1 13 lj/cut 0.00070000000 3.5500000000
pair_coeff 1 14 lj/cut 0.00070000000 3.5500000000
pair_coeff 1 15 lj/cut 0.00070000000 3.5500000000
pair_coeff 1 16 lj/cut 0.00070000000 3.5500000000
pair_coeff 1 17 lj/cut 0.00070000000 3.5500000000
pair_coeff 1 18 lj/cut 0.00070000000 3.5500000000
pair_coeff 1 19 lj/cut 0.00070000000 3.5500000000
pair_coeff 1 20 lj/cut 0.00070000000 3.5500000000
pair_coeff 1 21 lj/cut 0.00070000000 3.5500000000
pair_coeff 1 22 lj/cut 0.00070000000 3.5500000000
pair_coeff 1 23 lj/cut 0.00070000000 3.5500000000
pair_coeff 1 24 lj/cut 0.00070000000 3.5500000000
pair_coeff 1 25 lj/cut 0.00070000000 3.5500000000
pair_coeff 1 26 lj/cut 0.00070000000 3.5500000000
pair_coeff 1 27 lj/cut 0.00070000000 3.5500000000
pair_coeff 1 28 lj/cut 0.00070000000 3.5500000000
pair_coeff 1 29 lj/cut 0.00070000000 3.5500000000
pair_coeff 1 30 lj/cut 0.00070000000 3.5500000000
pair_coeff 1 31 lj/cut 0.00070000000 3.5500000000
pair_coeff 1 32 lj/cut 0.00070000000 3.5500000000

pair_coeff 2 3 lj/cut 0.00070000000 3.5500000000
pair_coeff 2 4 lj/cut 0.00070000000 3.5500000000
pair_coeff 2 5 lj/cut 0.00070000000 3.5500000000
pair_coeff 2 6 lj/cut 0.00070000000 3.5500000000
pair_coeff 2 7 lj/cut 0.00070000000 3.5500000000
pair_coeff 2 8 lj/cut 0.00070000000 3.5500000000
pair_coeff 2 9 lj/cut 0.00070000000 3.5500000000
pair_coeff 2 10 lj/cut 0.00070000000 3.5500000000
pair_coeff 2 11 lj/cut 0.00070000000 3.5500000000
pair_coeff 2 12 lj/cut 0.00070000000 3.5500000000
pair_coeff 2 13 lj/cut 0.00070000000 3.5500000000
pair_coeff 2 14 lj/cut 0.00070000000 3.5500000000
pair_coeff 2 15 lj/cut 0.00070000000 3.5500000000
pair_coeff 2 16 lj/cut 0.00070000000 3.5500000000
pair_coeff 2 17 lj/cut 0.00070000000 3.5500000000
pair_coeff 2 18 lj/cut 0.00070000000 3.5500000000
pair_coeff 2 19 lj/cut 0.00070000000 3.5500000000
pair_coeff 2 20 lj/cut 0.00070000000 3.5500000000
pair_coeff 2 21 lj/cut 0.00070000000 3.5500000000
pair_coeff 2 22 lj/cut 0.00070000000 3.5500000000
pair_coeff 2 23 lj/cut 0.00070000000 3.5500000000
pair_coeff 2 24 lj/cut 0.00070000000 3.5500000000
pair_coeff 2 25 lj/cut 0.00070000000 3.5500000000
pair_coeff 2 26 lj/cut 0.00070000000 3.5500000000
pair_coeff 2 27 lj/cut 0.00070000000 3.5500000000
pair_coeff 2 28 lj/cut 0.00070000000 3.5500000000
pair_coeff 2 29 lj/cut 0.00070000000 3.5500000000
pair_coeff 2 30 lj/cut 0.00070000000 3.5500000000
pair_coeff 2 31 lj/cut 0.00070000000 3.5500000000
pair_coeff 2 32 lj/cut 0.00070000000 3.5500000000

pair_coeff 3 4 lj/cut 0.00070000000 3.5500000000
pair_coeff 3 5 lj/cut 0.00070000000 3.5500000000
pair_coeff 3 6 lj/cut 0.00070000000 3.5500000000
pair_coeff 3 7 lj/cut 0.00070000000 3.5500000000
pair_coeff 3 8 lj/cut 0.00070000000 3.5500000000
pair_coeff 3 9 lj/cut 0.00070000000 3.5500000000
pair_coeff 3 10 lj/cut 0.00070000000 3.5500000000
pair_coeff 3 11 lj/cut 0.00070000000 3.5500000000
pair_coeff 3 12 lj/cut 0.00070000000 3.5500000000
pair_coeff 3 13 lj/cut 0.00070000000 3.5500000000
pair_coeff 3 14 lj/cut 0.00070000000 3.5500000000
pair_coeff 3 15 lj/cut 0.00070000000 3.5500000000
pair_coeff 3 16 lj/cut 0.00070000000 3.5500000000
pair_coeff 3 17 lj/cut 0.00070000000 3.5500000000
pair_coeff 3 18 lj/cut 0.00070000000 3.5500000000
pair_coeff 3 19 lj/cut 0.00070000000 3.5500000000
pair_coeff 3 20 lj/cut 0.00070000000 3.5500000000
pair_coeff 3 21 lj/cut 0.00070000000 3.5500000000
pair_coeff 3 22 lj/cut 0.00070000000 3.5500000000
pair_coeff 3 23 lj/cut 0.00070000000 3.5500000000
pair_coeff 3 24 lj/cut 0.00070000000 3.5500000000
pair_coeff 3 25 lj/cut 0.00070000000 3.5500000000
pair_coeff 3 26 lj/cut 0.00070000000 3.5500000000
pair_coeff 3 27 lj/cut 0.00070000000 3.5500000000
pair_coeff 3 28 lj/cut 0.00070000000 3.5500000000
pair_coeff 3 29 lj/cut 0.00070000000 3.5500000000
pair_coeff 3 30 lj/cut 0.00070000000 3.5500000000
pair_coeff 3 31 lj/cut 0.00070000000 3.5500000000
pair_coeff 3 32 lj/cut 0.00070000000 3.5500000000

pair_coeff 4 5 lj/cut 0.00070000000 3.5500000000
pair_coeff 4 6 lj/cut 0.00070000000 3.5500000000
pair_coeff 4 7 lj/cut 0.00070000000 3.5500000000
pair_coeff 4 8 lj/cut 0.00070000000 3.5500000000
pair_coeff 4 9 lj/cut 0.00070000000 3.5500000000
pair_coeff 4 10 lj/cut 0.00070000000 3.5500000000
pair_coeff 4 11 lj/cut 0.00070000000 3.5500000000
pair_coeff 4 12 lj/cut 0.00070000000 3.5500000000
pair_coeff 4 13 lj/cut 0.00070000000 3.5500000000
pair_coeff 4 14 lj/cut 0.00070000000 3.5500000000
pair_coeff 4 15 lj/cut 0.00070000000 3.5500000000
pair_coeff 4 16 lj/cut 0.00070000000 3.5500000000
pair_coeff 4 17 lj/cut 0.00070000000 3.5500000000
pair_coeff 4 18 lj/cut 0.00070000000 3.5500000000
pair_coeff 4 19 lj/cut 0.00070000000 3.5500000000
pair_coeff 4 20 lj/cut 0.00070000000 3.5500000000
pair_coeff 4 21 lj/cut 0.00070000000 3.5500000000
pair_coeff 4 22 lj/cut 0.00070000000 3.5500000000
pair_coeff 4 23 lj/cut 0.00070000000 3.5500000000
pair_coeff 4 24 lj/cut 0.00070000000 3.5500000000
pair_coeff 4 25 lj/cut 0.00070000000 3.5500000000
pair_coeff 4 26 lj/cut 0.00070000000 3.5500000000
pair_coeff 4 27 lj/cut 0.00070000000 3.5500000000
pair_coeff 4 28 lj/cut 0.00070000000 3.5500000000
pair_coeff 4 29 lj/cut 0.00070000000 3.5500000000
pair_coeff 4 30 lj/cut 0.00070000000 3.5500000000
pair_coeff 4 31 lj/cut 0.00070000000 3.5500000000
pair_coeff 4 32 lj/cut 0.00070000000 3.5500000000

pair_coeff 5 6 lj/cut 0.00070000000 3.5500000000
pair_coeff 5 7 lj/cut 0.00070000000 3.5500000000
pair_coeff 5 8 lj/cut 0.00070000000 3.5500000000
pair_coeff 5 9 lj/cut 0.00070000000 3.5500000000
pair_coeff 5 10 lj/cut 0.00070000000 3.5500000000
pair_coeff 5 11 lj/cut 0.00070000000 3.5500000000
pair_coeff 5 12 lj/cut 0.00070000000 3.5500000000
pair_coeff 5 13 lj/cut 0.00070000000 3.5500000000
pair_coeff 5 14 lj/cut 0.00070000000 3.5500000000
pair_coeff 5 15 lj/cut 0.00070000000 3.5500000000
pair_coeff 5 16 lj/cut 0.00070000000 3.5500000000
pair_coeff 5 17 lj/cut 0.00070000000 3.5500000000
pair_coeff 5 18 lj/cut 0.00070000000 3.5500000000
pair_coeff 5 19 lj/cut 0.00070000000 3.5500000000
pair_coeff 5 20 lj/cut 0.00070000000 3.5500000000
pair_coeff 5 21 lj/cut 0.00070000000 3.5500000000
pair_coeff 5 22 lj/cut 0.00070000000 3.5500000000
pair_coeff 5 23 lj/cut 0.00070000000 3.5500000000
pair_coeff 5 24 lj/cut 0.00070000000 3.5500000000
pair_coeff 5 25 lj/cut 0.00070000000 3.5500000000
pair_coeff 5 26 lj/cut 0.00070000000 3.5500000000
pair_coeff 5 27 lj/cut 0.00070000000 3.5500000000
pair_coeff 5 28 lj/cut 0.00070000000 3.5500000000
pair_coeff 5 29 lj/cut 0.00070000000 3.5500000000
pair_coeff 5 30 lj/cut 0.00070000000 3.5500000000
pair_coeff 5 31 lj/cut 0.00070000000 3.5500000000
pair_coeff 5 32 lj/cut 0.00070000000 3.5500000000

pair_coeff 6 7 lj/cut 0.00070000000 3.5500000000
pair_coeff 6 8 lj/cut 0.00070000000 3.5500000000
pair_coeff 6 9 lj/cut 0.00070000000 3.5500000000
pair_coeff 6 10 lj/cut 0.00070000000 3.5500000000
pair_coeff 6 11 lj/cut 0.00070000000 3.5500000000
pair_coeff 6 12 lj/cut 0.00070000000 3.5500000000
pair_coeff 6 13 lj/cut 0.00070000000 3.5500000000
pair_coeff 6 14 lj/cut 0.00070000000 3.5500000000
pair_coeff 6 15 lj/cut 0.00070000000 3.5500000000
pair_coeff 6 16 lj/cut 0.00070000000 3.5500000000
pair_coeff 6 17 lj/cut 0.00070000000 3.5500000000
pair_coeff 6 18 lj/cut 0.00070000000 3.5500000000
pair_coeff 6 19 lj/cut 0.00070000000 3.5500000000
pair_coeff 6 20 lj/cut 0.00070000000 3.5500000000
pair_coeff 6 21 lj/cut 0.00070000000 3.5500000000
pair_coeff 6 22 lj/cut 0.00070000000 3.5500000000
pair_coeff 6 23 lj/cut 0.00070000000 3.5500000000
pair_coeff 6 24 lj/cut 0.00070000000 3.5500000000
pair_coeff 6 25 lj/cut 0.00070000000 3.5500000000
pair_coeff 6 26 lj/cut 0.00070000000 3.5500000000
pair_coeff 6 27 lj/cut 0.00070000000 3.5500000000
pair_coeff 6 28 lj/cut 0.00070000000 3.5500000000
pair_coeff 6 29 lj/cut 0.00070000000 3.5500000000
pair_coeff 6 30 lj/cut 0.00070000000 3.5500000000
pair_coeff 6 31 lj/cut 0.00070000000 3.5500000000
pair_coeff 6 32 lj/cut 0.00070000000 3.5500000000

pair_coeff 7 8 lj/cut 0.00070000000 3.5500000000
pair_coeff 7 9 lj/cut 0.00070000000 3.5500000000
pair_coeff 7 10 lj/cut 0.00070000000 3.5500000000
pair_coeff 7 11 lj/cut 0.00070000000 3.5500000000
pair_coeff 7 12 lj/cut 0.00070000000 3.5500000000
pair_coeff 7 13 lj/cut 0.00070000000 3.5500000000
pair_coeff 7 14 lj/cut 0.00070000000 3.5500000000
pair_coeff 7 15 lj/cut 0.00070000000 3.5500000000
pair_coeff 7 16 lj/cut 0.00070000000 3.5500000000
pair_coeff 7 17 lj/cut 0.00070000000 3.5500000000
pair_coeff 7 18 lj/cut 0.00070000000 3.5500000000
pair_coeff 7 19 lj/cut 0.00070000000 3.5500000000
pair_coeff 7 20 lj/cut 0.00070000000 3.5500000000
pair_coeff 7 21 lj/cut 0.00070000000 3.5500000000
pair_coeff 7 22 lj/cut 0.00070000000 3.5500000000
pair_coeff 7 23 lj/cut 0.00070000000 3.5500000000
pair_coeff 7 24 lj/cut 0.00070000000 3.5500000000
pair_coeff 7 25 lj/cut 0.00070000000 3.5500000000
pair_coeff 7 26 lj/cut 0.00070000000 3.5500000000
pair_coeff 7 27 lj/cut 0.00070000000 3.5500000000
pair_coeff 7 28 lj/cut 0.00070000000 3.5500000000
pair_coeff 7 29 lj/cut 0.00070000000 3.5500000000
pair_coeff 7 30 lj/cut 0.00070000000 3.5500000000
pair_coeff 7 31 lj/cut 0.00070000000 3.5500000000
pair_coeff 7 32 lj/cut 0.00070000000 3.5500000000

pair_coeff 8 9 lj/cut 0.00070000000 3.5500000000
pair_coeff 8 10 lj/cut 0.00070000000 3.5500000000
pair_coeff 8 11 lj/cut 0.00070000000 3.5500000000
pair_coeff 8 12 lj/cut 0.00070000000 3.5500000000
pair_coeff 8 13 lj/cut 0.00070000000 3.5500000000
pair_coeff 8 14 lj/cut 0.00070000000 3.5500000000
pair_coeff 8 15 lj/cut 0.00070000000 3.5500000000
pair_coeff 8 16 lj/cut 0.00070000000 3.5500000000
pair_coeff 8 17 lj/cut 0.00070000000 3.5500000000
pair_coeff 8 18 lj/cut 0.00070000000 3.5500000000
pair_coeff 8 19 lj/cut 0.00070000000 3.5500000000
pair_coeff 8 20 lj/cut 0.00070000000 3.5500000000
pair_coeff 8 21 lj/cut 0.00070000000 3.5500000000
pair_coeff 8 22 lj/cut 0.00070000000 3.5500000000
pair_coeff 8 23 lj/cut 0.00070000000 3.5500000000
pair_coeff 8 24 lj/cut 0.00070000000 3.5500000000
pair_coeff 8 25 lj/cut 0.00070000000 3.5500000000
pair_coeff 8 26 lj/cut 0.00070000000 3.5500000000
pair_coeff 8 27 lj/cut 0.00070000000 3.5500000000
pair_coeff 8 28 lj/cut 0.00070000000 3.5500000000
pair_coeff 8 29 lj/cut 0.00070000000 3.5500000000
pair_coeff 8 30 lj/cut 0.00070000000 3.5500000000
pair_coeff 8 31 lj/cut 0.00070000000 3.5500000000
pair_coeff 8 32 lj/cut 0.00070000000 3.5500000000

pair_coeff 9 10 lj/cut 0.00070000000 3.5500000000
pair_coeff 9 11 lj/cut 0.00070000000 3.5500000000
pair_coeff 9 12 lj/cut 0.00070000000 3.5500000000
pair_coeff 9 13 lj/cut 0.00070000000 3.5500000000
pair_coeff 9 14 lj/cut 0.00070000000 3.5500000000
pair_coeff 9 15 lj/cut 0.00070000000 3.5500000000
pair_coeff 9 16 lj/cut 0.00070000000 3.5500000000
pair_coeff 9 17 lj/cut 0.00070000000 3.5500000000
pair_coeff 9 18 lj/cut 0.00070000000 3.5500000000
pair_coeff 9 19 lj/cut 0.00070000000 3.5500000000
pair_coeff 9 20 lj/cut 0.00070000000 3.5500000000
pair_coeff 9 21 lj/cut 0.00070000000 3.5500000000
pair_coeff 9 22 lj/cut 0.00070000000 3.5500000000
pair_coeff 9 23 lj/cut 0.00070000000 3.5500000000
pair_coeff 9 24 lj/cut 0.00070000000 3.5500000000
pair_coeff 9 25 lj/cut 0.00070000000 3.5500000000
pair_coeff 9 26 lj/cut 0.00070000000 3.5500000000
pair_coeff 9 27 lj/cut 0.00070000000 3.5500000000
pair_coeff 9 28 lj/cut 0.00070000000 3.5500000000
pair_coeff 9 29 lj/cut 0.00070000000 3.5500000000
pair_coeff 9 30 lj/cut 0.00070000000 3.5500000000
pair_coeff 9 31 lj/cut 0.00070000000 3.5500000000
pair_coeff 9 32 lj/cut 0.00070000000 3.5500000000

pair_coeff 10 11 lj/cut 0.00070000000 3.5500000000
pair_coeff 10 12 lj/cut 0.00070000000 3.5500000000
pair_coeff 10 13 lj/cut 0.00070000000 3.5500000000
pair_coeff 10 14 lj/cut 0.00070000000 3.5500000000
pair_coeff 10 15 lj/cut 0.00070000000 3.5500000000
pair_coeff 10 16 lj/cut 0.00070000000 3.5500000000
pair_coeff 10 17 lj/cut 0.00070000000 3.5500000000
pair_coeff 10 18 lj/cut 0.00070000000 3.5500000000
pair_coeff 10 19 lj/cut 0.00070000000 3.5500000000
pair_coeff 10 20 lj/cut 0.00070000000 3.5500000000
pair_coeff 10 21 lj/cut 0.00070000000 3.5500000000
pair_coeff 10 22 lj/cut 0.00070000000 3.5500000000
pair_coeff 10 23 lj/cut 0.00070000000 3.5500000000
pair_coeff 10 24 lj/cut 0.00070000000 3.5500000000
pair_coeff 10 25 lj/cut 0.00070000000 3.5500000000
pair_coeff 10 26 lj/cut 0.00070000000 3.5500000000
pair_coeff 10 27 lj/cut 0.00070000000 3.5500000000
pair_coeff 10 28 lj/cut 0.00070000000 3.5500000000
pair_coeff 10 29 lj/cut 0.00070000000 3.5500000000
pair_coeff 10 30 lj/cut 0.00070000000 3.5500000000
pair_coeff 10 31 lj/cut 0.00070000000 3.5500000000
pair_coeff 10 32 lj/cut 0.00070000000 3.5500000000

pair_coeff 11 12 lj/cut 0.00070000000 3.5500000000
pair_coeff 11 13 lj/cut 0.00070000000 3.5500000000
pair_coeff 11 14 lj/cut 0.00070000000 3.5500000000
pair_coeff 11 15 lj/cut 0.00070000000 3.5500000000
pair_coeff 11 16 lj/cut 0.00070000000 3.5500000000
pair_coeff 11 17 lj/cut 0.00070000000 3.5500000000
pair_coeff 11 18 lj/cut 0.00070000000 3.5500000000
pair_coeff 11 19 lj/cut 0.00070000000 3.5500000000
pair_coeff 11 20 lj/cut 0.00070000000 3.5500000000
pair_coeff 11 21 lj/cut 0.00070000000 3.5500000000
pair_coeff 11 22 lj/cut 0.00070000000 3.5500000000
pair_coeff 11 23 lj/cut 0.00070000000 3.5500000000
pair_coeff 11 24 lj/cut 0.00070000000 3.5500000000
pair_coeff 11 25 lj/cut 0.00070000000 3.5500000000
pair_coeff 11 26 lj/cut 0.00070000000 3.5500000000
pair_coeff 11 27 lj/cut 0.00070000000 3.5500000000
pair_coeff 11 28 lj/cut 0.00070000000 3.5500000000
pair_coeff 11 29 lj/cut 0.00070000000 3.5500000000
pair_coeff 11 30 lj/cut 0.00070000000 3.5500000000
pair_coeff 11 31 lj/cut 0.00070000000 3.5500000000
pair_coeff 11 32 lj/cut 0.00070000000 3.5500000000

pair_coeff 12 13 lj/cut 0.00070000000 3.5500000000
pair_coeff 12 14 lj/cut 0.00070000000 3.5500000000
pair_coeff 12 15 lj/cut 0.00070000000 3.5500000000
pair_coeff 12 16 lj/cut 0.00070000000 3.5500000000
pair_coeff 12 17 lj/cut 0.00070000000 3.5500000000
pair_coeff 12 18 lj/cut 0.00070000000 3.5500000000
pair_coeff 12 19 lj/cut 0.00070000000 3.5500000000
pair_coeff 12 20 lj/cut 0.00070000000 3.5500000000
pair_coeff 12 21 lj/cut 0.00070000000 3.5500000000
pair_coeff 12 22 lj/cut 0.00070000000 3.5500000000
pair_coeff 12 23 lj/cut 0.00070000000 3.5500000000
pair_coeff 12 24 lj/cut 0.00070000000 3.5500000000
pair_coeff 12 25 lj/cut 0.00070000000 3.5500000000
pair_coeff 12 26 lj/cut 0.00070000000 3.5500000000
pair_coeff 12 27 lj/cut 0.00070000000 3.5500000000
pair_coeff 12 28 lj/cut 0.00070000000 3.5500000000
pair_coeff 12 29 lj/cut 0.00070000000 3.5500000000
pair_coeff 12 30 lj/cut 0.00070000000 3.5500000000
pair_coeff 12 31 lj/cut 0.00070000000 3.5500000000
pair_coeff 12 32 lj/cut 0.00070000000 3.5500000000

pair_coeff 13 14 lj/cut 0.00070000000 3.5500000000
pair_coeff 13 15 lj/cut 0.00070000000 3.5500000000
pair_coeff 13 16 lj/cut 0.00070000000 3.5500000000
pair_coeff 13 17 lj/cut 0.00070000000 3.5500000000
pair_coeff 13 18 lj/cut 0.00070000000 3.5500000000
pair_coeff 13 19 lj/cut 0.00070000000 3.5500000000
pair_coeff 13 20 lj/cut 0.00070000000 3.5500000000
pair_coeff 13 21 lj/cut 0.00070000000 3.5500000000
pair_coeff 13 22 lj/cut 0.00070000000 3.5500000000
pair_coeff 13 23 lj/cut 0.00070000000 3.5500000000
pair_coeff 13 24 lj/cut 0.00070000000 3.5500000000
pair_coeff 13 25 lj/cut 0.00070000000 3.5500000000
pair_coeff 13 26 lj/cut 0.00070000000 3.5500000000
pair_coeff 13 27 lj/cut 0.00070000000 3.5500000000
pair_coeff 13 28 lj/cut 0.00070000000 3.5500000000
pair_coeff 13 29 lj/cut 0.00070000000 3.5500000000
pair_coeff 13 30 lj/cut 0.00070000000 3.5500000000
pair_coeff 13 31 lj/cut 0.00070000000 3.5500000000
pair_coeff 13 32 lj/cut 0.00070000000 3.5500000000

pair_coeff 14 15 lj/cut 0.00070000000 3.5500000000
pair_coeff 14 16 lj/cut 0.00070000000 3.5500000000
pair_coeff 14 17 lj/cut 0.00070000000 3.5500000000
pair_coeff 14 18 lj/cut 0.00070000000 3.5500000000
pair_coeff 14 19 lj/cut 0.00070000000 3.5500000000
pair_coeff 14 20 lj/cut 0.00070000000 3.5500000000
pair_coeff 14 21 lj/cut 0.00070000000 3.5500000000
pair_coeff 14 22 lj/cut 0.00070000000 3.5500000000
pair_coeff 14 23 lj/cut 0.00070000000 3.5500000000
pair_coeff 14 24 lj/cut 0.00070000000 3.5500000000
pair_coeff 14 25 lj/cut 0.00070000000 3.5500000000
pair_coeff 14 26 lj/cut 0.00070000000 3.5500000000
pair_coeff 14 27 lj/cut 0.00070000000 3.5500000000
pair_coeff 14 28 lj/cut 0.00070000000 3.5500000000
pair_coeff 14 29 lj/cut 0.00070000000 3.5500000000
pair_coeff 14 30 lj/cut 0.00070000000 3.5500000000
pair_coeff 14 31 lj/cut 0.00070000000 3.5500000000
pair_coeff 14 32 lj/cut 0.00070000000 3.5500000000

pair_coeff 15 16 lj/cut 0.00070000000 3.5500000000
pair_coeff 15 17 lj/cut 0.00070000000 3.5500000000
pair_coeff 15 18 lj/cut 0.00070000000 3.5500000000
pair_coeff 15 19 lj/cut 0.00070000000 3.5500000000
pair_coeff 15 20 lj/cut 0.00070000000 3.5500000000
pair_coeff 15 21 lj/cut 0.00070000000 3.5500000000
pair_coeff 15 22 lj/cut 0.00070000000 3.5500000000
pair_coeff 15 23 lj/cut 0.00070000000 3.5500000000
pair_coeff 15 24 lj/cut 0.00070000000 3.5500000000
pair_coeff 15 25 lj/cut 0.00070000000 3.5500000000
pair_coeff 15 26 lj/cut 0.00070000000 3.5500000000
pair_coeff 15 27 lj/cut 0.00070000000 3.5500000000
pair_coeff 15 28 lj/cut 0.00070000000 3.5500000000
pair_coeff 15 29 lj/cut 0.00070000000 3.5500000000
pair_coeff 15 30 lj/cut 0.00070000000 3.5500000000
pair_coeff 15 31 lj/cut 0.00070000000 3.5500000000
pair_coeff 15 32 lj/cut 0.00070000000 3.5500000000

pair_coeff 16 17 lj/cut 0.00070000000 3.5500000000
pair_coeff 16 18 lj/cut 0.00070000000 3.5500000000
pair_coeff 16 19 lj/cut 0.00070000000 3.5500000000
pair_coeff 16 20 lj/cut 0.00070000000 3.5500000000
pair_coeff 16 21 lj/cut 0.00070000000 3.5500000000
pair_coeff 16 22 lj/cut 0.00070000000 3.5500000000
pair_coeff 16 23 lj/cut 0.00070000000 3.5500000000
pair_coeff 16 24 lj/cut 0.00070000000 3.5500000000
pair_coeff 16 25 lj/cut 0.00070000000 3.5500000000
pair_coeff 16 26 lj/cut 0.00070000000 3.5500000000
pair_coeff 16 27 lj/cut 0.00070000000 3.5500000000
pair_coeff 16 28 lj/cut 0.00070000000 3.5500000000
pair_coeff 16 29 lj/cut 0.00070000000 3.5500000000
pair_coeff 16 30 lj/cut 0.00070000000 3.5500000000
pair_coeff 16 31 lj/cut 0.00070000000 3.5500000000
pair_coeff 16 32 lj/cut 0.00070000000 3.5500000000

pair_coeff 17 18 lj/cut 0.00070000000 3.5500000000
pair_coeff 17 19 lj/cut 0.00070000000 3.5500000000
pair_coeff 17 20 lj/cut 0.00070000000 3.5500000000
pair_coeff 17 21 lj/cut 0.00070000000 3.5500000000
pair_coeff 17 22 lj/cut 0.00070000000 3.5500000000
pair_coeff 17 23 lj/cut 0.00070000000 3.5500000000
pair_coeff 17 24 lj/cut 0.00070000000 3.5500000000
pair_coeff 17 25 lj/cut 0.00070000000 3.5500000000
pair_coeff 17 26 lj/cut 0.00070000000 3.5500000000
pair_coeff 17 27 lj/cut 0.00070000000 3.5500000000
pair_coeff 17 28 lj/cut 0.00070000000 3.5500000000
pair_coeff 17 29 lj/cut 0.00070000000 3.5500000000
pair_coeff 17 30 lj/cut 0.00070000000 3.5500000000
pair_coeff 17 31 lj/cut 0.00070000000 3.5500000000
pair_coeff 17 32 lj/cut 0.00070000000 3.5500000000

pair_coeff 18 19 lj/cut 0.00070000000 3.5500000000
pair_coeff 18 20 lj/cut 0.00070000000 3.5500000000
pair_coeff 18 21 lj/cut 0.00070000000 3.5500000000
pair_coeff 18 22 lj/cut 0.00070000000 3.5500000000
pair_coeff 18 23 lj/cut 0.00070000000 3.5500000000
pair_coeff 18 24 lj/cut 0.00070000000 3.5500000000
pair_coeff 18 25 lj/cut 0.00070000000 3.5500000000
pair_coeff 18 26 lj/cut 0.00070000000 3.5500000000
pair_coeff 18 27 lj/cut 0.00070000000 3.5500000000
pair_coeff 18 28 lj/cut 0.00070000000 3.5500000000
pair_coeff 18 29 lj/cut 0.00070000000 3.5500000000
pair_coeff 18 30 lj/cut 0.00070000000 3.5500000000
pair_coeff 18 31 lj/cut 0.00070000000 3.5500000000
pair_coeff 18 32 lj/cut 0.00070000000 3.5500000000

pair_coeff 19 20 lj/cut 0.00070000000 3.5500000000
pair_coeff 19 21 lj/cut 0.00070000000 3.5500000000
pair_coeff 19 22 lj/cut 0.00070000000 3.5500000000
pair_coeff 19 23 lj/cut 0.00070000000 3.5500000000
pair_coeff 19 24 lj/cut 0.00070000000 3.5500000000
pair_coeff 19 25 lj/cut 0.00070000000 3.5500000000
pair_coeff 19 26 lj/cut 0.00070000000 3.5500000000
pair_coeff 19 27 lj/cut 0.00070000000 3.5500000000
pair_coeff 19 28 lj/cut 0.00070000000 3.5500000000
pair_coeff 19 29 lj/cut 0.00070000000 3.5500000000
pair_coeff 19 30 lj/cut 0.00070000000 3.5500000000
pair_coeff 19 31 lj/cut 0.00070000000 3.5500000000
pair_coeff 19 32 lj/cut 0.00070000000 3.5500000000

pair_coeff 20 21 lj/cut 0.00070000000 3.5500000000
pair_coeff 20 22 lj/cut 0.00070000000 3.5500000000
pair_coeff 20 23 lj/cut 0.00070000000 3.5500000000
pair_coeff 20 24 lj/cut 0.00070000000 3.5500000000
pair_coeff 20 25 lj/cut 0.00070000000 3.5500000000
pair_coeff 20 26 lj/cut 0.00070000000 3.5500000000
pair_coeff 20 27 lj/cut 0.00070000000 3.5500000000
pair_coeff 20 28 lj/cut 0.00070000000 3.5500000000
pair_coeff 20 29 lj/cut 0.00070000000 3.5500000000
pair_coeff 20 30 lj/cut 0.00070000000 3.5500000000
pair_coeff 20 31 lj/cut 0.00070000000 3.5500000000
pair_coeff 20 32 lj/cut 0.00070000000 3.5500000000

pair_coeff 21 22 lj/cut 0.00070000000 3.5500000000
pair_coeff 21 23 lj/cut 0.00070000000 3.5500000000
pair_coeff 21 24 lj/cut 0.00070000000 3.5500000000
pair_coeff 21 25 lj/cut 0.00070000000 3.5500000000
pair_coeff 21 26 lj/cut 0.00070000000 3.5500000000
pair_coeff 21 27 lj/cut 0.00070000000 3.5500000000
pair_coeff 21 28 lj/cut 0.00070000000 3.5500000000
pair_coeff 21 29 lj/cut 0.00070000000 3.5500000000
pair_coeff 21 30 lj/cut 0.00070000000 3.5500000000
pair_coeff 21 31 lj/cut 0.00070000000 3.5500000000
pair_coeff 21 32 lj/cut 0.00070000000 3.5500000000

pair_coeff 22 23 lj/cut 0.00070000000 3.5500000000
pair_coeff 22 24 lj/cut 0.00070000000 3.5500000000
pair_coeff 22 25 lj/cut 0.00070000000 3.5500000000
pair_coeff 22 26 lj/cut 0.00070000000 3.5500000000
pair_coeff 22 27 lj/cut 0.00070000000 3.5500000000
pair_coeff 22 28 lj/cut 0.00070000000 3.5500000000
pair_coeff 22 29 lj/cut 0.00070000000 3.5500000000
pair_coeff 22 30 lj/cut 0.00070000000 3.5500000000
pair_coeff 22 31 lj/cut 0.00070000000 3.5500000000
pair_coeff 22 32 lj/cut 0.00070000000 3.5500000000

pair_coeff 23 24 lj/cut 0.00070000000 3.5500000000
pair_coeff 23 25 lj/cut 0.00070000000 3.5500000000
pair_coeff 23 26 lj/cut 0.00070000000 3.5500000000
pair_coeff 23 27 lj/cut 0.00070000000 3.5500000000
pair_coeff 23 28 lj/cut 0.00070000000 3.5500000000
pair_coeff 23 29 lj/cut 0.00070000000 3.5500000000
pair_coeff 23 30 lj/cut 0.00070000000 3.5500000000
pair_coeff 23 31 lj/cut 0.00070000000 3.5500000000
pair_coeff 23 32 lj/cut 0.00070000000 3.5500000000

pair_coeff 24 25 lj/cut 0.00070000000 3.5500000000
pair_coeff 24 26 lj/cut 0.00070000000 3.5500000000
pair_coeff 24 27 lj/cut 0.00070000000 3.5500000000
pair_coeff 24 28 lj/cut 0.00070000000 3.5500000000
pair_coeff 24 29 lj/cut 0.00070000000 3.5500000000
pair_coeff 24 30 lj/cut 0.00070000000 3.5500000000
pair_coeff 24 31 lj/cut 0.00070000000 3.5500000000
pair_coeff 24 32 lj/cut 0.00070000000 3.5500000000

pair_coeff 25 26 lj/cut 0.00070000000 3.5500000000
pair_coeff 25 27 lj/cut 0.00070000000 3.5500000000
pair_coeff 25 28 lj/cut 0.00070000000 3.5500000000
pair_coeff 25 29 lj/cut 0.00070000000 3.5500000000
pair_coeff 25 30 lj/cut 0.00070000000 3.5500000000
pair_coeff 25 31 lj/cut 0.00070000000 3.5500000000
pair_coeff 25 32 lj/cut 0.00070000000 3.5500000000

pair_coeff 26 27 lj/cut 0.00070000000 3.5500000000
pair_coeff 26 28 lj/cut 0.00070000000 3.5500000000
pair_coeff 26 29 lj/cut 0.00070000000 3.5500000000
pair_coeff 26 30 lj/cut 0.00070000000 3.5500000000
pair_coeff 26 31 lj/cut 0.00070000000 3.5500000000
pair_coeff 26 32 lj/cut 0.00070000000 3.5500000000

pair_coeff 27 28 lj/cut 0.00070000000 3.5500000000
pair_coeff 27 29 lj/cut 0.00070000000 3.5500000000
pair_coeff 27 30 lj/cut 0.00070000000 3.5500000000
pair_coeff 27 31 lj/cut 0.00070000000 3.5500000000
pair_coeff 27 32 lj/cut 0.00070000000 3.5500000000

pair_coeff 28 29 lj/cut 0.00070000000 3.5500000000
pair_coeff 28 30 lj/cut 0.00070000000 3.5500000000
pair_coeff 28 31 lj/cut 0.00070000000 3.5500000000
pair_coeff 28 32 lj/cut 0.00070000000 3.5500000000

pair_coeff 29 30 lj/cut 0.00070000000 3.5500000000
pair_coeff 29 31 lj/cut 0.00070000000 3.5500000000
pair_coeff 29 32 lj/cut 0.00070000000 3.5500000000

pair_coeff 30 31 lj/cut 0.00070000000 3.5500000000
pair_coeff 30 32 lj/cut 0.00070000000 3.5500000000

pair_coeff 31 32 lj/cut 0.00070000000 3.5500000000

special_bonds lj 0.0 0.0 0.0 coul 0.0 0.0 0.0

#pair_style tersoff 
#pair_coeff * * C.4.tersoff 1 2 3 4

#pair_style lj/cut 12.0
#pair_coeff 1 1 0.00070000000 3.5500000000
#special_bonds lj 0.0 0.0 0.0 coul 0.0 0.0 0.0
###########################################################################


#--------------------------------------------------------------------------
#variables
#--------------------------------------------------------------------------
variable   	dt 		equal 0.001
#--------------------------------------------------------------------------
#kappa parameters
#--------------------------------------------------------------------------
variable    	p 		equal 100000 	# correlation length
variable    	s 		equal 10  	# sample interval
variable    	d 		equal $p*$s 	# dump interval 
variable    	d 		equal 100000*$s 	variable    	d 		equal 100000*10 	
#--------------------------------------------------------------------------
variable 	T_run 		equal 300
#--------------------------------------------------------------------------

log 	log_heat_${iseed}.lammps
log 	log_heat_2.lammps
