	reset_timestep  	0
	fix 			1 all nve
	compute   		myKE all ke/atom
	compute   		myPE all pe/atom
	compute   		myStress all stress/atom virial
	compute   		flux all heat/flux myKE myPE myStress
	variable  		Jx equal c_flux[1]/vol
	variable  		Jy equal c_flux[2]/vol
	variable  		Jz equal c_flux[3]/vol
	fix       		JJ all ave/correlate $s $p $d c_flux[1] c_flux[2] c_flux[3] type auto file J0Jt_${iseed}.dat ave running
	fix       		JJ all ave/correlate 10 $p $d c_flux[1] c_flux[2] c_flux[3] type auto file J0Jt_${iseed}.dat ave running
	fix       		JJ all ave/correlate 10 100000 $d c_flux[1] c_flux[2] c_flux[3] type auto file J0Jt_${iseed}.dat ave running
	fix       		JJ all ave/correlate 10 100000 1000000 c_flux[1] c_flux[2] c_flux[3] type auto file J0Jt_${iseed}.dat ave running
	fix       		JJ all ave/correlate 10 100000 1000000 c_flux[1] c_flux[2] c_flux[3] type auto file J0Jt_3.dat ave running
	compute 		myDis all msd 
	thermo_style 		custom step temp press vol c_myDis[4] v_Jx v_Jy v_Jz 
	thermo			1000
	timestep		${dt}
	timestep		0.001
	run			1000000
Memory usage per processor = 6.0234 Mbytes
Step Temp Press Volume myDis[4] Jx Jy Jz 
       0    298.07903    7620.7687    23887.872 8.1902932e-30 0.0061385129 -0.0024503709 0.0012596582 
    1000    301.29375    6726.9444    23887.872    2.0705671 -0.011856585 0.0040773147 0.0020296046 
    2000    306.12919    6569.5943    23887.872    6.5521042  0.015838435 -0.0031914609 -0.0086624764 
    3000     297.5082      9201.01    23887.872    11.577822 -0.011419208 -0.0016567853 0.0031942062 
    4000    296.90644     4784.112    23887.872     16.23972 -0.0049612489 0.0011760399 0.0019726617 
    5000     297.5207    5805.8508    23887.872    19.590513 -0.0083473302 -0.004603623 -0.0078806304 
    6000    299.48811    6631.5443    23887.872     21.40226 -0.004228169 0.0073401216 0.0066253865 
    7000     305.8233    7409.5466    23887.872    22.985967 0.0042436705 -0.011508543 0.0011202135 
    8000     297.8242    7004.5798    23887.872    24.802604 0.0082095419 0.0069923372  0.010469491 
    9000    300.04523     7254.862    23887.872    25.608023 0.0028152709 0.0078585626 0.0026494321 
   10000    296.35052    7900.7276    23887.872     25.33432 -0.013229954 -0.0056030941 -0.0025826518 
   11000    303.07708    5894.9074    23887.872     24.27341 -0.0023683975  0.010816706 0.0049237461 
   12000    300.84431     5123.787    23887.872    23.519403 0.0072854784 -0.00078093063 -0.004151025 
   13000    298.28128    7521.5803    23887.872    24.306132 0.0071275905 -0.0073218321 -0.012183618 
   14000    293.14937    8311.1358    23887.872    25.486815 -0.001713791 0.0083758229 0.0053167844 
   15000    296.60434    2682.2765    23887.872    26.600156 -0.0050553558 -0.010028377 -0.013492052 
   16000    301.78155    4046.6038    23887.872    27.454266 -0.010321162 -0.00058263402  0.014064524 
   17000    297.78527    5848.1852    23887.872    27.161487 -0.00024209652 -0.011482368 -0.0032501396 
   18000    303.55112     5918.005    23887.872     25.91784 -0.0023048101 0.0035540885    0.0105101 
   19000    300.58981    8077.7007    23887.872    25.377079 -0.002709517 0.0058676892 0.0015613002 
   20000    303.70707    6485.5104    23887.872    26.641394 0.0076151668 0.0082543383 -0.0011112116 
   21000    299.81099    6635.9006    23887.872    28.319265 -0.0028357086 0.00016960998  0.010239091 
   22000     300.7034    5635.4235    23887.872    28.911371  0.011747632 0.0061368459  0.010817045 
   23000    305.20334    6755.5914    23887.872    28.981276 0.0054620893 -0.0094243076 -0.0079009352 
   24000    301.68454    6867.1869    23887.872    28.358768 -0.0094460999 -0.0030110052 0.0047771021 
   25000    295.47398    6952.8723    23887.872    26.936075 0.0075717651 0.0041430462  0.013507499 
   26000    296.41062    5668.5208    23887.872    26.473211 -0.0045485629 0.0091645563 0.0044294905 
   27000    305.28562     8664.187    23887.872      27.2495 -0.0040981867 0.0016860664 0.0041716008 
   28000    297.62137    7374.7245    23887.872    28.019934  0.012386512 -0.00017602546 -0.014239012 
   29000    296.00662     4349.963    23887.872    28.662969 0.0041019136 -0.012133864 0.0017144112 
   30000    300.46538    6400.6192    23887.872    28.957569 0.0025902567 0.0095126221 -0.0057075273 
   31000    299.12618    8634.9227    23887.872    28.893499  0.002351542 -0.0012818867 -0.0025291675 
   32000    305.08541    4313.1952    23887.872    28.623485   0.00485002 -0.019921047 0.0042700584 
   33000    298.74002    5674.5199    23887.872    28.321295 0.0062895162 -0.003708676 0.0025068611 
   34000    298.28503     5831.985    23887.872    28.361677 0.0086921552 0.0028004858  0.015802482 
   35000    297.00442    7944.5391    23887.872    29.154705 0.00052623538 0.0058629931 -0.0026601296 
   36000    302.46562     5402.397    23887.872    29.348198 -0.0051594745 -0.00060080377 -0.0063405444 
   37000    301.71717    3909.6007    23887.872    28.824153  0.015180947 7.5863732e-05 0.0043718222 
   38000    300.87274    5931.9382    23887.872    27.695334 -0.0037554371 0.0031351573  0.003871488 
   39000    297.84831    7751.9504    23887.872    26.827987 0.00092784261  0.010647615 -0.0049139548 
   40000     291.3943    7823.1245    23887.872    25.779746 -0.001375277  0.013955901 -0.013593935 
   41000    296.15697    3629.4497    23887.872    25.320697 0.0016609057 0.0063891446 0.0013127194 
   42000    300.69617    4205.0951    23887.872    25.823199 -0.0040321638 0.0038561439  0.002591155 
   43000    307.70922     5509.665    23887.872    26.096111 -0.013307923 0.0096939295  0.015583443 
   44000    291.51548    8281.7764    23887.872    26.246071 0.0014832924 -0.0046055408 0.00032518278 
   45000    300.76156    6093.0866    23887.872    26.242486  0.015485159 0.0067840957 0.0087289358 
   46000    296.02571    4397.8428    23887.872    25.856316 -0.0047907079 0.0041974748 -0.023275663 
   47000    301.24485    6536.8231    23887.872    25.620882 -0.001182292 0.0027217497 -0.0053435319 
   48000    305.18232    8217.5121    23887.872    26.246491 -0.0034921538  0.011730192 -0.0019934593 
   49000    305.41475    3703.7059    23887.872    26.942131 -0.0058504909 -0.0090736886 0.0010167745 
   50000    303.97171    6330.1595    23887.872    27.526912  0.012215012 0.0087003809 -0.017476335 
   51000    303.16965    8519.4358    23887.872    27.345139 0.0074425152 0.0044975023 -0.0080100158 
   52000    307.01158    5845.7712    23887.872    27.113409  0.008968172 -0.0051717917 -0.0041482611 
   53000     310.7816     5360.828    23887.872    26.745299 0.0087478896 -0.010460588 -0.0045181599 
   54000     298.4945    5216.8595    23887.872    27.129539 -0.011401753 -0.0034114143 -0.0016559985 
   55000    297.11249     6382.384    23887.872    27.667834 0.0075909114 -0.018828189 -0.0030585321 
   56000    298.53327    9215.7781    23887.872    28.162076 -0.0049505532 -0.0011222747 0.0019417592 
   57000    295.91755    4425.6666    23887.872    28.998102 -0.0020986727 0.0086070083 -0.0014475762 
   58000    300.08916    3646.2875    23887.872    29.754646 -0.006162906 -0.0032984655 -0.0029889585 
   59000    301.60615     6745.331    23887.872    30.642798 -0.014156064 0.0014456496 -0.0041379434 
   60000    302.63302    8381.5728    23887.872    30.711717 0.0016637536 -0.0089505597  0.012229126 
   61000    294.45965    1087.4148    23887.872    29.932512  0.010360885 0.0078712608  0.004548665 
   62000    300.48719    5995.7854    23887.872     28.77966 0.0032757197 0.0020638132 0.0065037813 
   63000    302.84405    8204.3383    23887.872    27.635012 0.0047639661 0.0022362328 -0.00094155288 
   64000    298.12335    4442.6089    23887.872    26.614517 -0.00093010915 -0.0085721444 0.00060439977 
   65000    292.12374    4502.5182    23887.872    26.439199 -0.00081924847 0.0093219331 -0.0073000974 
   66000    297.26518    5446.7257    23887.872    27.156105 0.0081256744 -0.0088210051 0.0062264458 
   67000    298.52629    7022.5124    23887.872    28.352207 -0.0096786424 0.0077063867  0.020931943 
   68000    299.28141     8230.805    23887.872    28.999042 -0.0093190861 0.0051152792 -0.0029759321 
   69000    294.44399     3332.505    23887.872    28.306703  0.011033431 -0.0029150139 3.3075696e-05 
   70000     300.9714    7481.8231    23887.872    27.257231 -0.0088195388 -0.0084185362 -0.014999788 
   71000    303.30836    7490.1955    23887.872     26.33533 -0.0061859542 -0.00088751801 -0.0066881351 
   72000    301.80796    6386.0255    23887.872    25.599434 -0.0057375065 -0.0083970956 0.0061357692 
   73000    303.48963     6886.632    23887.872    25.624615 -0.0093373942 -0.0074348877 -0.015594564 
   74000    297.47767    6614.8912    23887.872    26.825449 -0.004974186 0.0036071987 0.0076101499 
   75000    298.66594    6096.8711    23887.872    27.468702 -0.00081074486  0.015865159 -0.013035965 
   76000    302.29689    4641.9144    23887.872    27.616504   0.01001033 0.0061399425 -0.0007693365 
   77000     302.0661    4130.9502    23887.872    28.226144  0.013185537 0.0042643726 -0.0063714815 
   78000    301.76352    7898.2088    23887.872    29.028861 0.0043741884 -0.0002101318  0.018251719 
   79000    300.66719    6307.0143    23887.872     29.68522 0.0039582146 0.0004522308 -0.00028690094 
   80000    296.29027    5178.2232    23887.872    29.436375 0.0017120665 -0.013140191 -0.0058094651 
   81000    297.82127    4446.4086    23887.872    29.079102 -0.0012669833 0.0039041748  -0.01086803 
   82000    299.57057    7388.1315    23887.872    29.456041 -0.0042551713 -0.0016649096 -0.000515566 
   83000    299.84416    7166.4392    23887.872    29.876778  0.005184748 -0.0040895085 0.0082325804 
   84000    300.12172    5479.4585    23887.872    30.014797 0.0061784823 0.0073522221 -0.020363282 
   85000    296.80342     4719.521    23887.872    29.847226 0.0053049358 -0.0094252488  0.017702838 
   86000    305.61322    5152.2561    23887.872    29.345589 -0.0020755303 -0.0033833744 0.0097558003 
   87000     297.7172     6071.811    23887.872    28.496476 0.0042971018 0.0071229636  0.019354078 
   88000    293.93695    8224.4235    23887.872    27.402536 0.0031124462 0.0049114819 0.0010654552 
   89000    301.79216    5224.0099    23887.872    26.744676 0.0023778579 0.0061361458 -0.0029571524 
   90000    294.81288    3085.3773    23887.872    26.750354 -0.0063668804  0.014455266 -0.0072448241 
   91000    293.89803     8028.397    23887.872    26.475791 -0.00096767007 0.0089987496  0.003834971 
   92000      301.301    8513.0821    23887.872     25.93772 -0.010951809 -0.0095621954 0.0066317134 
   93000    298.62517    5214.0672    23887.872     25.22744 -0.0031790385 -0.0021736483  0.007944797 
   94000    294.33994    5575.4039    23887.872    24.514171 0.0040191399 -0.0038385294 0.0016990179 
   95000    299.45321    7667.8529    23887.872    24.058199 -0.0062450445 0.0026932136 -0.0074877559 
   96000    294.71245    7663.6174    23887.872    24.270588 -0.00020649668 0.0016412567 0.0029243022 
   97000    300.60042    6107.2097    23887.872    24.775702  0.013601238 -0.00077197906 0.0071406829 
   98000    302.84484    5947.8118    23887.872    25.376618 -0.016594088 -0.0025952923 -0.0067972416 
   99000    297.68322    6375.9428    23887.872    26.192416 0.0064314144 -0.010297189 -0.002593933 
  100000    296.27494    5478.5233    23887.872    26.805373 0.0048104155 -0.0078962965 -0.014517515 
  101000    300.17509    7023.9306    23887.872    26.679784 -0.00047406177 0.0069827612 -0.0092596784 
  102000    297.03376    9782.0902    23887.872    25.140937 -0.0019194326 -0.0095065122 -0.00064316293 
  103000    298.84594    5262.7225    23887.872    24.172588 -0.0019454791 -0.022157119 0.0053631174 
  104000    301.08916    3776.0423    23887.872     23.52525 0.0064320273 0.0073331085 -0.0050871864 
  105000     304.8732    7096.5171    23887.872    24.234314 0.0051404495 -0.0082489475 0.0045019433 
  106000    300.66009    8618.4577    23887.872    25.225534  0.010694564 0.0042860036  0.006730332 
  107000    302.49736    4319.1254    23887.872    25.885953 0.0018989309 -0.0077269763 0.0086551013 
  108000    297.88647    6700.5573    23887.872    25.649105 -0.011817568 0.0038635863   0.00711806 
  109000    292.51205    4938.7291    23887.872    24.968717 0.0065227171 0.0010139896  0.024249857 
  110000    300.15368    8852.9783    23887.872    24.400609  0.005668906 -0.0075535434  0.013018948 
  111000    292.74332     4950.635    23887.872     24.24596 -0.0045754711 -0.0022253425 0.0032892694 
  112000    301.51817    4405.5476    23887.872    24.691068 0.0084053375 -0.0036188443 0.0023369121 
  113000    298.61598    8163.9186    23887.872    25.462589 -0.0056699119 -0.011014975 -0.0045064722 
  114000     296.2618    6192.9514    23887.872    25.515724 0.0069493343 -0.0019834846 -0.0083090074 
  115000    294.84536    3534.7522    23887.872    25.179927 0.0096997206 0.0025697628 -0.0080834523 
  116000    298.36214     8534.548    23887.872    24.857569 0.0067070175 -0.003140532 -0.0067868166 
  117000    298.52964    5575.7358    23887.872    24.926445 -0.0024800722 0.0032194964 0.0023217127 
  118000    300.92511    2678.8788    23887.872    25.821897 -0.0049712615 -0.0062580823 0.0022550037 
  119000    300.97584    5493.3864    23887.872    26.415204  0.012777601 0.0018885013 0.0033252976 
  120000    301.57133    7782.1456    23887.872     26.21417  0.013696092 -0.0025836533 -0.005926569 
  121000    298.47683    5557.2464    23887.872    25.302781 -0.0043366198 -0.0042567402 -0.001518155 
  122000    302.16761    4294.0412    23887.872     24.49601 -0.0079499211 0.00028874102 -0.0029766077 
  123000    300.59688    4274.0397    23887.872    24.409151 0.0048350488 -0.0071127553 0.0082137815 
  124000    301.42135    9006.4947    23887.872    24.809154 0.0050978031 -0.012681869 -0.00063801389 
  125000    300.61676    3567.4204    23887.872    24.698955 -0.0031083398 -0.016336265 0.0032158946 
  126000    295.39873    3149.3364    23887.872    24.397806 0.0048686151 -0.0058151823 0.00022376397 
  127000    297.85129    8892.5795    23887.872    24.534146 -0.0052134501 -0.0099568211 -0.012481313 
  128000    294.65541    7692.1814    23887.872    25.685828    0.0119592 0.00090830693 -0.0056824177 
  129000    298.84555    2916.1162    23887.872    26.803257 -0.0070504703  0.011613042 0.0088487686 
  130000    298.50695    4829.7975    23887.872    26.884179 0.0069803613 -0.0016032635  0.004401704 
  131000    294.31917    8748.3953    23887.872    26.439944 0.0064512103  0.012068852 0.0012888131 
  132000    296.94985    4683.3435    23887.872    25.650033 -0.0047940554 0.00019358892 -0.0069270181 
  133000    303.22954    5170.9721    23887.872    24.432599 0.0043151182 -0.0052912009 -0.00099079768 
  134000    302.95021    5626.3868    23887.872    23.940101 0.0077750051  0.012119671 -0.011056361 
  135000    295.84802    6876.6364    23887.872    24.505521 -0.0032113028 -0.0092937235 0.0047844165 
  136000     308.3552    5511.6177    23887.872    25.249739 -0.0013212644  0.013290343 0.0097800668 
  137000    297.12243    6913.4601    23887.872    25.415591 -0.0063891244 0.0010167352 -0.0042513983 
  138000      307.456    5248.8793    23887.872    24.934209 0.0074315951 -0.012290422 -0.0048090093 
  139000    303.60945     1961.413    23887.872    24.535209  0.005461504 -0.0068601966  0.005538346 
  140000    298.23344    7086.8933    23887.872    23.904754 0.0088599662  0.010885137  0.010204301 
  141000    301.93098    8278.7048    23887.872    24.102897 0.00024705571 -0.0043977418 0.0080627228 
  142000    301.82844    5361.4928    23887.872    24.918664  0.006089839 0.0040182532 0.0027798196 
  143000    296.39796    3656.4727    23887.872     25.27973 0.0061939433 0.0087377652  -0.01437098 
  144000    300.92412    7411.6392    23887.872    25.398405 -0.0035300346 -0.0088205839 0.0010061907 
  145000    302.69625    8106.8599    23887.872     25.47014   0.02326225  0.018781718 0.00092442509 
  146000    304.38309    4159.0764    23887.872    25.848576 -0.00060512371 -0.0015693661 0.0021020309 
  147000    305.65579    6821.5287    23887.872    26.576056  0.013306179 0.0096497622  0.009419525 
  148000    300.49021    6303.4528    23887.872    27.392795 0.0028154865 0.0023787324 -0.0091868806 
  149000    296.42588    5128.4432    23887.872    27.262948 0.0031668326  0.002293999 0.0060837716 
  150000    291.95686    7194.4727    23887.872    26.622427 -0.0022607623  0.007397488 -0.0038446425 
  151000    298.59465    6559.3088    23887.872    25.650764 -0.0034503939 0.00033469434 -0.0022699477 
  152000     298.9063    6230.1857    23887.872    25.073839 -0.0093839944  -0.01403007 -0.0036719453 
  153000    301.50522    5855.5653    23887.872    25.260791 -0.018153083 0.00051919744 -0.0055644446 
  154000    301.26077    5571.9957    23887.872    26.176923 -0.014562301 0.0078681929 0.0038267617 
  155000    304.94826    8414.1106    23887.872    27.822678 -0.0066874175 0.0082570931 -0.0092778887 
  156000    300.94824    5158.3527    23887.872    28.923874  0.011199221 0.0028004063 -0.0013303304 
  157000    300.90157    5691.9952    23887.872    29.128753 -0.0089356697 -0.0060802027  0.008048969 
  158000    302.26633    5091.0907    23887.872    28.742732 -0.0032090575 0.0076104762 0.00080334173 
  159000    301.03163    8920.7495    23887.872    28.475315 -0.0025814845 -0.0054124252 0.0019264746 
  160000    299.47671    4852.5916    23887.872    29.280909 -0.0013197338 -0.0055434829 -0.0040876476 
  161000     298.2234    5707.1313    23887.872    30.293786 -0.0098212529 0.0092318196  -0.01006259 
  162000    295.12749    7496.2025    23887.872    30.421613 -0.0037512383  0.019317102  0.013094741 
  163000    294.46463    8925.4393    23887.872    29.986091 -0.0038525624 -0.0044545096 0.0068438771 
  164000    301.00738    5438.1387    23887.872    28.524807 -0.020012823 0.0048915273 -0.0024325139 
  165000    301.11059    4902.8493    23887.872    26.188748  -0.00297765 0.0051631163 8.982593e-05 
  166000    303.24994    5366.6465    23887.872    23.833999 0.0024141068 -0.0025798955 -0.0032065122 
  167000    300.09709    6488.9494    23887.872     22.75995  0.011443664 -0.0062531849 0.0058126535 
  168000    305.22255    5506.8592    23887.872    23.183064 0.0011626434  0.018400392 0.0024931336 
  169000    299.30667    6930.8773    23887.872    25.350181 0.0014940725 0.0024915419 0.0064805773 
  170000    299.02371    4873.1741    23887.872    27.504912 0.0036629914 -0.0088684389 0.0025264603 
  171000    300.88621    4927.0706    23887.872    28.889615 -0.0019264185 -0.0070663994 -0.013269621 
  172000    301.48259    9304.1646    23887.872      28.4876 0.0055842774 0.0010269624 -0.00017193512 
  173000    301.19623    8314.5953    23887.872    27.382753 -0.0053287517 -0.0061315793 -0.00041311247 
  174000    302.17903     4637.573    23887.872    26.308831 0.0063028231   0.01027572 -0.00076322906 
  175000    307.98254    4091.9798    23887.872    25.988951 0.0068628547  0.010929493 0.0036730518 
  176000    297.03684    8251.6317    23887.872     25.69777 -0.0055041867  0.012673781 -0.015665817 
  177000    295.98773     5710.439    23887.872    26.269657 -0.0030408727  0.012301438 0.0064351704 
  178000     300.3996    4429.3581    23887.872    27.270673 -0.008688566 -0.0057433366 0.0042939902 
  179000    295.51703     4323.824    23887.872    27.810086  -0.01048372  0.019374952 -0.002647484 
  180000    299.65049    8042.6105    23887.872    27.830138 -0.0052607079 -0.0046466028 0.0040934543 
  181000    299.13459    7155.6884    23887.872    27.762339 -0.0059972649 -0.0064718517 0.00033053245 
  182000    300.02224    4354.8327    23887.872    27.105952 0.0042205609 -0.0085566839 0.0032068601 
  183000    307.45479    7775.2361    23887.872    26.480062 -0.0015833532 -0.0032218122 0.0018900656 
  184000    296.23214    3881.9793    23887.872    25.839185  0.017708752  0.012347807 0.0056372371 
  185000    300.49193    3380.2061    23887.872    24.988291 -0.0013896768  0.018158655 0.00042951947 
  186000    295.53144    6648.8224    23887.872    24.850389 -0.0032079593 -0.0050574076  0.011163326 
  187000    299.40825    8959.4023    23887.872    25.438283 0.0043812796 0.0032834528 0.00031934475 
  188000    302.84933     5199.129    23887.872    25.840763  -0.01024494  0.015075778 -0.009850753 
  189000    301.10471     5463.946    23887.872    25.715323 -0.0061868864 0.0017392988 -0.010809021 
  190000    293.22876     9692.744    23887.872    25.902438 0.0087775262 -0.00076614951  0.011457212 
  191000    298.64456    5583.6492    23887.872    25.674455 -0.012962775 0.0014580762 0.0071735182 
  192000    299.40405    3014.7722    23887.872    25.460369 -0.0030742404 -0.0040979765  0.011339675 
  193000    291.88229    5687.3171    23887.872    25.671826 0.0078697138 -0.003900044  0.013885734 
  194000    296.30949     7552.581    23887.872    26.477929 -0.0053949952 -0.015262623 -0.014781192 
  195000    304.32882    7391.2578    23887.872    27.856355  0.018916245 -0.0091570347 0.0039404129 
  196000    301.23085    2270.3565    23887.872    28.537874 -0.019320372 -0.0070199199  0.005107205 
  197000    298.38909    5470.7883    23887.872    28.881446 -0.0012846348 -0.013774302  0.014189453 
  198000    301.58142    8881.6155    23887.872    28.826366 -0.0017897941 -0.0028098275 -0.0022288162 
  199000    300.07405    3961.8817    23887.872    28.348505 -0.0056585137 -0.0082426763 0.0040325756 
  200000    300.38185    3304.8177    23887.872    27.673259 -0.0006204354 0.0054807528 0.0091666633 
  201000    297.38256    8571.3352    23887.872    26.320995 -0.0025509667 -0.002178488 -0.0044125906 
  202000    301.67263    7957.9505    23887.872    25.096226 0.0094640785 -0.0055673618 -0.012960497 
  203000    306.57356    3240.9686    23887.872    25.044248 -0.0045327058 -0.00040023016  0.010468174 
  204000    292.32254    6150.3481    23887.872    25.321633 0.0034467548 0.0017238838 -0.0079840247 
  205000    298.40757    7550.3417    23887.872    25.302355 0.0068817681 -0.006258857 -0.00091519627 
  206000    292.12781    6786.8149    23887.872    25.034143 -0.00094954368 0.0024219725   0.01077623 
  207000    295.09857    4466.1278    23887.872    25.256998  0.017148696 0.0041468011 -0.0066004712 
  208000    294.32097    7761.0202    23887.872    26.183329 -0.0080559274 0.0033624177 0.0018884942 
  209000    300.22726     5913.302    23887.872    27.726015 0.0032202721 -0.0086250468 -0.010739547 
  210000    298.85932    4238.0275    23887.872    29.437109 -0.0023881398  0.015442002 -0.0051721857 
  211000    295.95955    8211.6144    23887.872    30.186389 0.0072492559 -0.0021969445 -0.010662717 
  212000    297.39419    5467.8483    23887.872    29.898678  0.010578703 -5.7006902e-05 0.0075206867 
  213000    296.00689    5519.0058    23887.872    29.212712 -0.0013044215 0.0021687061 0.00079954425 
  214000    293.15458    6187.4408    23887.872    28.639962  -0.01067234 0.0068442344 -0.0058662969 
  215000    289.95289    9190.2012    23887.872     28.69825 0.00097722573 -0.0027590083 -0.0012562216 
  216000    300.13459    6244.8261    23887.872    29.008575 -0.0078792466 -0.009766381 -0.010719478 
  217000    298.73403    4358.6926    23887.872    29.440118 -0.0086737007  0.011208786 -0.0040276757 
  218000    304.91949    5798.6426    23887.872    29.328635 0.0060164771 -0.0017424747 0.0035966663 
  219000    295.71851    6353.4599    23887.872    28.545286 0.0048551021 -0.018436614 -0.0019502016 
  220000    297.83875    5803.6314    23887.872    28.157454 0.0065447672 -0.0057283944 -0.009838832 
  221000    299.00156    5375.6105    23887.872    28.329674 -0.00017483061 0.0015254964 -0.00048344469 
  222000    298.93368    4911.6272    23887.872    28.077234  0.010334752 -0.0085829672 -0.0051679909 
  223000    307.03271     7576.986    23887.872     28.11486 -0.0035142543 -0.0057726394 -0.0024046686 
  224000    298.86021    5450.0718    23887.872    28.319305  0.014568153  0.010457488 -0.0069090405 
  225000    301.67771    5436.3609    23887.872    28.526462 -0.0070683619 -0.00042209114 -0.00091307684 
  226000    304.70258    8043.1769    23887.872     29.29729 -0.0050290611 -0.0036332542 -0.0029902154 
  227000    295.96078    5926.1609    23887.872    29.450359  0.011847312 -0.0050586393 -0.0034730751 
  228000    297.39511    5969.1591    23887.872    28.930647 -0.00027015817 0.0014701462 8.8987479e-05 
  229000    308.68964    6822.3358    23887.872    28.477636 0.00042950638 -0.00091772728 0.0053003896 
  230000    297.92109    5954.0458    23887.872    28.718441 -0.0053812969  0.019646917 -0.016912392 
  231000    300.68663    7120.1092    23887.872    28.841346 -0.010549729 -0.016268019 -0.00023589094 
  232000    301.86839    2860.1588    23887.872    28.540137 0.0012141552 0.0087163138 -0.0024977778 
  233000    294.09958    7647.8421    23887.872      28.3447 0.0027028379 -0.0019397146 0.00026255657 
  234000    300.44365    9466.2336    23887.872    27.762017 -0.0056449315 0.0048760874 0.0089744984 
  235000     296.5432    3431.1406    23887.872    26.513364 0.0041312608 -0.0030092982 0.0020919491 
  236000    304.45517    7168.3148    23887.872    25.728872 -0.0023431142 0.0016622212 -0.0079777928 
  237000    296.70016    6743.8292    23887.872    25.889251 0.0061409284 0.00067711183 -0.0036358778 
  238000    296.70101    7171.2067    23887.872    27.129305 0.0017206955 0.0055362378 0.0091365028 
  239000    303.09429     5335.067    23887.872     28.07203 0.0052298996 -0.00078614149 -0.0060234065 
  240000    304.61668    5539.8856    23887.872    29.048998 0.00076460377 0.0090810977 0.0015101143 
  241000    297.96916     5505.952    23887.872    29.454223 0.0062745703  0.010087715 -0.0028491445 
  242000    303.59646    7172.1736    23887.872     28.72931 -0.012537067 0.0047480446 -0.0052149174 
  243000     295.0641    3663.5874    23887.872    28.165728 -0.012158564 -0.0061910931 -0.0089561745 
  244000    299.53638    5251.9164    23887.872    27.584146 0.0096463587  0.013650025 -0.0013762472 
  245000    301.37067    6614.6729    23887.872     27.63882  0.016463778 -0.0029135584  0.012446291 
  246000    292.58803    8374.6954    23887.872    28.052178 0.0010226268 -0.010731447 0.0064702442 
  247000    298.98996    4348.9779    23887.872    28.549602 0.0050432149 -0.0020619989 -0.0039790353 
  248000    297.76498    6421.1216    23887.872    28.722545 0.0031914204 -0.0018032068  0.013057078 
  249000    293.33936    7257.5281    23887.872    28.507212 0.0028119432 0.0069732587 0.0017723107 
  250000    298.08899    6060.6529    23887.872     27.75744 -0.0082919182 -0.0073200395  0.001654495 
  251000    297.70627    6805.3473    23887.872    27.087157 0.0059610744 -0.0054945639 0.0054951674 
  252000    292.72087     5742.899    23887.872    26.831457  0.010973914 -0.003357775 -0.017825824 
  253000    294.57495    7219.4058    23887.872    26.635596 -0.0052972916 -0.005365416 -0.0025229584 
  254000    294.79089    6719.6664    23887.872    26.874636 0.0029852271 -0.0045487841 -0.013448206 
  255000    295.22205    6433.2511    23887.872    26.870477  0.022532587 -0.0098088919 -0.0086697792 
  256000    301.16514    4194.5759    23887.872    26.268318 0.00025913545 -0.0040503821 -0.0050645618 
  257000    294.63579    4657.9853    23887.872     25.42151 -0.0053107499 -0.0047359548 -0.005236515 
  258000    304.20907    6411.8118    23887.872    24.790168 0.0093922638  0.003191273 0.0086142633 
  259000    303.52572     7645.564    23887.872    24.595129 -0.0086637244 0.0043868662 -0.013303386 
  260000    296.24174    3516.1164    23887.872    25.318307 -0.0033719374 0.0070068623  -0.01007798 
  261000    297.65675    2908.4558    23887.872     26.40937 -0.0021528923 0.0032835361 -0.00014946641 
  262000    299.08231    9019.5187    23887.872     27.08792  0.023654159 0.0010374458  0.007989992 
  263000     299.0321    5332.0467    23887.872    28.049237 -0.0015642486 -0.0080002397  0.016980492 
  264000    301.84738    2357.6627    23887.872    28.383596 0.0035258737 -0.014878762 -0.0008316832 
  265000    305.23864    7828.3203    23887.872    28.566373 -0.0030101956  0.011440148 -0.00054732618 
  266000    304.11236    5344.3586    23887.872     28.87825 -0.012413236  0.013448622 -0.0074193009 
  267000    307.09806    4951.2007    23887.872    29.563105 -0.0086526138 -0.0012713052  0.016478917 
  268000    297.17666    6338.6974    23887.872    30.100436 0.0088666719 -0.0071813121 -0.0029224723 
  269000    302.55155    7928.0842    23887.872    29.743453 -0.0019595677 -0.0044851401 2.6381888e-05 
  270000    294.37846    7670.7715    23887.872    29.254781 -0.010368879 0.0008961908  -0.01385376 
  271000    298.79981    3182.9837    23887.872    28.372558 -0.012042518 0.0025098698 -0.0016523611 
  272000    309.53287    5264.1742    23887.872     26.84017  0.013593898 -0.0098977152 -0.015695064 
  273000    310.08413    5903.2894    23887.872    25.890505  0.010399696 -0.0084998735 0.0074131916 
  274000    301.54601    8224.2785    23887.872    25.892033 -0.0015063705 -0.0067247904 -0.012206852 
  275000    295.00552    5287.0938    23887.872    26.421657 -0.0055197269  0.012475848 -0.0062135074 
  276000    294.34203    3875.6402    23887.872    26.919473  0.013166792 0.0024476317  0.012482751 
  277000    296.79172    7415.0798    23887.872    27.061065 -0.0076057069 -0.019366206 -0.0066731879 
  278000    296.83134     6276.757    23887.872    26.792209  0.019659468 -0.00027127865 -0.0040864315 
  279000    296.07552    4260.4697    23887.872    26.954891 -0.0015118741  -0.01442601 0.0088067221 
  280000    301.56305    5448.7528    23887.872    27.073664  0.013337771 0.0093016697 0.0070557066 
  281000    298.71602    3833.3331    23887.872    26.814267 -0.013986268 -0.008524205 0.00043430489 
  282000    298.69429    6647.5904    23887.872    26.681622 -0.0063571679 0.0051907272 8.4771009e-05 
  283000    300.13361    5670.2715    23887.872    26.709189 -0.0077749786 -0.0048119617 0.0061024068 
  284000    294.79658    4361.6586    23887.872    26.733544 -0.010717989 -0.011535785  0.002576312 
  285000     302.0357     6791.034    23887.872    27.425797 -0.0050048897 -0.00053434246 0.0054290427 
  286000    305.71277    7539.2685    23887.872    28.184178 0.0062443881 0.0027013679 0.0079065399 
  287000    301.14686    3624.8476    23887.872    29.059817 0.0018865687  0.014006034 -0.0058169927 
  288000     296.7868    5615.2054    23887.872    28.879687 0.0099984789 0.0078224162  0.003107815 
  289000    298.98218    7883.4278    23887.872    28.288179 -0.0010159593 0.0088714527 0.0031397641 
  290000    293.51814    7119.6767    23887.872    28.370294 -0.0014395704 -0.010509425 0.0035334767 
  291000    296.74257    3407.3865    23887.872     28.57372  0.016733817 0.0024700471 0.0063209192 
  292000    301.56256    6492.8786    23887.872    28.867997 -0.0012201872 -0.0047889836 0.0094413796 
  293000     299.6439     6227.986    23887.872    28.967425 -0.0054280724 0.0053236349 0.0024856901 
  294000    302.71524    6964.8315    23887.872    29.041748  0.001243661 0.0061215441  0.010013302 
  295000    303.58689    5825.3619    23887.872    29.313143 -0.0085806505 -0.003534578   0.01268805 
  296000    300.20709    5948.0719    23887.872    29.736657 0.0004514223  0.006096979 0.0024769235 
  297000    302.44016    6046.2122    23887.872    29.477419 -0.002373689 -0.014743639 -0.0025753297 
  298000    309.20546    7501.3406    23887.872    29.018082 -0.0084727366 0.0058668061 0.0057199039 
  299000    303.48965    6268.5097    23887.872    28.998525  0.010821507 -0.011961554  0.019475492 
  300000    302.70486    3027.2944    23887.872    28.678421 0.0073823505 -0.00059966777 -0.0018783018 
  301000    297.81789    3021.1464    23887.872    27.820237 0.0038430029 -0.0074613652 0.0080954304 
  302000    298.19505    8580.6995    23887.872    27.013304 0.0066911636   0.00809778 0.0030399443 
  303000    301.20683    5024.8953    23887.872    26.400691 -0.014140755 -0.006995312 0.0017528248 
  304000    297.83432    3726.4329    23887.872    26.262942 -0.0036012482 -0.0053651906 0.0029318013 
  305000    296.81953    7723.4357    23887.872    26.375207 -0.011918246 0.0068210335 -0.0072544629 
  306000     297.3873    5725.6356    23887.872    26.840459  0.010121312 -0.0094357745 -0.021636679 
  307000    294.85587    6502.8685    23887.872    27.262067 -0.0078104241 -0.0057925682 -0.0042276417 
  308000    301.33805    7857.0064    23887.872    27.098162  0.003143854 -0.0021334936 -0.008544288 
  309000    305.85308    5322.7177    23887.872    26.775565  0.005156486 -0.007556494 -0.0073703471 
  310000    310.23203     5332.063    23887.872    26.727015 0.0073983681 -0.00059928658  0.010770252 
  311000    298.69531    6457.2426    23887.872    26.849292 0.0053046356 -0.0083194557 0.0041067983 
  312000    297.23437    5101.5449    23887.872    27.205859 -0.0013897949 0.0012421732  0.005780284 
  313000    296.16447    6125.6077    23887.872    27.117885 -0.018641313 0.0019888938 0.0066775128 
  314000    301.47252    6883.8816    23887.872    26.464672 0.0010078875 -0.0057399856 0.0028095232 
  315000    297.94524     5618.186    23887.872    25.855551  0.013125377 -0.0022717717 -0.014359812 
  316000    298.37293    7163.9592    23887.872    26.058543  0.013128847 -0.013380487 0.0091932324 
  317000    297.41746    3449.3585    23887.872    26.900786 0.0045691348 -0.0055871668 0.00031335553 
  318000    298.99831    5603.6917    23887.872    27.985176 -0.0058617716 0.0057426963  0.010610316 
  319000    292.81428    4331.9232    23887.872    28.457082 -0.0047667605  0.011916358 -0.0053261431 
  320000    297.46166    7124.9963    23887.872    28.098137 0.0094256176 -0.0093282016  0.011292458 
  321000    302.27033    9003.2834    23887.872    26.924281 0.0022327854   0.01378976 -0.0095756659 
  322000    299.39609     2295.727    23887.872    26.235427 0.0096115758 -0.0070342361 -0.0079269035 
  323000    301.56947    4685.9108    23887.872    26.168253 -0.0069428207 -0.0021743362 -0.0022311256 
  324000    302.59624    9073.6019    23887.872    26.241834 0.0043711222 -0.0054473111 0.0034254346 
  325000    301.34763    3189.1041    23887.872    26.881462 0.00063953628 0.0060348535 -0.0042326913 
  326000    299.58464    3117.4258    23887.872      27.3927 -0.0044769036 -0.011179183  0.013371057 
  327000    296.27529    9289.7278    23887.872     27.71558 -0.010605679 -0.00024181438 0.0021439135 
  328000    301.46674    8142.8329    23887.872    28.178089 0.0032715956 0.0027252955 -0.0014991674 
  329000    296.98089    4123.7819    23887.872    28.296772 -0.0008951906 -0.0028618366  0.002198572 
  330000     298.2102    4179.3877    23887.872    28.016613 -0.00028327516 0.0098653721 0.0065603736 
  331000    297.16559    8607.7665    23887.872    27.547221 -0.0034620344 -0.014927179 -0.0012341707 
  332000    297.63249    5738.6207    23887.872    27.292944 0.00058117454 -0.0013945077 -0.014309415 
  333000    291.98389    4504.0304    23887.872    27.198152 0.0021924208  0.017473443 0.0014498116 
  334000    296.90161    5581.0375    23887.872    27.848731 -0.014568855  -0.01108822 0.0023087284 
  335000    298.40311    6636.6244    23887.872    28.653668 -0.008581317 -0.017664902 0.0075650699 
  336000    300.29535     8434.849    23887.872    29.122991  0.001845582 -0.0055428684 3.6921277e-05 
  337000    290.22399    6518.5218    23887.872    29.157427 -0.00094084172 -0.0090563383 0.0017044003 
  338000      297.609    3774.8455    23887.872    28.425906  0.023154505 -0.012683898 0.0042668201 
  339000    291.47866    3118.9443    23887.872    27.040621 -0.0073471028 0.0026973482 -0.014994444 
  340000    305.03477    6737.4571    23887.872    26.271744 0.0052304859  0.003048178 0.0099449121 
  341000    296.21239    5810.4725    23887.872    26.096931 -0.0084231195 -0.0020353034 -0.004810044 
  342000    294.78747    5563.7539    23887.872    26.337066  0.013773542 0.00024829081 0.00050243664 
  343000    302.93931    3880.3933    23887.872    26.749017 -0.0024355589  0.011973812 -0.0041893559 
  344000    294.46044    4875.1847    23887.872    27.400985 -0.00042013607 0.0051405179 -0.0033637336 
  345000    298.97547    7094.1065    23887.872    28.338439 0.0083939065 -0.0034975132 0.0071712208 
  346000    296.02973    5548.7296    23887.872     29.07135 0.0022724366 -0.014458471 -0.0053275278 
  347000    302.61545    3823.8886    23887.872    28.821493 -0.0038142894 -0.0094477383 -0.0019051231 
  348000    297.71313    2657.4192    23887.872    28.694719 -0.0094612847  0.010058471  0.001087373 
  349000    298.88085    9097.6303    23887.872    28.551401 -0.012038345 -0.0058682687 -0.003402702 
  350000    300.15242    7632.9806    23887.872    28.658348 -0.0053837892    0.0120583 -0.0076962547 
  351000    297.53688    2858.4333    23887.872    29.088738 0.0049744111 0.0058063943 -0.0084048789 
  352000    294.98344    4221.0614    23887.872    28.474047 0.0022009761 -0.014721595 -0.00010438319 
  353000    297.57974    9178.2547    23887.872    27.640231 -0.0010494389 -0.0069562327  0.013881745 
  354000    298.47222     8054.819    23887.872    27.637843 -0.0045431493 -0.0050185435 -0.002755782 
  355000    297.85127    4539.0716    23887.872    27.596872   0.01294079 0.0052689076  0.016834968 
  356000    304.10549    6208.8376    23887.872    27.163205 0.0044845329 0.00042493175   0.00653008 
  357000    302.79835    6774.4472    23887.872    26.638153 -0.0078779685 0.0036724966  0.013677439 
  358000    301.12863    5609.0759    23887.872    26.321595 -0.0069872389 0.0057492427 0.0044966179 
  359000    300.47423    5575.7426    23887.872    26.244159 0.0014678441 -5.2716703e-06 0.0076327079 
  360000    300.80855    8602.3299    23887.872     26.23592 -0.018368733 -0.014080619  0.014057744 
  361000    297.53891    9299.6488    23887.872    25.972766  0.002102317 -0.015678021  0.010820348 
  362000    300.55035    4396.5254    23887.872    25.704442 -0.011829694 -0.012743156 0.0071910431 
  363000     299.1594    2556.0002    23887.872    25.616737 0.0074325232 0.0038556835  0.012711006 
  364000     299.6007    8254.4565    23887.872    25.643052 -0.013754468 -0.0017614359 -0.0044202653 
  365000    291.58333    8661.5851    23887.872    25.887606 0.0025971975 0.00052919881 0.0098507056 
  366000    302.03997    3607.5354    23887.872     25.93971 0.00086192819 -0.008863369 -0.0059856746 
  367000    299.77719    4421.2049    23887.872     26.58556 0.0060598991  0.010930137 0.0053945209 
  368000    302.25436    7098.9606    23887.872    27.946262 -0.00024699027 -0.00011396112 -0.010410949 
  369000    306.38065    7358.3533    23887.872    29.374357 0.0076138033 -0.0024297457 -0.014463251 
  370000    304.73063    5041.7118    23887.872    30.735452 -0.0029051822 -0.008575813 -0.0058368976 
  371000    296.76015    6966.2943    23887.872    31.734112 -0.022258653 0.0082974663 -0.0034828917 
  372000    301.45667    6525.3788    23887.872    31.472929  0.012515645 0.0044070481 -0.0070043256 
  373000    296.95354    4530.6388    23887.872    30.200276 -0.0016319371 0.0058786697 -0.0032520431 
  374000    305.45845    3325.2892    23887.872     28.98778  0.014015925 0.0016412791  0.001570443 
  375000    301.06629     9598.647    23887.872    28.192148 -0.00078424593 -0.0060108597  0.010315762 
  376000    302.23627    4689.3158    23887.872    27.850143 -0.0053639334  0.009638398 0.0021523401 
  377000    298.45154    3856.0903    23887.872    27.612463 -0.00093814517 -0.0013258957 0.0078795716 
  378000    299.64205    8084.4005    23887.872    27.430646 -0.0094627027 0.00064879142 0.0054143603 
  379000    295.77985    7457.4106    23887.872     27.62613 -0.0053576111 -0.0057223827  0.014724347 
  380000    308.27182    3923.1655    23887.872    27.489166 -0.0073166746 0.0015202239 -0.018733988 
  381000    292.44546    4464.0656    23887.872    27.511129 0.0069833979 -0.000171078 0.0095534098 
  382000    296.04296    6548.9119    23887.872    27.454457 -0.013546118 -0.0051228208 0.0047183027 
  383000    304.19453    4778.0826    23887.872    27.356354 0.0089360433 -0.011431508 0.0051717543 
  384000    303.74045    4378.0679    23887.872     27.56902 -0.0037544197 0.0042524184 -0.0060639162 
  385000     297.9533    7636.3778    23887.872    27.846359 -0.0061022761 -0.013434748 -0.0083181505 
  386000    299.26964    7267.1734    23887.872     27.96883 0.0080411304 -0.0081275528 -0.0082161565 
  387000    300.52785    3745.6347    23887.872    27.464725 0.0032185286 0.0098385636 0.0040368123 
  388000    298.83515    6333.7996    23887.872    26.583918  0.012372686  0.016027942 0.0029125381 
  389000    300.14688    7734.3765    23887.872    26.003947 0.0047858915 0.0094187168 -0.003686999 
  390000    286.55674     3659.853    23887.872    25.727435  0.013254367 -0.0008202622  -0.01476135 
  391000    291.16477    5862.1334    23887.872    25.706632 -0.00013230433  0.012908117 0.0012788029 
  392000    297.31201    4394.1119    23887.872    26.908726  0.014566232 0.00066006842 0.0016437697 
  393000    296.02523    8000.5495    23887.872    28.042972 0.0036541788 0.0073070087  0.014921604 
  394000    304.91198    8023.6324    23887.872    28.054489 0.0032053695 -0.013393097  0.012728745 
  395000    304.44386    1773.1687    23887.872    27.479529 0.0094109023 -0.003445624 0.0074291374 
  396000    309.73469    7082.4424    23887.872    26.669989  -0.01885194 -0.0018884895 -0.0043331078 
  397000    301.81345    6795.3445    23887.872    25.673272 0.0033517167 0.0028790606 0.0027178165 
  398000    298.91096    3755.0903    23887.872    24.433439 0.0032298602 -0.010200677 0.0058563752 
  399000     296.7145    5457.2618    23887.872    23.693646 -9.2715201e-05 0.0044922839 -0.0082246427 
  400000    303.41792    4886.9746    23887.872    24.080249 0.0010316097 0.0014728755  0.013561598 
  401000     298.0968    7081.4423    23887.872    24.854999 0.0049887162 -0.00080860037 -0.0010816079 
  402000    297.78459    6054.9285    23887.872    25.853467 -0.00064335876 -0.001115439  0.012998304 
  403000    295.58862    3683.9607    23887.872    26.051461 -0.0022541817 -0.00032556071 0.0081145921 
  404000    300.96155    5404.2719    23887.872    25.547058 -0.0089958356 0.0024298359 0.0026311819 
  405000    296.30636    7489.4722    23887.872    25.300881 0.0066219385 0.0071276451  0.012484739 
  406000    299.43023    6691.1108    23887.872    25.794171  0.015606948 -0.0023149118 -0.0086221439 
  407000    296.61484    4710.1907    23887.872    26.151287 0.0012325389 0.0032917529 -0.0083730135 
  408000    291.01539    3397.8957    23887.872    26.531803 0.0025435135 -0.0020802379 -0.0094260753 
  409000    293.34436    9545.9892    23887.872    27.026667  0.017912846 -0.0042861979 -0.014031823 
  410000    300.20547     6299.607    23887.872    27.780313 -0.007302452 0.00065043223    0.0146462 
  411000     296.1951    2499.1908    23887.872    28.375757 0.0013411631 -0.0089797241  0.011226551 
  412000    297.84801     5517.391    23887.872    29.077421 0.00057979256 -0.0055533405 0.0035306477 
  413000    300.10127    6040.2568    23887.872    29.855876 -0.002794972  -0.01575515 0.00066598482 
  414000    295.21379    3860.1169    23887.872    30.187762 0.0040420961 0.0032587128 0.0026823186 
  415000    300.53468    7497.3589    23887.872    30.209626 0.0035927934 -0.0062572089 -0.0080501284 
  416000    301.24648    5270.1295    23887.872    30.355207 -0.0044010015 0.0031023336 0.0038173258 
  417000    293.91228    3698.9512    23887.872    29.992507 0.0082392091 6.6512391e-05 0.0036065411 
  418000    299.14111    5171.3193    23887.872    29.892828 -0.0096677599 -0.00078932783 -0.00088670442 
  419000    300.13802    7636.3009    23887.872    29.506767 0.0030265694 -0.0045138809 -0.008613788 
  420000    293.49317     7093.479    23887.872    28.812489 -0.0095939795 0.0081750299 -0.019724786 
  421000    298.06862    3588.4288    23887.872    28.253952 -0.0051924559 0.0049168214 -0.0062035381 
  422000    298.84857    6092.8287    23887.872    27.896647  -0.01442169 -0.0051732544 -0.0078508664 
  423000    304.59622    4854.2753    23887.872    28.529329 -0.003647702 0.0035681935 0.0092756762 
  424000     294.6592    5814.9372    23887.872    29.397739 -0.0045243402 0.0018928903  -0.02092307 
  425000    295.79863    3992.2591    23887.872    29.508919  0.015743553   0.01184666 0.0047117181 
  426000    300.49693    6074.2457    23887.872    29.247559 -0.0063029512  0.011517371 0.0087849901 
  427000    305.24768    5009.4528    23887.872     28.81855  0.014757874 0.00088301066 0.0078984702 
  428000    296.80983    6211.3079    23887.872    27.838276 -0.008106322 0.0049894924 -0.010715315 
  429000    293.55843    6955.9341    23887.872    27.224183 -0.0061158193 -0.00063880963 0.0040041759 
  430000    305.74254    6737.8296    23887.872    27.055213  0.015062789   0.01283127 -0.0076861639 
  431000    294.23473    1240.3144    23887.872    27.146198  0.009228342 -0.010107678 -0.0010409082 
  432000    301.74253    7050.8267    23887.872    26.749513 0.0047700022 -0.010730458 0.0062807322 
  433000    309.38821    8816.8262    23887.872    25.635788 -0.0056965635 -0.0059332866 -0.0003232675 
  434000    292.86158       4177.6    23887.872    25.707571 0.00062689778 -0.0029434628 -0.0033558551 
  435000    296.60554    3322.3625    23887.872    26.897148 0.0020698407  0.024467719 0.0042900639 
  436000    306.20877    7235.7123    23887.872    28.184891 -9.1897693e-05 0.0082304872 -0.0032191218 
  437000    298.63118     7338.086    23887.872    28.937232 8.3338476e-05 -0.0028084119 -0.018909873 
  438000     300.2485    3357.8261    23887.872    29.014354 0.0080538253 -0.012712418 0.0020409784 
  439000    297.59791    8454.6269    23887.872    28.317109 0.0062263737 0.0020244422 -0.011930218 
  440000    288.29393     6379.446    23887.872      27.0285 0.00097265411 -0.0050615302 0.0022336785 
  441000    298.35216    3314.8331    23887.872     26.21488 -0.0025534109 0.0097723459 0.0071025098 
  442000    304.41416    6795.4789    23887.872    26.478749  0.006719251 -0.012980024 0.00079152798 
  443000     300.6427    7311.3946    23887.872    26.369945 0.0071961507 0.0066824898 -0.016886571 
  444000    299.91782    2879.0458    23887.872    26.463968 -0.0029854643  0.011176901 -0.013725233 
  445000    292.48528    5911.3832    23887.872    26.737323  0.008330691 0.0018302864  0.001575571 
  446000    304.95008    9967.3466    23887.872    27.153078 0.0061830295 0.0040403842 0.0022398867 
  447000    300.93057    5781.4814    23887.872    28.327238 -0.0037463279 -0.00046388892 0.0077652759 
  448000    305.34166    3812.2461    23887.872    28.962305 0.0054758731 -0.008214613 -0.0059714851 
  449000    297.64374    3985.0917    23887.872     28.02383 -0.00018070241 0.00068156915 -0.0016806624 
  450000    294.95273    9202.7782    23887.872    26.241362 0.0064781152 -0.0093203344 0.0073513241 
  451000    303.80225    6274.2809    23887.872    24.801178 0.0089649656 0.00084264726 -0.0015669888 
  452000    297.32679    1765.5026    23887.872    24.694153 -0.0081123661 -0.00010451048 -0.0032673746 
  453000    302.72393    6587.6511    23887.872    25.403238 -0.0058834351 0.00068112631  0.011799843 
  454000    298.46342    7988.4505    23887.872    26.155989  0.001799389 0.0099046589 -0.0042913244 
  455000     295.3291    4178.3608    23887.872    26.740711 0.00085470208 0.0002959218 -0.0032397789 
  456000    301.00917    4945.5983    23887.872    27.343603 0.0072917066 -0.00031237179 0.00030271584 
  457000    302.34742    6532.3014    23887.872    28.210718 0.0038734298 0.0030191892 -0.0066280936 
  458000     289.4509    8669.4047    23887.872    28.317659  0.010115918 0.0082022128 -0.0080860728 
  459000    307.22878    4185.5708    23887.872    28.196616 -0.010381503 0.0035057036  0.001946142 
  460000    301.21214    3106.0172    23887.872    27.905205 -0.011507282 0.0080560986 -0.0029940073 
  461000    292.62663    5051.4987    23887.872     27.67207 0.0025420471 0.0053633492 0.0018906001 
  462000    295.04334    7096.6287    23887.872    27.026552  0.003897248 -0.0070511369  0.014789115 
  463000    298.31615    5913.0743    23887.872    26.361959 -0.013987163 0.00092832474  0.011221795 
  464000    296.39667    5338.9013    23887.872    25.464279 -0.0048710649 -0.014322152   0.01070546 
  465000    299.49395    5937.2891    23887.872    25.144533 0.0016876733 -0.010576345 0.0060763803 
  466000    293.78292    5463.2753    23887.872    25.965075 0.0061151501  0.016166876 -0.012679648 
  467000    299.23102    6471.4752    23887.872    27.329362  0.010071377  0.013546594 -0.0028928485 
  468000    295.49893    7315.9905    23887.872    28.728529  0.015991329 -0.011363636 -0.0062026659 
  469000    298.04794    3663.9497    23887.872    29.833199 0.0095893058 -0.0024734662 -0.00044828573 
  470000      290.841    5155.9303    23887.872    30.569893 0.0051790616 -0.0098744269 0.0043657331 
  471000    292.74689    7093.7238    23887.872    31.273327 -0.015441085  0.011031486   0.01635246 
  472000     300.3485    5362.8294    23887.872    31.772801 0.0019298763 -0.0038709631  0.013970854 
  473000    301.45078     4835.422    23887.872    31.570322 -0.00016979843 -0.00026955531 0.0020882545 
  474000    300.71931    5521.9085    23887.872    30.786973 0.00023480559  -0.01149024  0.017601955 
  475000     290.2362    6288.5277    23887.872    29.765342 0.0025323677 -0.0047225668 -0.002978235 
  476000    303.57909    3730.7666    23887.872    28.616485 0.00029947671 -0.0029962619  0.023296455 
  477000    289.41861    4364.6883    23887.872    27.700048 0.0027004806 -0.016818632 -0.0014169005 
  478000    299.53157    8266.1612    23887.872     27.11873 0.0030908319 0.0061186776 -0.0073242407 
  479000    294.55965    6124.4738    23887.872    26.352458  0.014856848 0.0094009429 0.0095528827 
  480000    292.50349    4534.4377    23887.872    26.297393  0.017124956 -0.0013203373 0.00090176267 
  481000    301.51341    5092.3249    23887.872    27.221302 0.0095012057 0.0022040991 0.0051550051 
  482000    295.27795    6167.7322    23887.872    28.300038 0.0026900122 -0.0039208332 -0.013903038 
  483000    296.12041      7538.35    23887.872    28.436661 -0.0038131514  0.010199647 -0.016856313 
  484000    302.97785    4743.2852    23887.872    27.708665 0.0016123898 -0.011361525 -0.0031512727 
  485000    304.89418     3783.507    23887.872    26.625516 0.0071600055 -0.0056246438 -0.0023456511 
  486000    304.46294    5019.2866    23887.872    26.060285  0.005463687 0.0053085497 -0.0022285321 
  487000    297.32316    5427.8441    23887.872    25.485308 0.0064604253 0.0017085165  0.015375949 
  488000    298.98216    7509.5949    23887.872    25.673545 -0.0048769359 0.0044199513 -0.0041117318 
  489000    295.04521    5351.4194    23887.872    26.425311  0.011736415 -0.007795423 0.0067590064 
  490000    295.45364    7461.7103    23887.872    27.334645 0.00014203084 0.0081025434 0.0030329654 
  491000    294.48082    3542.6545    23887.872    27.884965 -0.0050050678 -0.0061458613 -0.0079478338 
  492000    295.89576    4448.9759    23887.872    28.132142 0.0073920134 0.0012285409 0.00045495627 
  493000    296.31977    4015.9355    23887.872    27.686889 -0.00080327617 -0.0034677804 0.0072489432 
  494000    292.44836    5666.5758    23887.872    26.593257 -0.012856853  0.012890842 -0.0031805088 
  495000    301.34236    5742.7079    23887.872    25.490814 -0.010781629 -0.0032959241 0.0072788253 
  496000    297.47417    6842.9663    23887.872    24.674643 -6.5313833e-05 -0.0079938213 -0.0053798984 
  497000    296.02339    2220.6271    23887.872     24.48439 0.0029697334 0.0073990092 -0.019630068 
  498000    297.45575    5430.6169    23887.872    24.907098 -0.0028057451  0.012479846 -0.0048394692 
  499000    296.74545    5897.4584    23887.872    26.221821 -0.017226579 0.0029166153 -0.0057780024 
  500000    295.35199    7526.4469    23887.872    27.507885 -0.0022236707 -0.017071366 -0.0038636546 
  501000    300.67328    4056.2793    23887.872    28.036382 0.0066276958 -0.0090482085  0.011918857 
  502000    298.48697    5400.8366    23887.872    28.090614 0.0098725511 0.0048339035 0.0056924344 
  503000    295.19817    8114.7578    23887.872    27.752904  -0.01234274 -5.2794237e-05 -0.0060891453 
  504000    293.48168    6677.8838    23887.872    27.471305   0.00331433 0.0032537199 0.0057938613 
  505000    293.68695      4029.89    23887.872    27.779326 0.00040070043  -0.00612586 -0.0033747917 
  506000    295.90508    4947.4736    23887.872     27.80429 -0.010979524 6.8918724e-05 0.0033029305 
  507000    291.69085    8119.4377    23887.872    27.426824 -0.0084800762 0.0070873702 -0.0023036495 
  508000    299.82773    6692.6709    23887.872    27.532893 -0.0052143154 -0.00043838721 0.0011048561 
  509000    296.75386    2622.9323    23887.872    27.660147 0.0029291712  0.011080113 -0.0039290083 
  510000    298.58302    3902.5153    23887.872    28.138234 -0.0074759547 -0.0067850744 -0.0021936128 
  511000    303.33155    8233.0933    23887.872     28.61706 0.0048533643 0.0020608041 -0.002884233 
  512000    300.05036     5249.218    23887.872     29.68314 0.0088284022 0.0082924877 -0.0011229232 
  513000    301.75992     2082.045    23887.872     30.95124 0.0053479778  0.012467332 -0.0086182243 
  514000    307.85301    7240.8223    23887.872    31.752944 -0.0040374189  0.010444067 -0.0027718782 
  515000    300.30501    8255.1468    23887.872    31.530698 0.00021287084 0.0025712563 0.0010223838 
  516000    294.31393    3672.2153    23887.872    30.426256 -0.013947791 0.00068109764 -0.0065066714 
  517000    293.62879    6067.9313    23887.872    29.205386 0.00034312021 -0.020744829 -0.0038441527 
  518000    297.48242    6083.5521    23887.872    28.689888 -0.0013007417 0.0074165399 -0.0010831635 
  519000    297.96858    5951.6043    23887.872    28.762509  0.010263025 -0.012936942 0.0014499533 
  520000    295.28234    3413.9545    23887.872    29.363485 -6.7773582e-05 -0.0033258109 -0.0028208929 
  521000      297.722    6403.5605    23887.872    29.983267 -0.0017159155 -0.0035611096 0.00031456286 
  522000    297.33862     8010.713    23887.872    29.689381 0.0075116991 0.0039619936 0.0060793369 
  523000    296.45112    3384.3874    23887.872    29.081317 -0.0059268037 0.00048640935 0.00080163296 
  524000    299.43388     6457.808    23887.872    29.284072 0.0013020168 0.00055256487    0.0169043 
  525000    304.95511    6230.1645    23887.872    30.154389 0.0051158512 -0.0069055554 -0.0063377059 
  526000     299.1519    2486.3228    23887.872    30.890984  0.016814768 -0.0013335203 -0.0015589084 
  527000    300.18907     5322.831    23887.872    31.046813 -0.0029854327 -0.0039109639 -0.0018799069 
  528000    301.92783    8497.0101    23887.872    30.895449  0.009686317 0.00025434144 -0.0046453698 
  529000    302.13585    6038.2237    23887.872    30.533245 0.0074046823 -0.0059578146 -0.009449795 
  530000    295.90671    2440.3616    23887.872    30.301137 0.0049606072  0.010610254 0.0083707008 
  531000    292.38355    6104.8824    23887.872    29.948202  0.013292786 -0.0004415824 -0.0086503957 
  532000    295.34976    9205.8322    23887.872    29.303346 -0.0064426576 -0.0056961324 0.0060874776 
  533000    298.28763    3090.3101    23887.872    28.996956  0.009040662 -0.0013078126 0.0065821317 
  534000    294.74346    3276.3088    23887.872     29.25731 -0.0059529587 -0.0057412074 -0.0020882046 
  535000    294.79985    8766.2442    23887.872    29.764844 0.0034115425 0.0058050212 -0.0020240845 
  536000    301.62071    5222.0186    23887.872    29.873323 0.0027661655 0.0085999946 -0.0092670261 
  537000     298.1947    4176.1732    23887.872    29.775283 0.0022169177 0.0080802464   0.00190517 
  538000    293.70169     4085.422    23887.872    29.626674 0.0064157159  0.023556378 -0.0084403393 
  539000    299.04627    5567.8937    23887.872     29.49347 -0.0031095987 -0.0064612837 -0.0030703024 
  540000    297.76563    8731.1662    23887.872    29.148193 -0.004385835 -0.00069065762 0.0059924692 
  541000    299.00156    6976.2088    23887.872    28.551341 -0.0071794391 -0.0017189625 -0.0089882237 
  542000     300.7482    1103.1837    23887.872    27.821933 -0.011764168 0.0022365133 0.0017236715 
  543000    299.66856    4709.6757    23887.872    26.834593  0.012542896 0.0022819324 -0.0085040075 
  544000    302.51705    5822.4892    23887.872    26.733882  0.013979496  0.005241442 -0.0034008264 
  545000    300.72724    3878.5709    23887.872     27.78911 0.00089742808 -0.0081242563 -0.013851863 
  546000    302.27862    5730.2522    23887.872    28.818948 -0.011421808 -0.0093353263 0.0093337959 
  547000    301.14639    7661.3155    23887.872    29.424849 -0.0090020414  0.003138934 -0.012421045 
  548000    297.51626    7546.3515    23887.872     29.23565 0.00096995253 -0.008795985 -0.0091903007 
  549000    291.34346    5069.4318    23887.872    28.142016 -0.0086262519 3.350651e-05 -0.002747977 
  550000     293.3102    4895.2689    23887.872    26.925999   0.01180658 -0.014673519 0.0090030405 
  551000    300.41953    6808.8896    23887.872    26.142459 -0.0077820603 -0.00010570797 0.0055838778 
  552000    298.79544    5675.2715    23887.872    25.827979   0.01017147 -0.023307327 0.0076947134 
  553000    300.16588    5538.2905    23887.872    26.089001 -0.0015691441  -0.01650685 -0.0009739645 
  554000     301.2289    4261.6534    23887.872    26.392188 0.0043522049 -0.011820097 -0.015048843 
  555000    301.19571    7624.1056    23887.872    26.851872  0.010859034 -0.0055787951  -0.01541695 
  556000    295.20421    7123.5396    23887.872    27.023853  0.017210027 -0.022640053 0.0026977959 
  557000    302.11065    4220.7262    23887.872    26.880684 -0.011640235  0.011058244 0.0070940424 
  558000    297.68502    4992.6682    23887.872     26.93328 -0.00081147065 -0.005212053 -2.4088225e-05 
  559000    298.80373     5423.182    23887.872    27.433384  0.004072347 -0.005304674 -0.011183131 
  560000    302.22374    5393.3106    23887.872    27.430473 -0.012029487 0.0070902009 -0.011928233 
  561000    299.58586    5411.6939    23887.872    27.184783 -0.0093615608 -0.0024099323 -0.013374791 
  562000    299.08772    3555.9072    23887.872    26.810868 -0.0018797687 0.0028146314 0.0058322669 
  563000    297.54055    5748.1483    23887.872    26.625926 -0.0077880871 0.0071283472 0.0051325576 
  564000    300.03959    5349.9422    23887.872    26.894352 -0.0090301791 -0.00045148077 0.0016547021 
  565000    295.37718    6294.8803    23887.872    27.424823 -0.0085515037 0.0061735687 0.0017512105 
  566000    307.26154    5277.6811    23887.872    27.715654  -0.02069038 0.0095198072 -0.0097471609 
  567000     301.8959    3891.7049    23887.872    27.601107 -0.019250684 0.0037877036 0.00092365172 
  568000     295.4211    5146.6641    23887.872     27.33593 -0.0068367496 0.0090829425 0.0078650234 
  569000    296.47541    5032.4915    23887.872    27.760003 0.0072873008 -0.0054731944 -0.0034281223 
  570000    301.23864    9211.3117    23887.872     27.78267 -0.012111535 -0.0067562849 0.00052142807 
  571000    297.34769    7126.1119    23887.872    27.921306 -0.0087661565 -0.0047847847  0.021184044 
  572000    294.95718    1796.5575    23887.872    27.464765 -0.0087516882 -0.0035406212 0.0054830305 
  573000    298.94785     4687.308    23887.872    26.774494 0.0051931626 -0.0094754015 -0.0039023016 
  574000    295.15395    7057.7776    23887.872    25.765732 0.0033457747 -0.0094165194  0.010729985 
  575000    302.67325    5942.5628    23887.872    24.789678 -0.00013405495 -0.0033339851 -0.0052943466 
  576000    299.74024    5838.8151    23887.872    23.898527 -0.0054618018 0.0046789341 -0.011698412 
  577000    294.55952    5899.6203    23887.872    23.700518  0.004978976 -0.013596645 -0.010385542 
  578000    290.27761    5310.7239    23887.872    24.316459 0.0019446704 0.0081043264 -0.012324801 
  579000    297.76443    5408.9544    23887.872    25.240255 0.0057826031 0.0044840576  0.005770973 
  580000    301.91606    5070.8297    23887.872     25.95878 -0.0010241359 0.0031740823 -0.0037640652 
  581000    306.82255    5512.3177    23887.872    26.076722 0.0038532052 0.0015212495 -0.00012003503 
  582000    294.00979    6857.6462    23887.872    25.592101 0.0044628768 -0.00051214608  0.003356398 
  583000    297.40035    5756.4635    23887.872    25.217631 -0.0055231658 -0.0058477198 0.0026186119 
  584000    305.67818    7159.6093    23887.872    25.198459 0.0096368443 0.0062095946 -0.00075288404 
  585000     301.7679    4624.7756    23887.872    25.332259 -0.0018207188 -0.016409129 -0.00044454045 
  586000    295.98955    4565.0923    23887.872    25.963484 -0.0062163018 -0.00079730406 0.0075642645 
  587000    300.34148    5458.7997    23887.872    27.041937  0.021274734 0.0027633777 -0.0091237794 
  588000    299.19129    5178.9173    23887.872    28.187559 0.0045419127  0.013300629 -0.0028874052 
  589000    297.70672    3940.8185    23887.872    29.262417  0.008588525  0.012991543 -0.0072604699 
  590000    299.24388    5776.8904    23887.872    29.967014 0.0069703507 0.0047088323  0.013028428 
  591000    291.69098    8687.1495    23887.872    30.234655 -0.0079292267 0.0063253213 0.0051416388 
  592000    293.63898    4772.4278    23887.872    29.939819 -0.0023857652 0.0025891718 -0.0032719465 
  593000    295.67419    395.85797    23887.872    29.245104 0.0010551936  0.012440933 -0.0022292875 
  594000    297.41636    7504.5713    23887.872     28.82624  0.010664016 0.0083113753 0.0065127258 
  595000    292.49391    9912.9046    23887.872    27.830562 -0.0084142533 -0.0018828804 0.00086646325 
  596000    298.78774    1400.2405    23887.872    26.581549 -0.0096661689 0.0013798994  0.005807107 
  597000    298.27571    3377.4634    23887.872    25.861736 -0.0036077216 0.0006783386 0.00061343999 
  598000    299.67543    7450.7539    23887.872    25.881948 0.0085760335 0.0010202641 -0.0015093523 
  599000    296.49743    7082.4757    23887.872    26.515265 0.0046447673 0.0038801842 0.0031237756 
  600000    295.24682    3309.9069    23887.872    26.970338 0.0069214485 -0.0070926933 -0.0066692516 
  601000    301.71354    2989.6203    23887.872    27.172035 -0.0078559509 -0.00021831007  0.002600541 
  602000    303.07401    6611.9179    23887.872    27.055733 0.0031183635  -0.01174778 0.00092637786 
  603000    299.40523    5681.2062    23887.872    27.388008 -0.021946045  0.010751314 -0.015314874 
  604000    294.65686    4957.0049    23887.872    27.886816 0.0014348325 -0.0055016865 0.00092436649 
  605000    294.34701    5000.9267    23887.872    27.941004 0.0073272206 -0.013175492 -0.014972461 
  606000    299.30973    6768.7944    23887.872    27.691668 -0.024268065 -0.0066428828 0.00077822348 
  607000    292.98219    5507.5445    23887.872    27.528071 -0.010931411 -0.00073231968  -0.00442134 
  608000    292.92404    5893.5499    23887.872    27.580666 -0.0007662067 0.00016017368 -0.009131562 
  609000    298.71858     8305.058    23887.872    27.890459 -0.0042564529 -0.0035934168 -0.0051923551 
  610000     295.6383    5702.2356    23887.872    28.364862  0.006180702 -0.0059025181 0.0050324782 
  611000    293.99295    4419.3836    23887.872    28.757237 0.0032447326 -0.010423603  0.012007594 
  612000    303.22366    4883.4224    23887.872    28.660666  0.015714145 0.0050629383  0.014535264 
  613000    297.34973    7551.8828    23887.872     28.12437 0.0043533294 0.0092190306 -0.0079080199 
  614000    301.27652    5159.9072    23887.872    27.466751 -0.00083007465 0.00083863776 -0.0024664777 
  615000    303.22756    5210.4871    23887.872    26.751863 0.00065374259 0.0016728312 0.0026905998 
  616000    305.60289    4052.9085    23887.872    26.567689 -0.0085052986 0.0043310163 -0.0070085346 
  617000    295.08518    5131.1951    23887.872    26.426338 -0.0023577465 -0.00057955323 -0.0011048483 
  618000    303.45954    6579.0552    23887.872    26.238988 -0.010837413 -0.0024277076 -0.0094915188 
  619000     293.5245    3999.0413    23887.872    25.752803 0.0025201627  0.016620187 0.00025293716 
  620000    302.78727    3869.8902    23887.872    25.303232 -0.012060631 0.0021991617 0.0074556176 
  621000    303.53854    4167.3364    23887.872    25.159262  0.013622575  -0.02065977 -0.0098800415 
  622000    302.68075    5168.7696    23887.872      25.1132 0.00041541356 -0.0073570427 0.0032706002 
  623000    301.82596    5908.1953    23887.872    25.551463 -0.0034481354 0.0014048318 0.0016055899 
  624000      303.752    4492.6908    23887.872    25.564176 0.00091263237 -0.012314037 0.0074886595 
  625000    294.45709    4309.6194    23887.872    25.513194 -0.0091457746 0.0014805506 0.0045733667 
  626000    295.99356    8569.8832    23887.872    25.769469 -0.012093349 -0.016384457  0.005347263 
  627000    303.34233    5628.1982    23887.872    25.988147 -0.005673023 -0.016520402 -0.0040772129 
  628000    292.40252    3286.4943    23887.872    25.732884 -0.0044985188   0.01070823 0.00044005114 
  629000    295.10329    5665.5149    23887.872     25.27925 -0.014932134 0.0043017569 -0.000336021 
  630000    300.38528    6548.0764    23887.872    24.664717 0.0094664725 -0.0038175931 -0.0016466337 
  631000    298.31469    4244.0313    23887.872    24.281307 -0.010815061 -0.0073898971 -0.0066930345 
  632000    300.17331    5120.5495    23887.872    24.225899 0.00084322676 0.0039378051  0.009893192 
  633000    296.54728    4859.7781    23887.872    24.317294 -0.017781713  0.011787532 0.0037715655 
  634000    298.94485    5526.3979    23887.872    24.250493 -0.020142293 -0.0068808359 0.0048411723 
  635000    300.13368    5156.6933    23887.872    24.073687  0.010177691 -0.0092887031 -0.0018736839 
  636000    295.03456    4141.8544    23887.872    24.785086 -0.0091973183 -0.0049021005 -0.0013057649 
  637000    298.41293    5959.6285    23887.872    25.945686 -0.0014671623 0.0015194788 -0.0081661471 
  638000    297.68879    8026.8206    23887.872    27.058298 -0.005491043 0.0027380612   0.01300785 
  639000    301.22141    5661.9888    23887.872    27.697702 -5.9870368e-05 0.0031774461 -0.0011334007 
  640000    300.31484    3272.1741    23887.872    28.065423 -0.0031191551 -0.00076137309 0.0047937625 
  641000    296.70697    5743.4834    23887.872    27.798816  0.005438768 0.0050098285 0.0081083663 
  642000    292.03139    4578.0236    23887.872    27.184321    0.0108047 0.0048136547  0.012791481 
  643000    303.98566    4040.0276    23887.872    26.128117 -0.001596305 0.0023520528  0.015863685 
  644000    297.36683    5653.2078    23887.872    25.172635 -0.0017566481 -0.003427669 0.0096199371 
  645000    290.61997    7941.1259    23887.872    25.337298 -0.0022032916 0.0012943772 -0.0063827997 
  646000    298.88571    5294.7905    23887.872    26.071083  0.019852285 -0.016556327 0.0010256503 
  647000    300.12508    5319.6908    23887.872    26.629865  0.005054223 -0.020612598 0.0089215034 
  648000    294.26535    5177.7179    23887.872    26.482853  0.012111032 -0.0047727313  -0.01032408 
  649000    298.77057    7845.4702    23887.872    26.068869 -0.0081366299 0.0044596726 -0.0068143527 
  650000    294.66219    8039.3862    23887.872    25.533495 -0.0013399637 0.0030611756 0.0043127824 
  651000    299.17728    2509.4419    23887.872    25.261538 -0.0067961129  0.010902163 -0.014310983 
  652000    298.86244    4438.9524    23887.872    25.584951 -0.011165915 0.0020632588 -0.0068570861 
  653000     295.8254    8134.5064    23887.872    26.642051 -0.0070548423 0.0025506544 -0.0050513019 
  654000     296.4299    5715.3242    23887.872    27.547834 0.00098805003 -0.015437303 -0.008281426 
  655000    298.01767    4366.3527    23887.872    28.109927 -0.0039537659 0.0016902121 0.0033776645 
  656000    293.23462    5385.6785    23887.872    28.629079  0.003523875 0.00093032108 0.0015255246 
  657000    296.53903    6364.0314    23887.872    29.084996 -0.0059157321 -0.00020794696 -0.0011735074 
  658000    297.93506    2592.8694    23887.872    28.946864 -0.0017129808 0.0038751208  -0.01471433 
  659000    304.33833     8467.375    23887.872    28.924204 0.00047608967  0.003086177 -0.0015966284 
  660000    294.83783    6131.0016    23887.872    28.946788  -0.01123262 -0.0074398007 0.0096319339 
  661000    294.14712    2636.9335    23887.872    29.386617 0.00043195788  -0.01006404   0.01102675 
  662000    297.97039    3256.1088    23887.872    29.794643 0.0084295774 -0.0081785042 -0.0059253662 
  663000    301.82247    3642.8798    23887.872    29.962762 0.0053764792 -3.7217247e-05 -0.00056826065 
  664000    304.03478    7897.0947    23887.872    29.998975 -0.0038930594 -0.0065069631   0.00893083 
  665000    296.74068    6560.0282    23887.872    30.118437  0.006965673  -0.01063763 0.0041862537 
  666000     293.2536    3712.5123    23887.872    30.083477 0.0060656775 -0.008116665 -0.013369419 
  667000    290.21673    4566.1033    23887.872    29.980864 0.0083893343 -0.0013186833 -0.0023554597 
  668000    296.47389    5587.8057    23887.872    29.722567 0.0045917534 0.0018965019 0.0016393396 
  669000    295.19356    6836.6864    23887.872     29.10525 0.0071457948  0.011290571 0.0020935679 
  670000    298.06808    4108.2833    23887.872    28.563947 -0.0024056343 0.00063187738 -0.0002402843 
  671000    302.05552    5257.8143    23887.872    28.140214 -0.0024096946 0.0039867702 0.0060810774 
  672000    299.68416    6020.7155    23887.872    27.860864 -0.00039064925 -0.0059474019 -0.0046794577 
  673000    299.08344    4356.2793    23887.872    27.786247 0.0063238951 -8.4016558e-05 0.0055851419 
  674000     298.8499     3991.471    23887.872    27.974355 0.0090323281 -0.0041670712 0.0007997561 
  675000    298.61787    7159.4521    23887.872    28.544781  -0.01318171 -0.0015917829 -4.8177721e-05 
  676000    296.38449    8520.1079    23887.872    29.094644 -0.0012753229 -0.0050890475 -0.017541262 
  677000    300.47151    3946.4668    23887.872    29.291878 -0.0011164052 -0.00049886446 -0.0099495481 
  678000    302.51036    4154.8534    23887.872    28.904494 0.0013219258 -0.0023249122 0.0024635614 
  679000    294.91129    7517.4594    23887.872    28.060736 -0.011732754  0.011168053 -0.0042587485 
  680000    297.72767     6199.004    23887.872    27.491921 0.00062814178 0.0027028323 -0.0019188039 
  681000     300.6325    3458.8956    23887.872    27.927289 -0.010228129 -0.0027332019 -0.0051605875 
  682000    294.27568    4372.1687    23887.872    28.640138 -0.0043912543 -0.0063774298 -0.025415543 
  683000    289.64305    8424.9237    23887.872    28.729091 -0.0086843418 -0.012167425 -0.00022242414 
  684000    298.11708    4361.0166    23887.872       28.496 -0.00058097466  0.011307803 0.0021833435 
  685000     291.9731    5801.4098    23887.872    28.642409  0.011838759 -0.0090628966 0.0017227155 
  686000    291.57583    5335.5583    23887.872    28.209308 0.0094799062 0.0011566471  0.011878133 
  687000    294.50623    4445.2578    23887.872    28.017081 0.0079586636  0.010175805 -0.0031765127 
  688000    304.50939     3443.461    23887.872    27.626584 0.00045738092 -0.0031815544 0.0019483099 
  689000    309.03462    7465.0222    23887.872    27.475229 -0.013399131 -0.0049033847 -0.0020769866 
  690000    299.96891    4710.8045    23887.872    27.665084 -0.00010728485 -0.0063765617 -0.0065602723 
  691000    302.30046    4301.0031    23887.872    28.283224 0.0047427108 -0.0020461889  0.012129775 
  692000    304.32916    5849.3634    23887.872    28.385988 -0.0072070478 -0.002540061 -0.0031087447 
  693000    299.34404    7117.2503    23887.872    28.138137 -0.0084256263 -0.011575998 -0.0048615345 
  694000    294.01839    2659.0626    23887.872    27.685964 0.0053232155 0.0016320782 0.00099113868 
  695000    295.03134    5952.7956    23887.872    27.098292 0.0064369295  0.011109769 0.00072526418 
  696000    300.21712    6886.5235    23887.872     26.20617 0.0071792774 -0.0087512851 0.0082482639 
  697000    294.83834    5554.8796    23887.872    26.049429 0.0025017446 -0.0020068273 -0.0041835508 
  698000    291.23366    4464.5349    23887.872    26.381219 0.0057510248  0.012435243  0.011893542 
  699000    300.53488     4977.279    23887.872    26.978963  -0.01078968 0.00030284313 -0.0082043069 
  700000    294.04694     6892.583    23887.872     27.24611 -0.0094191269 0.0079867249 -0.0051311837 
  701000     297.0397    7226.8367    23887.872    27.331746 -0.0027557077 -0.00087545352 -0.017187603 
  702000    302.47668    4876.5947    23887.872    27.613111  0.017393287   0.01186634  0.002376426 
  703000    304.61158    3320.7379    23887.872    27.930977  0.014693987 0.0015723038  0.010704398 
  704000    298.49129     6264.554    23887.872    27.827418 0.0019498878 -0.00029487195 -0.0058792077 
  705000     293.3653    7331.3017    23887.872    27.823831 -0.002727554 0.0022962752 -0.0092847392 
  706000    296.29407    6701.7937    23887.872    27.584023 -0.0092741379 0.0085147905 -0.0082519126 
  707000     298.4404    4918.5007    23887.872    27.051058 0.00043406944 0.0085462154  0.014248237 
  708000    289.79489    4997.8302    23887.872    26.565211 -0.0049475152  0.010123998  0.014164541 
  709000    303.27645    8278.4789    23887.872    26.374017 -0.0015564428 0.00087463501 -0.0031039787 
  710000    293.95775    5582.8345    23887.872    26.554046 0.0060024445 0.00019300792 0.0033697546 
  711000    298.26849    3023.5022    23887.872    26.416707  -0.00120818 0.0012432225 0.0067540269 
  712000    296.67627     6630.244    23887.872    25.691751 -0.0028991426 -0.004107014 0.0069196715 
  713000    298.16923    7514.1424    23887.872    25.602514 -0.012788553 -0.0010207617 0.0024396406 
  714000    293.47132    3379.4981    23887.872     26.11685 -0.021568985 -0.015999342  0.001866458 
  715000    304.31132    3622.6977    23887.872    27.014881   -0.0179718 -0.0069504451 -0.0016912036 
  716000    303.69287     7238.225    23887.872    27.463621 -0.0080856641 -0.0047658196 0.0075534224 
  717000    296.63579    6033.4546    23887.872    27.588395 0.0047377858  3.96895e-06  0.003926748 
  718000    300.56142    4937.0005    23887.872    28.427552  0.011505124 0.0094550274 -0.011125595 
  719000     303.9851    6166.6004    23887.872     29.02837 -0.0051652652  0.020006211 -0.0070303628 
  720000    304.55625    4619.1324    23887.872    28.661339 -0.0071224028 -0.00025685642  0.013698097 
  721000    297.86833    5033.6503    23887.872    28.165783 -0.0096421778  0.015670839 -0.0038240002 
  722000    293.62136    4153.5615    23887.872    27.157969 0.0058847918 -0.0027517801 -0.0050308791 
  723000    301.50253    5505.8926    23887.872    26.280428 0.0053371916  0.014943739 0.0047096003 
  724000     300.7432    7296.6715    23887.872    26.200001 -0.013870277 0.0038432582  0.011291139 
  725000    302.95309    4958.8383    23887.872    26.495416 0.0057740186 -0.0072911864 0.0079339559 
  726000    296.31071    4299.8813    23887.872    27.266479 -0.00077852956 -0.003681943 0.0038850103 
  727000    297.85141    4907.5718    23887.872     27.03235 0.0091839403 -0.0054579394 0.00025643986 
  728000    297.58352    6838.8029    23887.872    26.405703 0.00033786776 -0.0019528954 -0.011162063 
  729000    295.12816      5726.29    23887.872    25.580641 0.0088905944 -0.0054226368 0.0083500188 
  730000    299.36733    3402.0587    23887.872    24.948389 0.00085238173 -0.0045978813    0.0110596 
  731000    293.86544    6261.7208    23887.872    24.723879 0.0050262225 -0.0024997707 0.00067891895 
  732000    296.49541    9047.4113    23887.872    25.698987 -0.0001379459 -0.0043299752 -0.000218577 
  733000    296.04635    6105.3264    23887.872    26.687112 -0.0067940882 -0.0035913958  0.009090204 
  734000    295.67518    4425.5695    23887.872    27.598701  0.013240354 0.0067709556 -0.0051722808 
  735000    292.18535    7023.5111    23887.872    27.849546 -0.004408024 0.0098490033 -0.012266334 
  736000    301.44961    5216.2774    23887.872    27.476867 -0.00018731175 9.4522767e-05 -0.0056299551 
  737000       293.17      5958.77    23887.872     26.67068 -0.0039714492 0.0037646257 -0.012590935 
  738000    302.15174    7327.2162    23887.872    26.108865 -0.002076082  0.014727976  0.020557318 
  739000    297.01519    2522.7737    23887.872    25.872012  0.010464738  0.013086668 -0.0025094817 
  740000    296.71095      3600.67    23887.872    26.180389 -0.002700854 0.0050616757 0.0017537654 
  741000    299.05406    7002.5516    23887.872    26.827158 -0.005444314 -0.016252303  0.003279953 
  742000    296.20726    6103.2194    23887.872    26.884473  0.007032456 -0.0018499278 -0.0032431165 
  743000     299.1956    6724.2065    23887.872    26.780774 -0.0022530452 -0.0017247091 0.0031285471 
  744000    298.92656    4595.3236    23887.872    27.041806 -0.0066156661 -0.0026081117 0.0060995232 
  745000    303.49618    3646.2464    23887.872    27.450944 0.0025023501 -0.009504615 -0.0055086369 
  746000    298.26475     8102.856    23887.872    27.232473 0.0057678203 0.0014969947 -0.010789853 
  747000    301.71495    4936.8589    23887.872    26.854655 -0.0027352305 -0.0039372255 -0.0040614802 
  748000    298.87177    4762.7319    23887.872    26.281478  0.012829723 -0.018020405 0.0038886401 
  749000    296.26555    5575.6884    23887.872    25.998199  0.013317634 -0.0057503626 0.0026953918 
  750000     290.8208    6464.6438    23887.872    25.950232 -0.0024745837 -0.0017959713 0.0076748697 
  751000    294.32671    6390.9509    23887.872    25.928302 -0.0011171903 0.0070166819 -0.0097605205 
  752000    296.49623    3352.1616    23887.872    26.026044  -0.01453527 0.0023686479 -0.0055821834 
  753000    289.89536    4525.8032    23887.872    26.654891 -0.011825716 -0.0076196275 0.00049253092 
  754000    302.11918    7634.7609    23887.872    26.976254 -0.0048862564 0.0046160648 -0.0032106391 
  755000    301.03456    8023.7547    23887.872    26.367416 0.0025577895 0.00036266201 0.0098558699 
  756000    297.51047     3195.292    23887.872    25.603736 0.0040404137 -0.012021968 -0.0073136904 
  757000    300.91838    5059.6645    23887.872    25.305517  0.009365781 -0.0057783912 0.0030186052 
  758000    305.47254    6766.5924    23887.872    25.307067 -0.0019063929 0.0051975119 -0.0066711355 
  759000    304.37367    4583.5924    23887.872    25.354322 0.0069830648  0.012417106 -0.0046306293 
  760000    299.15829    7835.5196    23887.872    25.840855 -0.00094781207  0.015000384 -0.016659291 
  761000    289.82685    4468.4835    23887.872    26.361105 0.0032192932 0.00089543268 -0.00079563582 
  762000    304.17617    2752.9859    23887.872    26.493088 0.0010529411 0.0024651494  0.011844337 
  763000     294.7049    6282.2943    23887.872    25.951963 -0.0052850399 0.0070733124 -0.0091011467 
  764000    297.58051    6471.8984    23887.872    25.221942  0.010865629  0.011372951  0.012632684 
  765000     295.7106    4137.7769    23887.872    25.176934 0.00096128059 0.0053813008 -0.0044421344 
  766000    291.27681    5623.3229    23887.872    25.271439 -0.012319421 0.0064247197  0.017116578 
  767000    300.27098     5664.692    23887.872    25.886045 -0.011535719 -0.0037271207 -7.7628077e-05 
  768000    300.98197    5108.6698    23887.872    26.373314 -0.0042880612 -0.0051053469  0.010184732 
  769000    298.45897    6110.5001    23887.872    26.591627 -0.0032961279  0.011758808 0.0033073694 
  770000    294.45212    5327.1557    23887.872    26.932368 0.0021807896 0.0012169817 0.0033046703 
  771000    295.54482    5631.5664    23887.872    27.187795 0.0022230238  0.010584879  0.001616536 
  772000    298.39736    5881.8664    23887.872    27.393138 -0.011539032  0.011302194 0.0087590714 
  773000    299.89625    6495.9627    23887.872    27.124888 -0.0075240778 -0.003701013 0.0020621867 
  774000    300.00314    6426.8765    23887.872    26.909042 -0.0023109769 -0.0053756499 0.0072067437 
  775000    300.01086    2705.2273    23887.872    27.047511   0.01601532   0.01030009 -0.0035757501 
  776000    300.97962    4061.8818    23887.872    27.149199 0.0027252958 0.00052570971 0.0043471698 
  777000    295.41427    6988.6451    23887.872    26.785997 2.723748e-05  0.018811711 0.0031080589 
  778000    296.11865    6537.2624    23887.872    26.676684 -0.002531339  0.012868558 0.0020097922 
  779000    288.12888    6203.1461    23887.872    26.828073 -0.018996401 0.0077362145 -0.0031782428 
  780000    299.15706    4683.4508    23887.872    27.076911 -0.0040172466  0.014660383 -0.0070490261 
  781000    293.70708    7543.9504    23887.872    26.860677 0.0063280027 -0.0023710974 -0.0036345492 
  782000    294.70101    4961.4503    23887.872    26.893509   -0.0203934  -0.00489022 -0.0026952957 
  783000    296.22967    2954.1199    23887.872    26.769559   0.01142506 -0.007940183  0.007391628 
  784000    299.71031    6026.8336    23887.872    26.069932 0.0015997237  0.011440875 0.0075440669 
  785000    299.82721    5343.8307    23887.872     25.74706 0.0048211296 0.00071918181 -0.0062912747 
  786000    295.15766    5890.2876    23887.872    25.833621 -0.0064152488 0.0066834986 -0.0053584227 
  787000    298.11264    5297.1314    23887.872     26.33001 -0.017688329 -0.0074219358 0.0018562639 
  788000    290.14324    6767.7568    23887.872    26.670325  0.011520808 -0.0020748494 0.0025695787 
  789000    284.97457    4870.4399    23887.872    26.525504   0.01558738 0.0021138708 -0.00016252655 
  790000    297.11879      4348.96    23887.872    26.063934  0.011111039 0.0040104145 -0.018919879 
  791000    296.53629    5841.4272    23887.872    25.992289  0.012339882 0.0044321759  0.008577553 
  792000    294.43711    7196.2398    23887.872     26.16216  0.011259357 -0.002671406 0.0082075579 
  793000    294.70172    6303.8013    23887.872    25.889798 -0.0033651572  0.013670245 0.00059501763 
  794000    295.69681    4761.1698    23887.872    25.417391  0.014295783   0.01667944  -0.01534102 
  795000     293.6962    6444.4393    23887.872    25.215359 -0.014507696 -0.0017022991 0.00095205503 
  796000    296.38066    6644.3019    23887.872    25.330763 -0.0088833744 -0.0031244912  0.012519766 
  797000    295.25988     3747.315    23887.872    25.761162 -0.015922075 0.0019694055 0.0029769261 
  798000    304.85433    5274.0509    23887.872    26.202198 -0.0053195068 0.0039785399 0.0087526714 
  799000    295.51252    8248.3216    23887.872    25.947022  0.010578633 0.0040774011 0.0069523779 
  800000    301.17542     6117.661    23887.872    25.123462 0.0021087772 -0.0043049881 -0.011636253 
  801000    305.61013    2871.5467    23887.872    24.210655 -0.0018612384 0.0043734173 0.0091315967 
  802000    298.27859    4098.1099    23887.872    24.040927 0.00029474185 -0.0021451425 -0.0035258797 
  803000    300.74074    5988.0976    23887.872     24.69212 -0.006184625 0.0073243902 0.0094390197 
  804000    302.73213    5646.6922    23887.872    25.999689 -0.012516541 -0.00043533919  0.012524062 
  805000    305.66457    3661.4773    23887.872    27.351747 0.0053293472 -0.0099766176 0.00061021278 
  806000    293.07928    3805.1046    23887.872    27.746685 0.0043915318 -0.0071999621  0.010741689 
  807000     295.9509    7039.4813    23887.872    27.060569 -0.0070018237 -0.006402113 -0.001390937 
  808000    301.90363    6136.1877    23887.872    26.300631 -0.0016904438 -0.0062670182 0.0087660003 
  809000    292.08991    4880.5694    23887.872    26.309915 -0.0014774274 0.00085969592  0.017289014 
  810000    298.61846    3563.9965    23887.872    26.775149 0.0017932331 0.0097456933 -0.0030439064 
  811000    307.50083    8924.5506    23887.872    27.325404 -0.013842333 -0.0075194521 -0.0084321041 
  812000     301.4636    7221.2959    23887.872    28.202835 -0.0023510882 -0.0013475809  0.004793975 
  813000    302.32822    4613.2435    23887.872    28.686795 -0.0087620415 -0.0026542544  0.021458149 
  814000    301.59313    2748.7644    23887.872    28.472933 0.0085798871 9.1306124e-05 0.0045580819 
  815000    299.25224    3008.3758    23887.872    28.337394 -0.0042412002 0.0089371088 -0.006048136 
  816000    298.48532    8273.9824    23887.872    28.427682  0.011592117 -0.0033525839 -0.004371057 
  817000    298.93802    6928.8943    23887.872     28.92724 0.00045097575 0.0055761172 -0.0036978084 
  818000    297.59537    4162.2118    23887.872    29.179921 0.0018853962 -0.0078950943 -0.024484185 
  819000    305.02646    3121.3676    23887.872    28.907166 0.0087005038 -0.003289391 -0.012042061 
  820000    306.36476    4744.3024    23887.872    29.261302 0.0048668613 0.0060104665 -0.0053526188 
  821000    299.89985    5638.8595    23887.872    29.955991  -0.01063647 -0.0036001338 0.0007136998 
  822000    299.40816    6122.9502    23887.872    29.975577 -0.0019467295 0.0094441061 0.0050776567 
  823000      294.416    2909.4472    23887.872    29.134403 -0.00073306507 -0.00062144902 -0.0083761062 
  824000    303.09896    7394.6015    23887.872    28.183144 -0.010317158 -0.0020020472 0.0046997371 
  825000    296.28311     6163.095    23887.872    26.953355 -0.0044002935 0.0013747163 -0.0055880256 
  826000    303.00792     2654.577    23887.872    26.102108  0.005891358 0.0033197729 0.0018566159 
  827000      300.216    5700.4231    23887.872    25.925028 -0.0041351216 -0.0014944194 -0.0061599031 
  828000    301.11036    7136.1549    23887.872    26.106612 0.0030748695    0.0047256 -0.0043226525 
  829000    301.65369    5507.7142    23887.872    27.000092 -0.0012872689 0.0039100304 0.0015629327 
  830000    290.81031    1862.3463    23887.872    27.214125 0.0092051467  0.005822761 0.0062925766 
  831000    300.26417    5992.2549    23887.872    26.539519  -0.01355224 -0.0043739458 0.0049643468 
  832000    299.57075    9175.5522    23887.872    25.820148 0.0045626555 0.0061622876 0.0030633117 
  833000    293.05889    3823.8128    23887.872    25.265547  0.012900671 -0.0079837037 -0.0048104465 
  834000    296.38506    3300.1375    23887.872    24.958352 0.0058982447 -0.0076628665 -0.0052642216 
  835000    297.40036    8980.0377    23887.872       25.549  0.013180662 -0.007588438  0.013967714 
  836000    302.99993    6119.3105    23887.872    26.062836 0.0048943677 1.8004358e-05 0.0073138631 
  837000    296.27696    2660.2642    23887.872    26.503517 0.0092322344 0.0045106463 -0.0074741273 
  838000    295.68099    5401.5379    23887.872     27.22837 -0.0011744907 -0.0018528138 0.0059258003 
  839000    304.38522    6166.4406    23887.872    27.592217 -0.0001880011 -1.8360262e-05  0.005501967 
  840000    304.08765    5376.6465    23887.872    27.259132   0.01097195 0.0091959132  0.011448661 
  841000    297.93342    5798.5952    23887.872    26.666333 0.0076894651 6.6434108e-05 0.0024978997 
  842000    294.38479     4107.184    23887.872    26.388612  -0.01292324 -0.0080574518 -0.0060871966 
  843000    289.47848    8012.2399    23887.872    26.566998  0.001930427 -0.0037397753 -0.014065062 
  844000    285.14013    4704.5761    23887.872     26.98188 0.00022903252 0.0034633337 -0.0030482956 
  845000    296.37076    4534.8049    23887.872    27.362511 0.0020902197 0.0095614186 0.0047007393 
  846000     299.2847    7485.8556    23887.872    27.953061 0.00036884126 0.0079326293 0.00098669397 
  847000    291.13813    3386.6333    23887.872    28.162979 -0.0099598309  0.014471133  0.002997517 
  848000    295.94616    3386.6068    23887.872    28.085938   0.01131179 -0.010265099 -0.014208874 
  849000    295.56238    6096.5931    23887.872    28.102391 -0.0084136336 0.00078026628 0.0058246203 
  850000    294.16523    8099.8151    23887.872    27.734101 0.0074677819 -0.0020345229  0.014723241 
  851000    300.61382    4493.9643    23887.872    27.378154 -0.012532109 -0.011072775 -0.00072948905 
  852000    302.02515    3407.0772    23887.872    26.954286 -0.0071408268 -0.0052953953 0.0038777591 
  853000    296.51613    4245.3023    23887.872    26.767465  0.014903574 0.0071397329 -0.0083742151 
  854000    302.29526    4994.9167    23887.872     26.93796 0.0062251041 0.0094662529 0.0054693996 
  855000     298.4873    6787.6661    23887.872    27.718278 0.0066040913 -0.0007436158 -0.0094363177 
  856000    295.72709    3820.6033    23887.872    28.608164  0.005702157 0.0087319582 0.0075885154 
  857000    296.87876    3411.4806    23887.872    28.615094 0.0053529436  0.011941435  0.012555434 
  858000    298.70527    6900.4258    23887.872    27.337572 -0.0015450395 0.0049956765 0.0072884607 
  859000    296.66351    5239.2722    23887.872    26.043128 -0.0003740083 0.0048883684 0.0055191559 
  860000     296.8775    2504.8803    23887.872    25.697463 -0.012877383 0.0036384277  0.016948542 
  861000    298.63932    5529.2576    23887.872    26.161967 -0.0078471678 0.0025636629 -0.0071123904 
  862000    300.10989    7016.8543    23887.872     27.02636 -0.0089217411 0.0025799319 -0.0021164244 
  863000    296.81984    5521.0941    23887.872    27.675149 -0.0098159123 -0.019682577 0.00016898126 
  864000    300.72893    3861.6296    23887.872      27.4879 0.0033234756 0.0083921619  0.008781075 
  865000    303.04291    6002.1294    23887.872    27.567315 0.00066034284 -0.0029005957 0.0038426073 
  866000    294.88514    8242.0348    23887.872    28.402039 -0.0026699761 -0.0039084209 -0.00056372164 
  867000    289.32266    3251.5581    23887.872    29.597349 -0.0047411333 0.0060884909   0.01348026 
  868000    295.94879    4393.1269    23887.872    30.240992  0.009173076 0.0086050006 0.0028169864 
  869000     292.7792    7608.0319    23887.872    30.284082 0.0043378667  0.011416173  0.010784461 
  870000    294.08698    6057.6702    23887.872    30.231874  0.005958092 -0.0080472318  0.024377964 
  871000    302.20308    4029.9794    23887.872    29.613314 0.00064071284 -0.010854034 -0.001645964 
  872000    297.63587     5459.638    23887.872    28.930325 -0.0039362462 -0.0063813139 -0.002282771 
  873000    297.64687    7094.5858    23887.872    28.722833 0.0059697391 -0.0084578306 -0.019963391 
  874000    295.14478    7226.0828    23887.872    29.024389 -0.0055228053 -0.0079214011 -0.0015393767 
  875000    290.79329    4150.4576    23887.872    29.540692  0.020689197 0.0068345505 -0.013745497 
  876000      291.244    3357.1067    23887.872    30.067675 -0.0027720354   0.01378848 0.0053102745 
  877000    296.23932    5356.9452    23887.872    29.496915 0.0014766899  -0.01113263 -0.0055661668 
  878000    296.80002      7570.29    23887.872    28.377832 -0.0063291284 -0.0052116484 -0.0081337826 
  879000    297.42945    5026.6156    23887.872    27.079968 0.0099116674  0.001869209 -0.010832333 
  880000    298.38305    5851.5575    23887.872    26.461784 -0.00014663333 0.0058144248  0.010688177 
  881000    294.90534    5915.7157    23887.872    26.431393  0.008495773 0.0050137074 0.00048638857 
  882000    302.16974    6777.1753    23887.872    26.785493 -0.0010031165 -0.0044467673 -0.0054611179 
  883000    297.10831    3599.8903    23887.872    26.868221 -0.0053690492 -0.0062307051 -0.0060964307 
  884000    294.73876    6280.3925    23887.872    26.963389 0.0050908512 -0.00026928161 0.0036081181 
  885000    298.71717    8106.0706    23887.872    27.300808 -0.0041643822  0.023867725 -0.0076778604 
  886000    292.98944    8447.0215    23887.872    27.849145 -0.00093021508 -0.0037554065 -0.0088910926 
  887000    296.89334    3722.2323    23887.872    28.241817 -0.0038164247 -0.0011424308 -0.010628488 
  888000    299.19069    6106.7574    23887.872    28.913583 -0.0030516712 -0.008721934 0.0001562055 
  889000    294.69799    7857.8568    23887.872    29.203909 0.0056296556 0.00090512518  0.001074863 
  890000    302.44689    3707.4657    23887.872    28.772307 0.0032855385 -0.0048858573 -0.019277884 
  891000    298.15789     5476.564    23887.872    27.873629 -0.0084247289 -0.016151334  0.011349569 
  892000    298.25973    7343.8888    23887.872    27.107987 0.0074502289 -0.0035699042 -0.007255012 
  893000    298.88542     6638.939    23887.872    27.040559 -0.0070722383 -0.012746781 -0.012154865 
  894000    292.19076    3206.8938    23887.872    27.189508 -0.010563097 -0.0071445397 -0.011016884 
  895000    290.53224    6114.7397    23887.872    27.432859 0.0036383845 0.00052004263 -0.00085802501 
  896000     291.7209    8046.6778    23887.872    27.970802  -0.01209778 -0.0077065724 0.0040124128 
  897000    297.73415    3134.9348    23887.872    28.627443 -0.019646666 -0.0058140689  0.010318732 
  898000    294.08059     4732.389    23887.872    29.010667 -0.011578312  0.023195423 -0.005630357 
  899000    294.23698    5467.2886    23887.872    29.785787 -0.010709366 0.0091274265 0.0047092986 
  900000     302.5931    6533.8336    23887.872    29.485247 -0.0039520179 -0.0021363405 -0.0030854092 
  901000     299.3079    5485.1935    23887.872    28.757503 -0.013670487 0.0021694755 9.1801644e-05 
  902000    299.90988     4991.057    23887.872    27.905583 -0.0053596158 0.0016980127 -0.006040068 
  903000    303.05673      2905.02    23887.872     26.95368 0.00059943764 -0.0067260085  0.011769761 
  904000    293.83974    6143.5235    23887.872    26.350986 -0.0043219507 -0.00072366239 0.0054802412 
  905000    296.36866    6326.9475    23887.872    26.686354  0.010779243 0.0014927895  0.009591656 
  906000    298.26468    2369.7543    23887.872    27.381861 -0.017007401  0.010945852 -0.0076148614 
  907000    299.37017    6030.1298    23887.872     28.47889 0.00073766662  0.002321624 -0.006400728 
  908000    301.67239    4747.8979    23887.872    29.166334 -0.0086216733 -0.0062978866 -0.0061204531 
  909000    292.33178    2145.5633    23887.872    29.397508 -0.013527067 -0.0038590453 -0.0025045974 
  910000    298.87128    5445.9743    23887.872    29.209273 -0.0023000226 -0.0016574695 0.0035974115 
  911000    295.65277    6289.5627    23887.872    29.027658 0.0009046896  0.021129135 -0.008657037 
  912000    294.37037    6820.4056    23887.872    28.846657 0.0021795045 -0.0015120201  0.010745446 
  913000    291.92757     6102.171    23887.872    28.675459 -0.0056300712 0.0061124612 0.0063292748 
  914000    295.87422    5672.3219    23887.872    28.323452 0.0027346677 -0.0034775549 -0.0068574555 
  915000    296.56979    5595.3453    23887.872    28.379244 -0.00032682124 0.0032543469 0.0023517923 
  916000    299.13157     3579.359    23887.872    28.691177 0.0083988726    0.0186658 -0.0084491392 
  917000    296.95877    4590.8281    23887.872    28.742142  0.015661326 0.0067853138  0.009005619 
  918000    296.59968    5542.6812    23887.872    29.251702 0.0044150381 0.0033009402  -0.01187341 
  919000    298.52976    9411.5996    23887.872    29.284967 0.00097214142 -0.017035425 -0.0010492436 
  920000    293.39375    2902.7614    23887.872    29.007553 0.0085871896 -0.0011357806 0.0052275719 
  921000    296.66343    3526.2779    23887.872    28.390111 -0.0097385377 0.0032391393 -0.010562202 
  922000    296.13628     4295.712    23887.872    27.440311 -0.010242996 0.00047161326 -0.0022439228 
  923000    296.84755    9670.1006    23887.872    26.908678 -0.011257731 -0.0035266046 -0.0017985977 
  924000    301.71861    5167.0797    23887.872     26.98164 0.0031047214 -0.0028671216 -0.0069563679 
  925000    300.54091     994.5068    23887.872    27.101895 -0.0035445318  0.010954472 0.0059268974 
  926000    301.88735    6663.8909    23887.872    27.058316 0.0081471849 0.0030786761 0.0045528916 
  927000    298.27511     9036.838    23887.872    27.048709 -0.004099743 0.0037733612 0.0035989606 
  928000    298.76791    4897.3039    23887.872    27.269563  0.002375502 0.0012946444 0.0085938448 
  929000    296.52921     3557.427    23887.872    27.789907 -0.012633568 0.0018894425 -0.002908931 
  930000    296.25127    6726.4933    23887.872    27.859681 0.0091162585 -0.0013067974 0.0030264694 
  931000    294.91236    7029.4958    23887.872    27.441254 0.0090043995  0.013424585 0.0078682524 
  932000     295.3947    5498.0998    23887.872    26.780431  0.012467243 -0.010822881  0.023179947 
  933000    297.22021    7787.2517    23887.872    26.203648 -0.010954397  0.012159519 -0.011151815 
  934000    294.48363    3009.5995    23887.872    26.447213 -0.0076091836 0.0044147605 -0.0037418626 
  935000    293.17421    3776.6264    23887.872    27.173582  0.015114771 -0.016945885 -0.0042242706 
  936000    293.87997    4421.4852    23887.872    27.815062 0.0025156348 -0.00072912085 -0.0012938234 
  937000    295.48189    6747.3348    23887.872    28.493305 -0.0081162903 -0.0021303302 -0.00043603597 
  938000    297.74768    3307.0844    23887.872    29.522904  0.019128069  0.007623836 0.0085072422 
  939000    295.59726     5984.435    23887.872     30.20482 -0.010714819 -0.0046074727 0.0031398055 
  940000    293.26447    6533.6671    23887.872    30.359804 0.0051352417  0.018593866 -0.015132899 
  941000    291.18507    4818.6725    23887.872    30.110765 -0.017712532  0.018055811 0.0023894962 
  942000    292.41629    3011.6174    23887.872    30.128292 0.0055530143  0.004774412  -0.01123092 
  943000    298.77251    6493.0362    23887.872     30.00911 0.00029698935 -0.011248904 0.0078105112 
  944000    303.52377    5594.3771    23887.872    29.919576 0.00091683771 0.0015616308 -0.0043070791 
  945000    292.72075    4943.0678    23887.872    29.848722 -0.00015445152 -0.019922205  0.019073464 
  946000    294.86728    7323.3388    23887.872    29.822168 0.0033741149 -0.0026629105 -0.0020185056 
  947000     293.2869    5748.5744    23887.872     28.97644 0.00090027069 0.0021427684 -0.00045745652 
  948000    299.23551    3865.6224    23887.872     28.01162 -0.0087501232 -0.0069495427 -0.0032689194 
  949000    301.65124     6318.677    23887.872    27.108219 -0.0068245224  0.004003492  0.017344763 
  950000    300.61881    5363.2017    23887.872    26.677986 -0.0040636329 0.0035632177 -0.0066849924 
  951000    294.12626    4096.8448    23887.872    26.275438 -0.0079132585 0.0043347182 -0.011957081 
  952000    299.17588    1726.6587    23887.872    26.042416 0.0018117767 -0.00018629079 -0.018899057 
  953000    299.54472    4983.4954    23887.872    26.441132 0.0029385019 -7.5623668e-05 -0.0026322345 
  954000    306.53478    6692.5308    23887.872    27.151946 0.0082686482  0.001234223 0.0017583951 
  955000     302.8184    4946.0609    23887.872    27.706522 -0.003498786 -0.010491739  0.011579633 
  956000    295.66551    5664.9146    23887.872    28.007793 -0.013124484  0.011812846 0.00097166914 
  957000    298.14234    7822.8357    23887.872    27.896964 -0.0023077936 0.0027715877 0.0061422114 
  958000    296.33103     5198.308    23887.872    27.936969 0.0007910223  0.008538361 -0.0029058321 
  959000    292.52533    3137.0175    23887.872    27.298351 0.0082574154 -0.0042220724 0.0028378436 
  960000    300.02038    6127.5762    23887.872    26.321921 -0.014041008 -0.00037393395 -0.004262489 
  961000    296.49544      5563.63    23887.872    25.795524 -0.0081614108  0.002126141 -0.0018562295 
  962000    296.13547    5982.5394    23887.872    25.894837 0.0086552658 0.0083856595 0.0085795422 
  963000    296.60072    4944.7486    23887.872    26.051032 -0.0047157045 0.0045342084 -0.0014810272 
  964000    294.97114    5388.4267    23887.872    26.681359 0.0057932939  0.011087671 0.0014298763 
  965000     296.9495      7809.29    23887.872     26.62318 -0.011443799 0.0074448606 -0.0035632156 
  966000    294.32682    2626.1666    23887.872    26.217511 -0.0042304217 -0.0026710595 -0.0024968262 
  967000    302.75221    3384.7613    23887.872    26.458758 0.0034647772 -0.0059338246 -0.013258697 
  968000    292.06429    5463.3492    23887.872    27.240505 0.0015587954 -0.0083944729 -0.0081978678 
  969000    292.85836    8388.1849    23887.872     27.94691 0.0042673269 -0.0062833917 0.00031659225 
  970000     294.5073     3429.914    23887.872    28.866559 -0.0057844118 -0.0037002942 0.0077398273 
  971000    295.20677    4173.2543    23887.872    29.298229 -0.0081192298 0.0010658229 0.0044940383 
  972000    289.12883     8473.499    23887.872    29.222717 -0.0061741352 0.0047619959 0.0096015195 
  973000    295.05599    5162.8373    23887.872    29.001811 -0.0031681967 -0.0083170239 -0.0047464672 
  974000    298.71761    537.67929    23887.872    28.509115  0.013507305 -0.0027966681  0.020872513 
  975000    300.15566    5761.6451    23887.872     27.76539  0.018060891 0.0001249728  0.014235298 
  976000    302.13534    6919.6912    23887.872    26.975791 -0.0047259566 -0.0027354145 0.00025341211 
  977000    297.33939    3842.3525    23887.872    26.211283 -0.00093376642 0.0049384328 -0.005182256 
  978000    302.68715    4717.5987    23887.872     24.79103 0.0084885174 0.0039948511 0.0023793364 
  979000      297.679     7496.064    23887.872    23.638773  0.012285248 0.0046469691  0.014831574 
  980000    295.87154    7466.4222    23887.872    23.228302 -0.00051928828 0.0087435169 -0.0051872298 
  981000    292.74031    4277.0356    23887.872    23.676683 0.0044721251 0.0084779679 -0.007176196 
  982000     287.9625    3573.7665    23887.872    24.498872 -0.00015831966 -0.0077464108 -0.011405372 
  983000    300.11116    4582.4882    23887.872    24.925277 -0.0047029269 -0.010726632 -0.00081802735 
  984000    296.29165    4597.7708    23887.872    25.376768 0.0057582137  0.005341735 0.0017456434 
  985000    295.25049    7787.2979    23887.872    26.060666 -0.011396858 0.00015854251 -0.007373555 
  986000    298.72144    5531.7771    23887.872    26.713978 -0.0063454543  0.010282622 -0.016883243 
  987000    291.10177     3742.601    23887.872    27.280554 0.0085495432 0.0011956577 -0.0022112068 
  988000    296.95412    4357.9391    23887.872     27.64641 0.0075129923  0.025053901 0.0027257547 
  989000    296.91168    4815.2202    23887.872    27.821105 -0.0072358889 -0.0048774157 0.0037569051 
  990000    299.17497    7514.4591    23887.872    27.574557 -0.006871014 -0.006533579 -0.005323713 
  991000    292.58166    6714.8563    23887.872    27.438268 -0.0028947589 0.0076074344 -0.003385847 
  992000     297.3161    3811.5784    23887.872    27.228267  0.012671773 -0.00014298483 -0.0042259362 
  993000    299.39959    4118.6473    23887.872    27.225541 0.0080831049 0.0063355674 0.0018930849 
  994000    297.74192    7178.0709    23887.872    26.752367 4.3071297e-05 -0.0026501298 0.0068412221 
  995000    298.10464    4427.4978    23887.872    26.343403 0.0079108433 0.0023879458 0.0070142722 
  996000    296.04398    2161.2359    23887.872    25.898838  0.007070818 0.0078560605 0.0062863111 
  997000    296.98296    5348.8165    23887.872    25.595868 -0.012961853 -0.00065540173 -8.3932975e-05 
  998000    289.00679    7162.4529    23887.872    25.191195 -0.011498074 0.0087188133  0.016396849 
  999000    297.44581    5184.5773    23887.872    25.055191 -0.0049769005 0.0017208213 -0.0032176926 
 1000000    299.69515    2815.3238    23887.872    24.897239  0.010602357 0.0068874534 0.0046845626 
Loop time of 21370.8 on 16 procs for 1000000 steps with 1920 atoms

Pair  time (%) = 19070.6 (89.2369)
Bond  time (%) = 0.500371 (0.00234138)
Neigh time (%) = 40.1056 (0.187665)
Comm  time (%) = 1817.58 (8.50497)
Outpt time (%) = 2.60424 (0.012186)
Other time (%) = 439.367 (2.05592)

Nlocal:    120 ave 125 max 113 min
Histogram: 1 2 0 0 3 1 0 6 1 2
Nghost:    4958.94 ave 4998 max 4938 min
Histogram: 4 0 3 4 1 0 1 2 0 1
Neighs:    52877.9 ave 55305 max 49663 min
Histogram: 1 2 0 1 2 1 1 5 1 2
FullNghs: 105756 ave 109931 max 99284 min
Histogram: 1 1 1 0 3 1 0 5 2 2

Total # of neighbors = 1692092
Ave neighs/atom = 881.298
Ave special neighs/atom = 0
Neighbor list builds = 4704
Dangerous builds = 0
#	run			10000
	unfix			1
	uncompute		myKE
	uncompute		myPE
	uncompute		myStress
	uncompute		flux
	uncompute		myDis
	unfix			JJ

	next seed
	next iseed
jump lmp.in.gk loop_seed
variable iseed loop 10
variable seed index 11111 22222 33333 44444 55555 66666 77777 88888 99999 11110
clear
###########################################################################
#x0
###########################################################################
units 			metal
atom_style		full
read_data		fort.26
  0 = max bonds/atom
  0 = max angles/atom
  0 = max dihedrals/atom
  triclinic box = (0 0 0) to (28.8 28.8 28.8) with tilt (0 0 0)
  2 by 2 by 4 processor grid
  1920 atoms
  0 bonds
  0 angles
  0 dihedrals
  0 = max # of 1-2 neighbors
  0 = max # of 1-3 neighbors
  0 = max # of 1-4 neighbors
  1 = max # of special neighbors
group         		C type = 1
60 atoms in group C
###########################################################################
#OLPS
###########################################################################

################################################################################
#### Pair potentials
################################################################################
pair_style hybrid/overlay tersoff lj/cut 12.0
pair_coeff * * tersoff C.temp.tersoff 1 2 3 4 5 6 7 8 9 10 11 12 13 14 15 16 17 18 19 20 21 22 23 24 25 26 27 28 29 30 31 32
pair_coeff 1 2 lj/cut 0.00070000000 3.5500000000
pair_coeff 1 3 lj/cut 0.00070000000 3.5500000000
pair_coeff 1 4 lj/cut 0.00070000000 3.5500000000
pair_coeff 1 5 lj/cut 0.00070000000 3.5500000000
pair_coeff 1 6 lj/cut 0.00070000000 3.5500000000
pair_coeff 1 7 lj/cut 0.00070000000 3.5500000000
pair_coeff 1 8 lj/cut 0.00070000000 3.5500000000
pair_coeff 1 9 lj/cut 0.00070000000 3.5500000000
pair_coeff 1 10 lj/cut 0.00070000000 3.5500000000
pair_coeff 1 11 lj/cut 0.00070000000 3.5500000000
pair_coeff 1 12 lj/cut 0.00070000000 3.5500000000
pair_coeff 1 13 lj/cut 0.00070000000 3.5500000000
pair_coeff 1 14 lj/cut 0.00070000000 3.5500000000
pair_coeff 1 15 lj/cut 0.00070000000 3.5500000000
pair_coeff 1 16 lj/cut 0.00070000000 3.5500000000
pair_coeff 1 17 lj/cut 0.00070000000 3.5500000000
pair_coeff 1 18 lj/cut 0.00070000000 3.5500000000
pair_coeff 1 19 lj/cut 0.00070000000 3.5500000000
pair_coeff 1 20 lj/cut 0.00070000000 3.5500000000
pair_coeff 1 21 lj/cut 0.00070000000 3.5500000000
pair_coeff 1 22 lj/cut 0.00070000000 3.5500000000
pair_coeff 1 23 lj/cut 0.00070000000 3.5500000000
pair_coeff 1 24 lj/cut 0.00070000000 3.5500000000
pair_coeff 1 25 lj/cut 0.00070000000 3.5500000000
pair_coeff 1 26 lj/cut 0.00070000000 3.5500000000
pair_coeff 1 27 lj/cut 0.00070000000 3.5500000000
pair_coeff 1 28 lj/cut 0.00070000000 3.5500000000
pair_coeff 1 29 lj/cut 0.00070000000 3.5500000000
pair_coeff 1 30 lj/cut 0.00070000000 3.5500000000
pair_coeff 1 31 lj/cut 0.00070000000 3.5500000000
pair_coeff 1 32 lj/cut 0.00070000000 3.5500000000

pair_coeff 2 3 lj/cut 0.00070000000 3.5500000000
pair_coeff 2 4 lj/cut 0.00070000000 3.5500000000
pair_coeff 2 5 lj/cut 0.00070000000 3.5500000000
pair_coeff 2 6 lj/cut 0.00070000000 3.5500000000
pair_coeff 2 7 lj/cut 0.00070000000 3.5500000000
pair_coeff 2 8 lj/cut 0.00070000000 3.5500000000
pair_coeff 2 9 lj/cut 0.00070000000 3.5500000000
pair_coeff 2 10 lj/cut 0.00070000000 3.5500000000
pair_coeff 2 11 lj/cut 0.00070000000 3.5500000000
pair_coeff 2 12 lj/cut 0.00070000000 3.5500000000
pair_coeff 2 13 lj/cut 0.00070000000 3.5500000000
pair_coeff 2 14 lj/cut 0.00070000000 3.5500000000
pair_coeff 2 15 lj/cut 0.00070000000 3.5500000000
pair_coeff 2 16 lj/cut 0.00070000000 3.5500000000
pair_coeff 2 17 lj/cut 0.00070000000 3.5500000000
pair_coeff 2 18 lj/cut 0.00070000000 3.5500000000
pair_coeff 2 19 lj/cut 0.00070000000 3.5500000000
pair_coeff 2 20 lj/cut 0.00070000000 3.5500000000
pair_coeff 2 21 lj/cut 0.00070000000 3.5500000000
pair_coeff 2 22 lj/cut 0.00070000000 3.5500000000
pair_coeff 2 23 lj/cut 0.00070000000 3.5500000000
pair_coeff 2 24 lj/cut 0.00070000000 3.5500000000
pair_coeff 2 25 lj/cut 0.00070000000 3.5500000000
pair_coeff 2 26 lj/cut 0.00070000000 3.5500000000
pair_coeff 2 27 lj/cut 0.00070000000 3.5500000000
pair_coeff 2 28 lj/cut 0.00070000000 3.5500000000
pair_coeff 2 29 lj/cut 0.00070000000 3.5500000000
pair_coeff 2 30 lj/cut 0.00070000000 3.5500000000
pair_coeff 2 31 lj/cut 0.00070000000 3.5500000000
pair_coeff 2 32 lj/cut 0.00070000000 3.5500000000

pair_coeff 3 4 lj/cut 0.00070000000 3.5500000000
pair_coeff 3 5 lj/cut 0.00070000000 3.5500000000
pair_coeff 3 6 lj/cut 0.00070000000 3.5500000000
pair_coeff 3 7 lj/cut 0.00070000000 3.5500000000
pair_coeff 3 8 lj/cut 0.00070000000 3.5500000000
pair_coeff 3 9 lj/cut 0.00070000000 3.5500000000
pair_coeff 3 10 lj/cut 0.00070000000 3.5500000000
pair_coeff 3 11 lj/cut 0.00070000000 3.5500000000
pair_coeff 3 12 lj/cut 0.00070000000 3.5500000000
pair_coeff 3 13 lj/cut 0.00070000000 3.5500000000
pair_coeff 3 14 lj/cut 0.00070000000 3.5500000000
pair_coeff 3 15 lj/cut 0.00070000000 3.5500000000
pair_coeff 3 16 lj/cut 0.00070000000 3.5500000000
pair_coeff 3 17 lj/cut 0.00070000000 3.5500000000
pair_coeff 3 18 lj/cut 0.00070000000 3.5500000000
pair_coeff 3 19 lj/cut 0.00070000000 3.5500000000
pair_coeff 3 20 lj/cut 0.00070000000 3.5500000000
pair_coeff 3 21 lj/cut 0.00070000000 3.5500000000
pair_coeff 3 22 lj/cut 0.00070000000 3.5500000000
pair_coeff 3 23 lj/cut 0.00070000000 3.5500000000
pair_coeff 3 24 lj/cut 0.00070000000 3.5500000000
pair_coeff 3 25 lj/cut 0.00070000000 3.5500000000
pair_coeff 3 26 lj/cut 0.00070000000 3.5500000000
pair_coeff 3 27 lj/cut 0.00070000000 3.5500000000
pair_coeff 3 28 lj/cut 0.00070000000 3.5500000000
pair_coeff 3 29 lj/cut 0.00070000000 3.5500000000
pair_coeff 3 30 lj/cut 0.00070000000 3.5500000000
pair_coeff 3 31 lj/cut 0.00070000000 3.5500000000
pair_coeff 3 32 lj/cut 0.00070000000 3.5500000000

pair_coeff 4 5 lj/cut 0.00070000000 3.5500000000
pair_coeff 4 6 lj/cut 0.00070000000 3.5500000000
pair_coeff 4 7 lj/cut 0.00070000000 3.5500000000
pair_coeff 4 8 lj/cut 0.00070000000 3.5500000000
pair_coeff 4 9 lj/cut 0.00070000000 3.5500000000
pair_coeff 4 10 lj/cut 0.00070000000 3.5500000000
pair_coeff 4 11 lj/cut 0.00070000000 3.5500000000
pair_coeff 4 12 lj/cut 0.00070000000 3.5500000000
pair_coeff 4 13 lj/cut 0.00070000000 3.5500000000
pair_coeff 4 14 lj/cut 0.00070000000 3.5500000000
pair_coeff 4 15 lj/cut 0.00070000000 3.5500000000
pair_coeff 4 16 lj/cut 0.00070000000 3.5500000000
pair_coeff 4 17 lj/cut 0.00070000000 3.5500000000
pair_coeff 4 18 lj/cut 0.00070000000 3.5500000000
pair_coeff 4 19 lj/cut 0.00070000000 3.5500000000
pair_coeff 4 20 lj/cut 0.00070000000 3.5500000000
pair_coeff 4 21 lj/cut 0.00070000000 3.5500000000
pair_coeff 4 22 lj/cut 0.00070000000 3.5500000000
pair_coeff 4 23 lj/cut 0.00070000000 3.5500000000
pair_coeff 4 24 lj/cut 0.00070000000 3.5500000000
pair_coeff 4 25 lj/cut 0.00070000000 3.5500000000
pair_coeff 4 26 lj/cut 0.00070000000 3.5500000000
pair_coeff 4 27 lj/cut 0.00070000000 3.5500000000
pair_coeff 4 28 lj/cut 0.00070000000 3.5500000000
pair_coeff 4 29 lj/cut 0.00070000000 3.5500000000
pair_coeff 4 30 lj/cut 0.00070000000 3.5500000000
pair_coeff 4 31 lj/cut 0.00070000000 3.5500000000
pair_coeff 4 32 lj/cut 0.00070000000 3.5500000000

pair_coeff 5 6 lj/cut 0.00070000000 3.5500000000
pair_coeff 5 7 lj/cut 0.00070000000 3.5500000000
pair_coeff 5 8 lj/cut 0.00070000000 3.5500000000
pair_coeff 5 9 lj/cut 0.00070000000 3.5500000000
pair_coeff 5 10 lj/cut 0.00070000000 3.5500000000
pair_coeff 5 11 lj/cut 0.00070000000 3.5500000000
pair_coeff 5 12 lj/cut 0.00070000000 3.5500000000
pair_coeff 5 13 lj/cut 0.00070000000 3.5500000000
pair_coeff 5 14 lj/cut 0.00070000000 3.5500000000
pair_coeff 5 15 lj/cut 0.00070000000 3.5500000000
pair_coeff 5 16 lj/cut 0.00070000000 3.5500000000
pair_coeff 5 17 lj/cut 0.00070000000 3.5500000000
pair_coeff 5 18 lj/cut 0.00070000000 3.5500000000
pair_coeff 5 19 lj/cut 0.00070000000 3.5500000000
pair_coeff 5 20 lj/cut 0.00070000000 3.5500000000
pair_coeff 5 21 lj/cut 0.00070000000 3.5500000000
pair_coeff 5 22 lj/cut 0.00070000000 3.5500000000
pair_coeff 5 23 lj/cut 0.00070000000 3.5500000000
pair_coeff 5 24 lj/cut 0.00070000000 3.5500000000
pair_coeff 5 25 lj/cut 0.00070000000 3.5500000000
pair_coeff 5 26 lj/cut 0.00070000000 3.5500000000
pair_coeff 5 27 lj/cut 0.00070000000 3.5500000000
pair_coeff 5 28 lj/cut 0.00070000000 3.5500000000
pair_coeff 5 29 lj/cut 0.00070000000 3.5500000000
pair_coeff 5 30 lj/cut 0.00070000000 3.5500000000
pair_coeff 5 31 lj/cut 0.00070000000 3.5500000000
pair_coeff 5 32 lj/cut 0.00070000000 3.5500000000

pair_coeff 6 7 lj/cut 0.00070000000 3.5500000000
pair_coeff 6 8 lj/cut 0.00070000000 3.5500000000
pair_coeff 6 9 lj/cut 0.00070000000 3.5500000000
pair_coeff 6 10 lj/cut 0.00070000000 3.5500000000
pair_coeff 6 11 lj/cut 0.00070000000 3.5500000000
pair_coeff 6 12 lj/cut 0.00070000000 3.5500000000
pair_coeff 6 13 lj/cut 0.00070000000 3.5500000000
pair_coeff 6 14 lj/cut 0.00070000000 3.5500000000
pair_coeff 6 15 lj/cut 0.00070000000 3.5500000000
pair_coeff 6 16 lj/cut 0.00070000000 3.5500000000
pair_coeff 6 17 lj/cut 0.00070000000 3.5500000000
pair_coeff 6 18 lj/cut 0.00070000000 3.5500000000
pair_coeff 6 19 lj/cut 0.00070000000 3.5500000000
pair_coeff 6 20 lj/cut 0.00070000000 3.5500000000
pair_coeff 6 21 lj/cut 0.00070000000 3.5500000000
pair_coeff 6 22 lj/cut 0.00070000000 3.5500000000
pair_coeff 6 23 lj/cut 0.00070000000 3.5500000000
pair_coeff 6 24 lj/cut 0.00070000000 3.5500000000
pair_coeff 6 25 lj/cut 0.00070000000 3.5500000000
pair_coeff 6 26 lj/cut 0.00070000000 3.5500000000
pair_coeff 6 27 lj/cut 0.00070000000 3.5500000000
pair_coeff 6 28 lj/cut 0.00070000000 3.5500000000
pair_coeff 6 29 lj/cut 0.00070000000 3.5500000000
pair_coeff 6 30 lj/cut 0.00070000000 3.5500000000
pair_coeff 6 31 lj/cut 0.00070000000 3.5500000000
pair_coeff 6 32 lj/cut 0.00070000000 3.5500000000

pair_coeff 7 8 lj/cut 0.00070000000 3.5500000000
pair_coeff 7 9 lj/cut 0.00070000000 3.5500000000
pair_coeff 7 10 lj/cut 0.00070000000 3.5500000000
pair_coeff 7 11 lj/cut 0.00070000000 3.5500000000
pair_coeff 7 12 lj/cut 0.00070000000 3.5500000000
pair_coeff 7 13 lj/cut 0.00070000000 3.5500000000
pair_coeff 7 14 lj/cut 0.00070000000 3.5500000000
pair_coeff 7 15 lj/cut 0.00070000000 3.5500000000
pair_coeff 7 16 lj/cut 0.00070000000 3.5500000000
pair_coeff 7 17 lj/cut 0.00070000000 3.5500000000
pair_coeff 7 18 lj/cut 0.00070000000 3.5500000000
pair_coeff 7 19 lj/cut 0.00070000000 3.5500000000
pair_coeff 7 20 lj/cut 0.00070000000 3.5500000000
pair_coeff 7 21 lj/cut 0.00070000000 3.5500000000
pair_coeff 7 22 lj/cut 0.00070000000 3.5500000000
pair_coeff 7 23 lj/cut 0.00070000000 3.5500000000
pair_coeff 7 24 lj/cut 0.00070000000 3.5500000000
pair_coeff 7 25 lj/cut 0.00070000000 3.5500000000
pair_coeff 7 26 lj/cut 0.00070000000 3.5500000000
pair_coeff 7 27 lj/cut 0.00070000000 3.5500000000
pair_coeff 7 28 lj/cut 0.00070000000 3.5500000000
pair_coeff 7 29 lj/cut 0.00070000000 3.5500000000
pair_coeff 7 30 lj/cut 0.00070000000 3.5500000000
pair_coeff 7 31 lj/cut 0.00070000000 3.5500000000
pair_coeff 7 32 lj/cut 0.00070000000 3.5500000000

pair_coeff 8 9 lj/cut 0.00070000000 3.5500000000
pair_coeff 8 10 lj/cut 0.00070000000 3.5500000000
pair_coeff 8 11 lj/cut 0.00070000000 3.5500000000
pair_coeff 8 12 lj/cut 0.00070000000 3.5500000000
pair_coeff 8 13 lj/cut 0.00070000000 3.5500000000
pair_coeff 8 14 lj/cut 0.00070000000 3.5500000000
pair_coeff 8 15 lj/cut 0.00070000000 3.5500000000
pair_coeff 8 16 lj/cut 0.00070000000 3.5500000000
pair_coeff 8 17 lj/cut 0.00070000000 3.5500000000
pair_coeff 8 18 lj/cut 0.00070000000 3.5500000000
pair_coeff 8 19 lj/cut 0.00070000000 3.5500000000
pair_coeff 8 20 lj/cut 0.00070000000 3.5500000000
pair_coeff 8 21 lj/cut 0.00070000000 3.5500000000
pair_coeff 8 22 lj/cut 0.00070000000 3.5500000000
pair_coeff 8 23 lj/cut 0.00070000000 3.5500000000
pair_coeff 8 24 lj/cut 0.00070000000 3.5500000000
pair_coeff 8 25 lj/cut 0.00070000000 3.5500000000
pair_coeff 8 26 lj/cut 0.00070000000 3.5500000000
pair_coeff 8 27 lj/cut 0.00070000000 3.5500000000
pair_coeff 8 28 lj/cut 0.00070000000 3.5500000000
pair_coeff 8 29 lj/cut 0.00070000000 3.5500000000
pair_coeff 8 30 lj/cut 0.00070000000 3.5500000000
pair_coeff 8 31 lj/cut 0.00070000000 3.5500000000
pair_coeff 8 32 lj/cut 0.00070000000 3.5500000000

pair_coeff 9 10 lj/cut 0.00070000000 3.5500000000
pair_coeff 9 11 lj/cut 0.00070000000 3.5500000000
pair_coeff 9 12 lj/cut 0.00070000000 3.5500000000
pair_coeff 9 13 lj/cut 0.00070000000 3.5500000000
pair_coeff 9 14 lj/cut 0.00070000000 3.5500000000
pair_coeff 9 15 lj/cut 0.00070000000 3.5500000000
pair_coeff 9 16 lj/cut 0.00070000000 3.5500000000
pair_coeff 9 17 lj/cut 0.00070000000 3.5500000000
pair_coeff 9 18 lj/cut 0.00070000000 3.5500000000
pair_coeff 9 19 lj/cut 0.00070000000 3.5500000000
pair_coeff 9 20 lj/cut 0.00070000000 3.5500000000
pair_coeff 9 21 lj/cut 0.00070000000 3.5500000000
pair_coeff 9 22 lj/cut 0.00070000000 3.5500000000
pair_coeff 9 23 lj/cut 0.00070000000 3.5500000000
pair_coeff 9 24 lj/cut 0.00070000000 3.5500000000
pair_coeff 9 25 lj/cut 0.00070000000 3.5500000000
pair_coeff 9 26 lj/cut 0.00070000000 3.5500000000
pair_coeff 9 27 lj/cut 0.00070000000 3.5500000000
pair_coeff 9 28 lj/cut 0.00070000000 3.5500000000
pair_coeff 9 29 lj/cut 0.00070000000 3.5500000000
pair_coeff 9 30 lj/cut 0.00070000000 3.5500000000
pair_coeff 9 31 lj/cut 0.00070000000 3.5500000000
pair_coeff 9 32 lj/cut 0.00070000000 3.5500000000

pair_coeff 10 11 lj/cut 0.00070000000 3.5500000000
pair_coeff 10 12 lj/cut 0.00070000000 3.5500000000
pair_coeff 10 13 lj/cut 0.00070000000 3.5500000000
pair_coeff 10 14 lj/cut 0.00070000000 3.5500000000
pair_coeff 10 15 lj/cut 0.00070000000 3.5500000000
pair_coeff 10 16 lj/cut 0.00070000000 3.5500000000
pair_coeff 10 17 lj/cut 0.00070000000 3.5500000000
pair_coeff 10 18 lj/cut 0.00070000000 3.5500000000
pair_coeff 10 19 lj/cut 0.00070000000 3.5500000000
pair_coeff 10 20 lj/cut 0.00070000000 3.5500000000
pair_coeff 10 21 lj/cut 0.00070000000 3.5500000000
pair_coeff 10 22 lj/cut 0.00070000000 3.5500000000
pair_coeff 10 23 lj/cut 0.00070000000 3.5500000000
pair_coeff 10 24 lj/cut 0.00070000000 3.5500000000
pair_coeff 10 25 lj/cut 0.00070000000 3.5500000000
pair_coeff 10 26 lj/cut 0.00070000000 3.5500000000
pair_coeff 10 27 lj/cut 0.00070000000 3.5500000000
pair_coeff 10 28 lj/cut 0.00070000000 3.5500000000
pair_coeff 10 29 lj/cut 0.00070000000 3.5500000000
pair_coeff 10 30 lj/cut 0.00070000000 3.5500000000
pair_coeff 10 31 lj/cut 0.00070000000 3.5500000000
pair_coeff 10 32 lj/cut 0.00070000000 3.5500000000

pair_coeff 11 12 lj/cut 0.00070000000 3.5500000000
pair_coeff 11 13 lj/cut 0.00070000000 3.5500000000
pair_coeff 11 14 lj/cut 0.00070000000 3.5500000000
pair_coeff 11 15 lj/cut 0.00070000000 3.5500000000
pair_coeff 11 16 lj/cut 0.00070000000 3.5500000000
pair_coeff 11 17 lj/cut 0.00070000000 3.5500000000
pair_coeff 11 18 lj/cut 0.00070000000 3.5500000000
pair_coeff 11 19 lj/cut 0.00070000000 3.5500000000
pair_coeff 11 20 lj/cut 0.00070000000 3.5500000000
pair_coeff 11 21 lj/cut 0.00070000000 3.5500000000
pair_coeff 11 22 lj/cut 0.00070000000 3.5500000000
pair_coeff 11 23 lj/cut 0.00070000000 3.5500000000
pair_coeff 11 24 lj/cut 0.00070000000 3.5500000000
pair_coeff 11 25 lj/cut 0.00070000000 3.5500000000
pair_coeff 11 26 lj/cut 0.00070000000 3.5500000000
pair_coeff 11 27 lj/cut 0.00070000000 3.5500000000
pair_coeff 11 28 lj/cut 0.00070000000 3.5500000000
pair_coeff 11 29 lj/cut 0.00070000000 3.5500000000
pair_coeff 11 30 lj/cut 0.00070000000 3.5500000000
pair_coeff 11 31 lj/cut 0.00070000000 3.5500000000
pair_coeff 11 32 lj/cut 0.00070000000 3.5500000000

pair_coeff 12 13 lj/cut 0.00070000000 3.5500000000
pair_coeff 12 14 lj/cut 0.00070000000 3.5500000000
pair_coeff 12 15 lj/cut 0.00070000000 3.5500000000
pair_coeff 12 16 lj/cut 0.00070000000 3.5500000000
pair_coeff 12 17 lj/cut 0.00070000000 3.5500000000
pair_coeff 12 18 lj/cut 0.00070000000 3.5500000000
pair_coeff 12 19 lj/cut 0.00070000000 3.5500000000
pair_coeff 12 20 lj/cut 0.00070000000 3.5500000000
pair_coeff 12 21 lj/cut 0.00070000000 3.5500000000
pair_coeff 12 22 lj/cut 0.00070000000 3.5500000000
pair_coeff 12 23 lj/cut 0.00070000000 3.5500000000
pair_coeff 12 24 lj/cut 0.00070000000 3.5500000000
pair_coeff 12 25 lj/cut 0.00070000000 3.5500000000
pair_coeff 12 26 lj/cut 0.00070000000 3.5500000000
pair_coeff 12 27 lj/cut 0.00070000000 3.5500000000
pair_coeff 12 28 lj/cut 0.00070000000 3.5500000000
pair_coeff 12 29 lj/cut 0.00070000000 3.5500000000
pair_coeff 12 30 lj/cut 0.00070000000 3.5500000000
pair_coeff 12 31 lj/cut 0.00070000000 3.5500000000
pair_coeff 12 32 lj/cut 0.00070000000 3.5500000000

pair_coeff 13 14 lj/cut 0.00070000000 3.5500000000
pair_coeff 13 15 lj/cut 0.00070000000 3.5500000000
pair_coeff 13 16 lj/cut 0.00070000000 3.5500000000
pair_coeff 13 17 lj/cut 0.00070000000 3.5500000000
pair_coeff 13 18 lj/cut 0.00070000000 3.5500000000
pair_coeff 13 19 lj/cut 0.00070000000 3.5500000000
pair_coeff 13 20 lj/cut 0.00070000000 3.5500000000
pair_coeff 13 21 lj/cut 0.00070000000 3.5500000000
pair_coeff 13 22 lj/cut 0.00070000000 3.5500000000
pair_coeff 13 23 lj/cut 0.00070000000 3.5500000000
pair_coeff 13 24 lj/cut 0.00070000000 3.5500000000
pair_coeff 13 25 lj/cut 0.00070000000 3.5500000000
pair_coeff 13 26 lj/cut 0.00070000000 3.5500000000
pair_coeff 13 27 lj/cut 0.00070000000 3.5500000000
pair_coeff 13 28 lj/cut 0.00070000000 3.5500000000
pair_coeff 13 29 lj/cut 0.00070000000 3.5500000000
pair_coeff 13 30 lj/cut 0.00070000000 3.5500000000
pair_coeff 13 31 lj/cut 0.00070000000 3.5500000000
pair_coeff 13 32 lj/cut 0.00070000000 3.5500000000

pair_coeff 14 15 lj/cut 0.00070000000 3.5500000000
pair_coeff 14 16 lj/cut 0.00070000000 3.5500000000
pair_coeff 14 17 lj/cut 0.00070000000 3.5500000000
pair_coeff 14 18 lj/cut 0.00070000000 3.5500000000
pair_coeff 14 19 lj/cut 0.00070000000 3.5500000000
pair_coeff 14 20 lj/cut 0.00070000000 3.5500000000
pair_coeff 14 21 lj/cut 0.00070000000 3.5500000000
pair_coeff 14 22 lj/cut 0.00070000000 3.5500000000
pair_coeff 14 23 lj/cut 0.00070000000 3.5500000000
pair_coeff 14 24 lj/cut 0.00070000000 3.5500000000
pair_coeff 14 25 lj/cut 0.00070000000 3.5500000000
pair_coeff 14 26 lj/cut 0.00070000000 3.5500000000
pair_coeff 14 27 lj/cut 0.00070000000 3.5500000000
pair_coeff 14 28 lj/cut 0.00070000000 3.5500000000
pair_coeff 14 29 lj/cut 0.00070000000 3.5500000000
pair_coeff 14 30 lj/cut 0.00070000000 3.5500000000
pair_coeff 14 31 lj/cut 0.00070000000 3.5500000000
pair_coeff 14 32 lj/cut 0.00070000000 3.5500000000

pair_coeff 15 16 lj/cut 0.00070000000 3.5500000000
pair_coeff 15 17 lj/cut 0.00070000000 3.5500000000
pair_coeff 15 18 lj/cut 0.00070000000 3.5500000000
pair_coeff 15 19 lj/cut 0.00070000000 3.5500000000
pair_coeff 15 20 lj/cut 0.00070000000 3.5500000000
pair_coeff 15 21 lj/cut 0.00070000000 3.5500000000
pair_coeff 15 22 lj/cut 0.00070000000 3.5500000000
pair_coeff 15 23 lj/cut 0.00070000000 3.5500000000
pair_coeff 15 24 lj/cut 0.00070000000 3.5500000000
pair_coeff 15 25 lj/cut 0.00070000000 3.5500000000
pair_coeff 15 26 lj/cut 0.00070000000 3.5500000000
pair_coeff 15 27 lj/cut 0.00070000000 3.5500000000
pair_coeff 15 28 lj/cut 0.00070000000 3.5500000000
pair_coeff 15 29 lj/cut 0.00070000000 3.5500000000
pair_coeff 15 30 lj/cut 0.00070000000 3.5500000000
pair_coeff 15 31 lj/cut 0.00070000000 3.5500000000
pair_coeff 15 32 lj/cut 0.00070000000 3.5500000000

pair_coeff 16 17 lj/cut 0.00070000000 3.5500000000
pair_coeff 16 18 lj/cut 0.00070000000 3.5500000000
pair_coeff 16 19 lj/cut 0.00070000000 3.5500000000
pair_coeff 16 20 lj/cut 0.00070000000 3.5500000000
pair_coeff 16 21 lj/cut 0.00070000000 3.5500000000
pair_coeff 16 22 lj/cut 0.00070000000 3.5500000000
pair_coeff 16 23 lj/cut 0.00070000000 3.5500000000
pair_coeff 16 24 lj/cut 0.00070000000 3.5500000000
pair_coeff 16 25 lj/cut 0.00070000000 3.5500000000
pair_coeff 16 26 lj/cut 0.00070000000 3.5500000000
pair_coeff 16 27 lj/cut 0.00070000000 3.5500000000
pair_coeff 16 28 lj/cut 0.00070000000 3.5500000000
pair_coeff 16 29 lj/cut 0.00070000000 3.5500000000
pair_coeff 16 30 lj/cut 0.00070000000 3.5500000000
pair_coeff 16 31 lj/cut 0.00070000000 3.5500000000
pair_coeff 16 32 lj/cut 0.00070000000 3.5500000000

pair_coeff 17 18 lj/cut 0.00070000000 3.5500000000
pair_coeff 17 19 lj/cut 0.00070000000 3.5500000000
pair_coeff 17 20 lj/cut 0.00070000000 3.5500000000
pair_coeff 17 21 lj/cut 0.00070000000 3.5500000000
pair_coeff 17 22 lj/cut 0.00070000000 3.5500000000
pair_coeff 17 23 lj/cut 0.00070000000 3.5500000000
pair_coeff 17 24 lj/cut 0.00070000000 3.5500000000
pair_coeff 17 25 lj/cut 0.00070000000 3.5500000000
pair_coeff 17 26 lj/cut 0.00070000000 3.5500000000
pair_coeff 17 27 lj/cut 0.00070000000 3.5500000000
pair_coeff 17 28 lj/cut 0.00070000000 3.5500000000
pair_coeff 17 29 lj/cut 0.00070000000 3.5500000000
pair_coeff 17 30 lj/cut 0.00070000000 3.5500000000
pair_coeff 17 31 lj/cut 0.00070000000 3.5500000000
pair_coeff 17 32 lj/cut 0.00070000000 3.5500000000

pair_coeff 18 19 lj/cut 0.00070000000 3.5500000000
pair_coeff 18 20 lj/cut 0.00070000000 3.5500000000
pair_coeff 18 21 lj/cut 0.00070000000 3.5500000000
pair_coeff 18 22 lj/cut 0.00070000000 3.5500000000
pair_coeff 18 23 lj/cut 0.00070000000 3.5500000000
pair_coeff 18 24 lj/cut 0.00070000000 3.5500000000
pair_coeff 18 25 lj/cut 0.00070000000 3.5500000000
pair_coeff 18 26 lj/cut 0.00070000000 3.5500000000
pair_coeff 18 27 lj/cut 0.00070000000 3.5500000000
pair_coeff 18 28 lj/cut 0.00070000000 3.5500000000
pair_coeff 18 29 lj/cut 0.00070000000 3.5500000000
pair_coeff 18 30 lj/cut 0.00070000000 3.5500000000
pair_coeff 18 31 lj/cut 0.00070000000 3.5500000000
pair_coeff 18 32 lj/cut 0.00070000000 3.5500000000

pair_coeff 19 20 lj/cut 0.00070000000 3.5500000000
pair_coeff 19 21 lj/cut 0.00070000000 3.5500000000
pair_coeff 19 22 lj/cut 0.00070000000 3.5500000000
pair_coeff 19 23 lj/cut 0.00070000000 3.5500000000
pair_coeff 19 24 lj/cut 0.00070000000 3.5500000000
pair_coeff 19 25 lj/cut 0.00070000000 3.5500000000
pair_coeff 19 26 lj/cut 0.00070000000 3.5500000000
pair_coeff 19 27 lj/cut 0.00070000000 3.5500000000
pair_coeff 19 28 lj/cut 0.00070000000 3.5500000000
pair_coeff 19 29 lj/cut 0.00070000000 3.5500000000
pair_coeff 19 30 lj/cut 0.00070000000 3.5500000000
pair_coeff 19 31 lj/cut 0.00070000000 3.5500000000
pair_coeff 19 32 lj/cut 0.00070000000 3.5500000000

pair_coeff 20 21 lj/cut 0.00070000000 3.5500000000
pair_coeff 20 22 lj/cut 0.00070000000 3.5500000000
pair_coeff 20 23 lj/cut 0.00070000000 3.5500000000
pair_coeff 20 24 lj/cut 0.00070000000 3.5500000000
pair_coeff 20 25 lj/cut 0.00070000000 3.5500000000
pair_coeff 20 26 lj/cut 0.00070000000 3.5500000000
pair_coeff 20 27 lj/cut 0.00070000000 3.5500000000
pair_coeff 20 28 lj/cut 0.00070000000 3.5500000000
pair_coeff 20 29 lj/cut 0.00070000000 3.5500000000
pair_coeff 20 30 lj/cut 0.00070000000 3.5500000000
pair_coeff 20 31 lj/cut 0.00070000000 3.5500000000
pair_coeff 20 32 lj/cut 0.00070000000 3.5500000000

pair_coeff 21 22 lj/cut 0.00070000000 3.5500000000
pair_coeff 21 23 lj/cut 0.00070000000 3.5500000000
pair_coeff 21 24 lj/cut 0.00070000000 3.5500000000
pair_coeff 21 25 lj/cut 0.00070000000 3.5500000000
pair_coeff 21 26 lj/cut 0.00070000000 3.5500000000
pair_coeff 21 27 lj/cut 0.00070000000 3.5500000000
pair_coeff 21 28 lj/cut 0.00070000000 3.5500000000
pair_coeff 21 29 lj/cut 0.00070000000 3.5500000000
pair_coeff 21 30 lj/cut 0.00070000000 3.5500000000
pair_coeff 21 31 lj/cut 0.00070000000 3.5500000000
pair_coeff 21 32 lj/cut 0.00070000000 3.5500000000

pair_coeff 22 23 lj/cut 0.00070000000 3.5500000000
pair_coeff 22 24 lj/cut 0.00070000000 3.5500000000
pair_coeff 22 25 lj/cut 0.00070000000 3.5500000000
pair_coeff 22 26 lj/cut 0.00070000000 3.5500000000
pair_coeff 22 27 lj/cut 0.00070000000 3.5500000000
pair_coeff 22 28 lj/cut 0.00070000000 3.5500000000
pair_coeff 22 29 lj/cut 0.00070000000 3.5500000000
pair_coeff 22 30 lj/cut 0.00070000000 3.5500000000
pair_coeff 22 31 lj/cut 0.00070000000 3.5500000000
pair_coeff 22 32 lj/cut 0.00070000000 3.5500000000

pair_coeff 23 24 lj/cut 0.00070000000 3.5500000000
pair_coeff 23 25 lj/cut 0.00070000000 3.5500000000
pair_coeff 23 26 lj/cut 0.00070000000 3.5500000000
pair_coeff 23 27 lj/cut 0.00070000000 3.5500000000
pair_coeff 23 28 lj/cut 0.00070000000 3.5500000000
pair_coeff 23 29 lj/cut 0.00070000000 3.5500000000
pair_coeff 23 30 lj/cut 0.00070000000 3.5500000000
pair_coeff 23 31 lj/cut 0.00070000000 3.5500000000
pair_coeff 23 32 lj/cut 0.00070000000 3.5500000000

pair_coeff 24 25 lj/cut 0.00070000000 3.5500000000
pair_coeff 24 26 lj/cut 0.00070000000 3.5500000000
pair_coeff 24 27 lj/cut 0.00070000000 3.5500000000
pair_coeff 24 28 lj/cut 0.00070000000 3.5500000000
pair_coeff 24 29 lj/cut 0.00070000000 3.5500000000
pair_coeff 24 30 lj/cut 0.00070000000 3.5500000000
pair_coeff 24 31 lj/cut 0.00070000000 3.5500000000
pair_coeff 24 32 lj/cut 0.00070000000 3.5500000000

pair_coeff 25 26 lj/cut 0.00070000000 3.5500000000
pair_coeff 25 27 lj/cut 0.00070000000 3.5500000000
pair_coeff 25 28 lj/cut 0.00070000000 3.5500000000
pair_coeff 25 29 lj/cut 0.00070000000 3.5500000000
pair_coeff 25 30 lj/cut 0.00070000000 3.5500000000
pair_coeff 25 31 lj/cut 0.00070000000 3.5500000000
pair_coeff 25 32 lj/cut 0.00070000000 3.5500000000

pair_coeff 26 27 lj/cut 0.00070000000 3.5500000000
pair_coeff 26 28 lj/cut 0.00070000000 3.5500000000
pair_coeff 26 29 lj/cut 0.00070000000 3.5500000000
pair_coeff 26 30 lj/cut 0.00070000000 3.5500000000
pair_coeff 26 31 lj/cut 0.00070000000 3.5500000000
pair_coeff 26 32 lj/cut 0.00070000000 3.5500000000

pair_coeff 27 28 lj/cut 0.00070000000 3.5500000000
pair_coeff 27 29 lj/cut 0.00070000000 3.5500000000
pair_coeff 27 30 lj/cut 0.00070000000 3.5500000000
pair_coeff 27 31 lj/cut 0.00070000000 3.5500000000
pair_coeff 27 32 lj/cut 0.00070000000 3.5500000000

pair_coeff 28 29 lj/cut 0.00070000000 3.5500000000
pair_coeff 28 30 lj/cut 0.00070000000 3.5500000000
pair_coeff 28 31 lj/cut 0.00070000000 3.5500000000
pair_coeff 28 32 lj/cut 0.00070000000 3.5500000000

pair_coeff 29 30 lj/cut 0.00070000000 3.5500000000
pair_coeff 29 31 lj/cut 0.00070000000 3.5500000000
pair_coeff 29 32 lj/cut 0.00070000000 3.5500000000

pair_coeff 30 31 lj/cut 0.00070000000 3.5500000000
pair_coeff 30 32 lj/cut 0.00070000000 3.5500000000

pair_coeff 31 32 lj/cut 0.00070000000 3.5500000000

special_bonds lj 0.0 0.0 0.0 coul 0.0 0.0 0.0

#pair_style tersoff 
#pair_coeff * * C.4.tersoff 1 2 3 4

#pair_style lj/cut 12.0
#pair_coeff 1 1 0.00070000000 3.5500000000
#special_bonds lj 0.0 0.0 0.0 coul 0.0 0.0 0.0
###########################################################################


#--------------------------------------------------------------------------
#variables
#--------------------------------------------------------------------------
variable   	dt 		equal 0.001
#--------------------------------------------------------------------------
#kappa parameters
#--------------------------------------------------------------------------
variable    	p 		equal 100000 	# correlation length
variable    	s 		equal 10  	# sample interval
variable    	d 		equal $p*$s 	# dump interval 
variable    	d 		equal 100000*$s 	variable    	d 		equal 100000*10 	
#--------------------------------------------------------------------------
variable 	T_run 		equal 300
#--------------------------------------------------------------------------

log 	log_heat_${iseed}.lammps
log 	log_heat_4.lammps
