	reset_timestep  	0
	fix 			1 all nve
	compute   		myKE all ke/atom
	compute   		myPE all pe/atom
	compute   		myStress all stress/atom virial
	compute   		flux all heat/flux myKE myPE myStress
	variable  		Jx equal c_flux[1]/vol
	variable  		Jy equal c_flux[2]/vol
	variable  		Jz equal c_flux[3]/vol
	fix       		JJ all ave/correlate $s $p $d c_flux[1] c_flux[2] c_flux[3] type auto file J0Jt_${iseed}.dat ave running
	fix       		JJ all ave/correlate 10 $p $d c_flux[1] c_flux[2] c_flux[3] type auto file J0Jt_${iseed}.dat ave running
	fix       		JJ all ave/correlate 10 100000 $d c_flux[1] c_flux[2] c_flux[3] type auto file J0Jt_${iseed}.dat ave running
	fix       		JJ all ave/correlate 10 100000 1000000 c_flux[1] c_flux[2] c_flux[3] type auto file J0Jt_${iseed}.dat ave running
	fix       		JJ all ave/correlate 10 100000 1000000 c_flux[1] c_flux[2] c_flux[3] type auto file J0Jt_2.dat ave running
	compute 		myDis all msd 
	thermo_style 		custom step temp press vol c_myDis[4] v_Jx v_Jy v_Jz 
	thermo			1000
	timestep		${dt}
	timestep		0.001
	run			1000000
Memory usage per processor = 6.0234 Mbytes
Step Temp Press Volume myDis[4] Jx Jy Jz 
       0    305.61541    6056.4538    23887.872 8.1766123e-30 0.0033117107 0.00027321087 -0.0018490893 
    1000    303.70639    5475.9122    23887.872    2.6772667 -0.007145837 -0.011692382 0.0093037588 
    2000    304.30362    6465.5294    23887.872    8.0883162 -0.011389579  0.012634639 -0.00090473367 
    3000    302.98775    7589.4895    23887.872    14.083806  0.013672582 0.0070257119 -0.0040612717 
    4000    305.87291    7363.9154    23887.872    19.323684  0.013262676 -0.007215551  0.012387806 
    5000    298.56106    7549.9618    23887.872    23.627892 0.0010683989 -0.0071702485 0.0056013799 
    6000    301.14992    5458.8612    23887.872    26.442079 -0.010280094 -0.016692631  0.010154637 
    7000    305.45138    6832.1798    23887.872    28.181198 -0.004009875 0.0064709006 -0.0077729717 
    8000    307.38808    7448.0047    23887.872    28.781233 -0.0075951581 0.00023704546 -0.0037167519 
    9000    296.17305    5516.2613    23887.872     28.10448 -0.002469798 0.0061968391  0.011647127 
   10000    300.22355    7654.8413    23887.872    26.945776 -0.018241805  0.011778437 -0.0079088856 
   11000     301.2343    6531.2318    23887.872    26.413915 0.0071119556    0.0121241  0.010277039 
   12000    299.71998    3875.6446    23887.872    26.585246  0.010476641 -0.0053373657 -0.0033200667 
   13000    299.82699    6910.7259    23887.872    27.209589 0.0085026707  0.011068067 0.00067924218 
   14000    301.49135    5141.3796    23887.872    28.152585 -0.013297037 0.0093598643 0.00029941867 
   15000    301.54475      8354.95    23887.872    29.078083 -0.0016800703 0.0063142609 0.0037637832 
   16000    299.87324    7286.9725    23887.872    29.171567 -0.00079539108 -0.0098741965 0.0023307994 
   17000     297.0822    6504.8726    23887.872    28.890865 0.0073805475 -0.0044501277 0.0034057154 
   18000    298.70592    5435.0841    23887.872    28.057028 -0.011337731 0.0076690271 0.0039179027 
   19000    297.10334    6118.3569    23887.872    27.806406 0.0080132297  0.011850027 -0.0045861317 
   20000    297.45163    11510.617    23887.872    27.829687 -0.016002701  0.012734011 0.0042740759 
   21000    302.66452    5499.6127    23887.872    28.627616  0.013814359 -0.0097125789 -0.012033337 
   22000    303.19799    3707.6214    23887.872    29.235928 -0.0017148648 0.0095021282  0.003761752 
   23000    298.47335    7593.1865    23887.872    28.845612  0.006242499 -0.0048861712  0.010111362 
   24000    307.37772     8102.229    23887.872    28.177042 -0.00015777435 0.00046966254 -0.00031127243 
   25000    304.10203    4795.0049    23887.872    28.694803 -0.0016154827  0.022235235 -0.00063767212 
   26000    299.05579    7845.3125    23887.872     29.67548  0.010397593 -0.0022762268 -0.0054914751 
   27000    301.07088    5112.6466    23887.872    30.074778 -0.0012590625  0.015406111 0.0047927184 
   28000    299.58608    6029.9608    23887.872    29.842912 -0.015435645 -0.0059524078 0.0078566259 
   29000    304.49164    6800.5281    23887.872    29.811593  -0.01099058 0.00022307247 -0.007354713 
   30000    300.74857    8745.4889    23887.872    29.365987 -0.0098126995 -0.012477206 0.0052008967 
   31000    302.57869    5474.5915    23887.872    28.952261 -0.0045850527 -0.0005479509 0.0037696524 
   32000    300.53327    5132.5739    23887.872    29.129156 -0.015574276  0.019678826 -0.0049085643 
   33000    308.19356    6795.8725    23887.872    29.211222 0.0020995873 0.0031580714 -0.0047910049 
   34000    307.72973    6141.1521    23887.872     28.93572 -0.0075766894 0.0078782674 0.0044611933 
   35000    299.73719    6334.3878    23887.872    29.088994 0.0037293151 -0.0072772825 -0.0013878652 
   36000    298.35634    4918.4145    23887.872    29.080469 -0.0070439582 -0.010972015 0.00053653891 
   37000    301.08576    5367.7901    23887.872    29.045068 -0.013426531 -0.010288707 0.0062058994 
   38000    294.42522    9029.6432    23887.872    29.300858 -0.0062890976 0.0030382237 0.0081227214 
   39000    304.23969     5220.672    23887.872    28.069448 0.0015339945 -0.0063773233  0.015118993 
   40000    300.00109    6733.5145    23887.872    26.412695 -0.010765169 0.0064270014 0.0088369705 
   41000    299.45121    5379.4735    23887.872    25.808392 -0.00051596261 -0.0020579569 0.0014626905 
   42000    304.65227    5548.4967    23887.872    26.139404 0.0027613983 0.0036647815 0.0014345414 
   43000    299.41041    4623.8431    23887.872    27.139703 -0.0012079251  0.019139011 0.0056578127 
   44000    304.25719     7272.514    23887.872    28.387733 -0.0032853897 5.4156965e-05 -0.005422088 
   45000    302.98191    7200.8029    23887.872    29.096893 -0.0040553587 0.0057495759 -0.0030696964 
   46000    301.68537     7971.958    23887.872    28.446481 -0.0037342139 0.0043521622 0.0021726815 
   47000    303.77322    2764.4898    23887.872    27.486074 0.0090269507  0.006469263 0.0086373198 
   48000    302.84365    9698.6764    23887.872    26.918775 0.00077022382 0.0039512762 -0.021794675 
   49000    301.64315    5497.4294    23887.872    26.869973 0.0060749826 -0.00092039261 0.0021308149 
   50000    295.84293    5490.9066    23887.872    27.789035 -0.0012347929 -0.0035453253  0.014954106 
   51000    307.22211    8429.8596    23887.872    29.038533 -0.001841175 -0.0073451632 0.0063913723 
   52000    304.85402    5373.7529    23887.872    29.580414 0.0025336165 -0.014743293 0.0053579646 
   53000     295.6081    7372.4755    23887.872     28.82317   0.01072647 -0.00027086257 -0.0042615017 
   54000    306.81646    7406.3717    23887.872    27.540288 -0.003142761 0.0085060319 -0.0014613091 
   55000    299.63684    8811.0318    23887.872    26.011715 0.0063935174 0.0043784398 -0.0032732528 
   56000    297.92512    7003.4537    23887.872    24.893667 -0.0004934067 -0.0080990952 0.0042115229 
   57000    300.04895    4576.9419    23887.872    23.969428 -0.0052759218 -0.0036992002 -0.00034458357 
   58000    304.03863    7796.7189    23887.872     23.32157  0.006752438 0.00078076198 0.0018344264 
   59000    305.37551    9029.0789    23887.872    23.715668 -0.0026358336 -0.012676547 0.0018508825 
   60000     297.2989     3906.146    23887.872    24.656604 0.0026289161  -0.01951907 0.0012255154 
   61000    299.41733    4957.7841    23887.872    25.986078 0.0046455606 -0.0047588207  0.014029382 
   62000    296.43399    10196.251    23887.872    27.349527 0.0062748295 -0.014794191 -0.00055857188 
   63000    299.25773    6285.7462    23887.872    27.918479 0.0047555818 -0.0072863447 0.0015533384 
   64000     304.0807    3729.3437    23887.872    27.957236  -0.01076909 -0.0077242624 0.0049973101 
   65000    293.37136    6758.3457    23887.872      27.7566 0.0070605248 -0.011857263 -0.0087453914 
   66000    300.91291    6907.4136    23887.872    27.394153 0.0092347424 -0.0067137021  0.016661893 
   67000    305.57802    5308.9245    23887.872    26.712771  0.021018695 0.0057447637 0.00054856077 
   68000    294.91431    5651.6236    23887.872    25.642474 -0.0016898767  0.018248975  0.012463607 
   69000    295.80991     5448.391    23887.872    24.558941  0.016898089 -0.0018354514 0.0047632046 
   70000    303.05301    7098.6674    23887.872    24.510996 0.0067083918 -0.0025633935  0.017383937 
   71000    298.79569     7592.058    23887.872    24.896936  0.016258581 -0.0035490624 0.0012883079 
   72000    302.89531    5795.5602    23887.872    25.224538  0.014021206  0.013467162 -0.014728695 
   73000    300.32335    7853.4791    23887.872    25.084756 -0.018154184 0.0094991054   0.01506376 
   74000    296.66081    4814.5812    23887.872    25.200377 0.0031393504  0.006902663 0.0025216054 
   75000    304.35607    5156.2902    23887.872    25.874003 -0.0065432594 -0.013835401 -0.0023272009 
   76000     296.7199     5655.413    23887.872    27.400898 0.0037056233  0.011331458 0.0091344915 
   77000    297.92047    9771.1229    23887.872     28.38927 -0.0073811367 0.00062556658 0.0053069247 
   78000    300.79052     4118.413    23887.872    29.398057 -0.0042035366 -0.0031692548 0.00067777476 
   79000    294.06098    8225.8982    23887.872    30.125201 -0.0075820112 0.00099776365 0.0063080113 
   80000    296.56056    6178.9161    23887.872    30.852313 -0.0011302266 -0.0026724405 -0.00025110323 
   81000    304.33466    5095.4594    23887.872    30.938833 -0.020100591 -0.00089298144   0.01211079 
   82000    305.54617    6241.1246    23887.872    29.822887 0.0032199963 -0.0037271044 -0.013910842 
   83000    297.36289     6027.212    23887.872    28.207771 0.0098207163 -0.0083157318 0.0072603502 
   84000    305.12102    6977.0771    23887.872    27.051107 -0.00017561991 -0.010126986 -0.0051878006 
   85000    304.21548    4362.0326    23887.872    26.355665 -0.0088216685 -0.0056326879  0.014547809 
   86000     301.4347    6989.2905    23887.872    26.443156 -0.0095282883 -0.0042519138 -0.0099238199 
   87000    300.86314    7539.5827    23887.872    26.899768 0.0018626258 -0.025197924 -0.0081919731 
   88000    299.69293    7510.5154    23887.872    27.527979  0.010907897 -0.021194923 -0.0079384791 
   89000    305.29478    4744.2519    23887.872    28.581317 0.0009390146 0.0041400796 -0.010542194 
   90000    305.90026    8413.5954    23887.872    29.561413  0.001985607 0.0026571621 -0.0058481354 
   91000    299.41321    7510.4879    23887.872    29.601966 -0.014062754 -0.012891563 0.00090925974 
   92000    298.56181     4493.496    23887.872    28.751244 0.00022347778  0.011303866 0.0036923559 
   93000    297.44681    5913.9959    23887.872    27.738143 -0.0028379933 0.0046676158  0.016207604 
   94000    301.34618    8759.2127    23887.872    26.545126 0.0022979115   0.02710971 0.0052154626 
   95000    294.66538    6254.5616    23887.872    25.835277 0.0026225917  0.011386912 -0.004731621 
   96000    300.72759    5708.9202    23887.872    26.293962 -0.0016989314 -0.0056229297 -0.0043028629 
   97000    296.33788     5949.151    23887.872    26.875943 -0.0046868761 -0.008760681 0.0075631538 
   98000    298.52431    7312.8692    23887.872    27.672318 0.0051037229 0.0088346637 -0.0020659366 
   99000     299.1158    5866.9053    23887.872     28.75345 0.00041861314 0.0035006536 7.4853641e-05 
  100000    299.60035    6853.7499    23887.872     29.11198 0.0010295076 0.0070554638 -0.0071799377 
  101000      305.011    5285.6983    23887.872    28.803484 -2.6165295e-05 0.0025233407 0.0061524545 
  102000    308.33497    5554.6622    23887.872    27.835229 -0.0072574461 -0.00049249487   0.01758275 
  103000    300.91538    7874.3857    23887.872    26.525711 -0.018226538 0.0097522477 -0.00019722379 
  104000    296.31545    7475.5589    23887.872    25.963806  0.001244938 -0.0016545452 -0.014109448 
  105000    304.71283    5269.1691    23887.872    26.575554 -0.0070242342 0.0066902645 0.0029640555 
  106000     298.8185    6634.3034    23887.872    27.913462 0.0098678156 -0.011994749 -0.012105275 
  107000    301.45137    6699.4716    23887.872    28.517964   0.01360301 0.00024699459 -0.016897964 
  108000    296.57331    6313.3113    23887.872    28.593146 0.0077295412 -0.0048135002 0.0047249278 
  109000    299.55922    4007.0223    23887.872    27.927982  0.016379636 -0.0099051134 -0.012736617 
  110000    301.38657    7600.9796    23887.872     26.39891 0.0077787548 -0.0014298757 -0.012801589 
  111000    297.66822    6822.7242    23887.872    25.826367 0.0024199679 -0.011197974 -0.015838001 
  112000    300.18185     3870.474    23887.872    26.305636  0.015850292 -0.012037424 -0.0071434023 
  113000     302.5672     7772.561    23887.872       26.971  0.015711014 -0.009300185 -0.0041351442 
  114000    303.94453    4887.7067    23887.872    27.368817 -0.010407279 -0.00066473758 0.0046440751 
  115000    295.29739    4024.9778    23887.872    27.544473  0.009569766 0.0069550876 0.00075915224 
  116000    296.24954    6298.3445    23887.872     28.30009 0.0041407147 0.0005342974 -0.0088591512 
  117000    302.83821    7518.3421    23887.872     28.81668 -0.0077688937 0.0051508875 -0.0024146234 
  118000    305.19581    8454.2884    23887.872    29.773986 -0.00096930318  0.016286344 0.0070684167 
  119000    301.11156    3214.2382    23887.872    30.426222 0.0025214217 -0.00045988353  0.021237661 
  120000    300.89553    5201.8552    23887.872    30.646816 -0.0034745572 -0.004994743  0.013572002 
  121000    301.70707    9913.6796    23887.872    30.221926 0.0011629611 -0.006228092 0.0088251813 
  122000    300.74826    5635.4252    23887.872    29.393264 0.0083910329  0.020438491 0.0079130321 
  123000    310.04522    1808.1343    23887.872    28.080827 -0.012242309 -0.0030038831 0.0015527192 
  124000    296.90968    6665.3375    23887.872    27.354476 -0.015072454  0.010054655  0.004635595 
  125000    305.80056    9117.5763    23887.872    27.148316 0.00010395212 -0.0095941358 -0.005314277 
  126000    305.54853    3794.8677    23887.872    27.570732 -0.0064179247 0.00037822257  0.014404518 
  127000    295.45636    6779.4139    23887.872     28.21444 0.0059994931 -0.0049201113 -7.4101235e-05 
  128000    296.97403    8207.8568    23887.872    28.049628 0.0079089184 -0.0014399501  0.019323807 
  129000    304.56898    6017.8457    23887.872    26.813493 0.0060194479  0.010039488  0.004528245 
  130000     294.6912    4189.0123    23887.872    25.337514 -0.0098826182 -0.0031350598  0.010898444 
  131000    298.95366    6344.7354    23887.872     24.61338 -0.0045853018 -0.0062235101 0.00014641381 
  132000     298.2063    6440.7187    23887.872    25.594916  0.012338501 0.0077489065 0.00024531137 
  133000    302.02695    6610.5209    23887.872     27.45314 0.0096390812  0.014724175 -0.0095790156 
  134000    296.95945     4924.188    23887.872    28.726597 0.0084756718  0.012070643 -0.0089074062 
  135000    303.20135    9423.6932    23887.872    29.227954 -0.011467505 -0.0025605511 -0.011380586 
  136000     305.3662    4478.2092    23887.872    28.326581 0.0010039232 -0.010074047 -0.010219988 
  137000    301.30368    4418.4537    23887.872    27.122509 -0.0052738953 -0.016177598 -0.016176239 
  138000    305.56506    7337.1799    23887.872    26.064516 0.0041745763 0.0039772419 0.0037096387 
  139000    308.67499    8172.7786    23887.872    25.210321 0.0037238482 -0.0064461994 0.0018204725 
  140000    301.32473    4213.3267    23887.872     25.19941 -0.0010477024 -0.013998018  0.014495178 
  141000    299.36981    4581.3102    23887.872    26.476693 -0.0014819974 -0.0051245692 0.0024414492 
  142000    308.34434    8843.0229    23887.872    28.218066 -0.00075888107 -0.0023926313 0.00073336427 
  143000    298.52145     6571.528    23887.872    28.346992 -0.013484681  0.013109033 0.0016345033 
  144000    294.95678    4948.9831    23887.872    27.037821 -0.0028351921 0.0068471404 -0.0082607968 
  145000    300.94397    4043.5514    23887.872    26.011115 -0.0051394994 -0.003010088 0.0053750864 
  146000    300.76783    4402.5802    23887.872    25.846628 0.0013983288 -0.0013428007 -0.015338337 
  147000    293.84511    8295.7929    23887.872    26.382399 -0.0038465752  0.004470586 0.0094108102 
  148000     297.5863    5851.0594    23887.872    27.032286 -0.00064237334 -0.017077534 -0.012969407 
  149000    295.44827    6251.7022    23887.872    27.524867  0.018108499 0.0016776618 0.0065768135 
  150000    304.60415    6170.2016    23887.872    26.895883  0.016983855 0.0023360779  0.011705338 
  151000    302.80571    5869.9453    23887.872    26.264507 -0.0015667287 0.0038516688  0.011790531 
  152000    302.93244     4936.246    23887.872    25.777063  0.005246051 -0.0087469196 0.0026702647 
  153000    297.92249    7267.5964    23887.872      25.6042 -0.0050294354 0.00050372288  0.012496756 
  154000    294.84505    7803.2121    23887.872    25.507312 -0.0026037301 -0.0010801683 -0.0007461057 
  155000    294.15692    4186.7008    23887.872    25.746014 0.0056731664    0.0088576 -0.0082721699 
  156000    301.86977    8731.8883    23887.872    26.170775   0.00730018  0.010800447 0.0014552528 
  157000    303.86548    6425.7885    23887.872    27.140089 0.00092469128  0.011488828 0.0089556287 
  158000    293.44582    4121.9463    23887.872    27.673555 -0.00080670608 -0.00035039437 -0.00024601981 
  159000    301.08701    7014.0701    23887.872    27.481917 -0.0012459023 0.00068062364 -0.0060945073 
  160000    308.92753    10128.027    23887.872    27.731337 -0.0064685354 -0.0072908681 0.0067675035 
  161000    297.96211     4793.442    23887.872    27.898939 0.0043713373 -0.0034388942 -0.0010869766 
  162000    297.32256    3959.1888    23887.872    27.761785 -0.0074618619 -0.0081208703  0.023142519 
  163000    310.98059    4993.5488    23887.872    27.222041 -0.0083374183 -0.010672172 -0.0068898014 
  164000    304.32913    6326.8805    23887.872    26.042407  0.001455096 -0.019251919 -0.0025656162 
  165000    302.01139    7125.3461    23887.872    26.221063 -0.00069029891 -0.0056146258  -0.01368635 
  166000    296.06863    7360.0485    23887.872    27.057628 0.0058490522 -0.0072574473 0.0078396601 
  167000    296.90485    5287.6239    23887.872    28.556505 -0.0062131187 -0.0099773924 -0.0070312929 
  168000    297.25123    6133.4881    23887.872    29.680653 0.0096111512 0.00079679417 0.0096556588 
  169000     300.8951    5489.9336    23887.872     30.49675 -0.010779732 -0.0019166675 -0.010328298 
  170000    294.70885    5845.8431    23887.872     30.63887 0.0085166171  0.012009828 -0.00038925818 
  171000    296.07125     6906.602    23887.872    30.930952 0.0025549144  0.011685081  0.017225267 
  172000    304.61607    8086.5434    23887.872    31.219128 -0.0078465118 0.0048467117 -0.00062529927 
  173000    301.96996    5143.8538    23887.872    30.803027 0.0025749536  0.001798535  0.003486686 
  174000    303.75794    8610.7083    23887.872    30.295701 0.0097760998 -0.019271026 0.0020041521 
  175000     300.5377    6423.9914    23887.872     29.96473 0.0016159091 -0.0015790502 0.0063560385 
  176000     306.3395    3953.7534    23887.872    29.702161 -0.0019883004 -0.0052825624 -0.0079015241 
  177000    299.97023    8062.6714    23887.872    29.399532 -0.0071580966 0.0048502063 -0.0066122633 
  178000    297.95835    8307.9781    23887.872     28.71649 -0.0035683029 0.0010413986 -0.0028316203 
  179000    304.15535    5125.6919    23887.872    28.039853 -0.0016015831 -0.0090937028 0.0042875874 
  180000    301.83194     5703.268    23887.872    27.242349 -0.0063956143 0.0041376924 -0.00090065634 
  181000    298.09139    7742.4248    23887.872    26.628944 0.0032530575 0.0068685581 0.0070036543 
  182000    303.65289    6696.5057    23887.872    26.645931 -0.0044485177 0.00093329071 0.0039340537 
  183000    307.22105    6203.0015    23887.872    26.728882 0.0048789516 -0.00061118859 -0.00020398871 
  184000    299.01541    6685.9479    23887.872    26.630439 0.0068105629 0.0014275053 6.2282779e-05 
  185000    299.25368    6141.8254    23887.872    26.657838 -0.0082541882 0.00029336739  0.004240981 
  186000    301.52407    5434.1952    23887.872     27.23844 0.0040887437  0.010279656 -0.0068007573 
  187000     304.1744    4544.9495    23887.872    28.289746  0.010814059 0.0033025318 -0.0069399766 
  188000    305.46467    7720.2935    23887.872    29.463936   -0.0119225 0.0060054123 -0.0017746118 
  189000    296.96064    6288.7711    23887.872    30.324604 0.0005785585 0.0040644637 -0.0047512313 
  190000    296.70122    4451.4061    23887.872    30.275664 -0.00050884886 0.0039663702 -0.0081876544 
  191000    302.41546    6992.3525    23887.872    29.914762 -0.0081635765 -0.008808636 -0.0024412474 
  192000    300.42744    6018.6454    23887.872    29.199566 -0.011452585 0.00025334873 -0.013284248 
  193000    294.21407    8300.5007    23887.872    28.620146 0.0025999864 0.0043052122 0.0026605757 
  194000    297.39141    5575.7236    23887.872    28.515479  0.010072353  0.006858587 0.0028407494 
  195000    296.73601    4236.8234    23887.872    28.713386 -0.0058652414 0.0029233086 -0.0014938312 
  196000    300.15938    7328.9628    23887.872    28.266351 0.0024576448 0.0034023282 -0.0011191639 
  197000    302.53083     8540.497    23887.872     27.50407  0.011266269 -0.00033514953 -0.0045083517 
  198000    298.85898    7081.5418    23887.872    26.015923 0.00069398207 0.0080665049 -0.011962625 
  199000    299.73304    2973.5605    23887.872    25.304415  0.013484478 -0.0084553393 -0.0018819296 
  200000    297.33672    6193.5086    23887.872     25.57029 0.0022597327  0.004274968  0.010702986 
  201000    302.58841    8786.5693    23887.872    25.923443 -0.00015402492 -0.022587087  0.016451073 
  202000    291.61122    4981.9473    23887.872    26.092042 -0.010508401  0.015360496 -0.0064915332 
  203000    293.57633    3012.7984    23887.872    26.464283  0.009496207 0.0067621302 -0.0056138515 
  204000    304.43092    7608.3002    23887.872     26.97928 0.0095933883   0.01245184 -0.0049042268 
  205000    303.49709    7041.5444    23887.872     27.61935 0.0049441112 -0.012539005 -0.0081475319 
  206000    302.09729    6501.3205    23887.872    27.960368  0.010353974 -0.0084101692 -0.011138615 
  207000    300.04795    5237.6597    23887.872    28.080391 -0.014994318 -0.0053767171 0.0019077073 
  208000    298.06756    6891.2908    23887.872    28.633926 -0.00088551913 0.0065452657 -0.0045595788 
  209000    300.83188    7326.5596    23887.872    29.396002 0.0026659364 -4.9040272e-05 -0.00024188706 
  210000     299.5167    4299.2564    23887.872    29.362524 0.0093371767 0.0086087269 0.0044135832 
  211000    300.02442    4872.4469    23887.872    28.805274 0.0095677683 0.00013748858 0.0072129489 
  212000    303.61547    7024.7726    23887.872    28.198216  0.015974556 0.00077672687 0.0044786346 
  213000    297.20134    10242.093    23887.872    27.413153 0.0024234845 -0.0041591619 -0.0016942627 
  214000    301.13842    6040.3006    23887.872    27.214918 -0.0056200923 -0.0068006358  0.005277602 
  215000    294.70245    3594.6727    23887.872    27.674607 -0.0068228797 -0.014384291 0.0014191096 
  216000    303.50253    6718.5073    23887.872    28.265726 -0.007395476 -0.0034995854  0.015959896 
  217000    299.67114    7704.5841    23887.872    28.739105  0.015926794 -0.0089610483 -0.00029748916 
  218000    299.31904    3040.4517    23887.872    28.365367 -0.016224173 0.0070106153  0.015532995 
  219000    306.42532    5521.9675    23887.872    27.525861  0.002582547 -0.018217555 0.0024132927 
  220000    303.26329    7407.9918    23887.872    27.600707 0.0098616575 -0.0071632431 -0.0017143016 
  221000    300.97028    5447.4463    23887.872    28.400218 0.00033421662 -0.011719128 0.0057287625 
  222000    306.74701    5897.6351    23887.872    29.392561 0.0034001779 -0.010203244 0.0087143207 
  223000     300.3574     6656.335    23887.872     30.49415 -0.0061640623 0.0049900555 -0.006301099 
  224000     301.3437    4256.8439    23887.872    31.435684 0.0050733783 0.0088934251 0.0048604515 
  225000    295.77064    6850.5964    23887.872    31.113804 -0.017565533 -0.00032131266 0.0025606379 
  226000    298.26248    5672.4141    23887.872    29.764178 -0.0037928346 0.0042665989  -0.01688968 
  227000    305.40179    5802.5127    23887.872    28.363929 -0.00087744638 0.00063477493 -0.0077776558 
  228000    304.01093     2249.486    23887.872    27.493185 0.00074815292 0.0074591011 -0.0022461267 
  229000    302.04139    5511.3275    23887.872     27.46035 -0.0083384784 -0.0010367566 0.0022285122 
  230000    297.13164    9539.8651    23887.872    27.548306 -0.010185717 0.00094185647  0.010587529 
  231000    306.80648    2519.5162    23887.872    27.517445 -0.026593725 -0.011444591 -0.0011339058 
  232000    296.75967     4414.081    23887.872    27.934851 -0.0071308449 -0.0015348083 -0.015315051 
  233000     299.9689    9379.5972    23887.872    28.914827 -0.010890849 0.0091031321 0.0038614192 
  234000    301.06591    6496.4949    23887.872    30.014291 0.0084171294 -0.0026376802 0.0029489125 
  235000    297.73092    4960.0637    23887.872    30.116638  0.014880739  0.009169275 -0.0017469012 
  236000    305.08533    7757.5319    23887.872     30.10272 0.0038830228  0.015765793 0.0082041085 
  237000    299.66668    5035.5875    23887.872    29.682586 -0.004617705 -0.0082323784 -0.0037811789 
  238000    298.97168    6247.1851    23887.872    28.958846  0.006071547 0.0052790156 0.0052878159 
  239000    296.05823    4617.2886    23887.872       28.111 -0.0023835712 -0.0049144173 -0.015238618 
  240000    300.96932    6578.4331    23887.872    28.024852 -0.014069299 -0.0021354007 0.00081730387 
  241000     303.5716    5616.3639    23887.872     27.75315 -0.0093003057 0.0025813748 -0.0031737174 
  242000    297.11788     9326.458    23887.872    27.721983 -0.0012068297 0.0070826052 -0.0097697012 
  243000    298.78962    7175.5953    23887.872    28.015452 -0.0058614367 -0.0014435617 0.00032126129 
  244000    312.22969    3176.6857    23887.872    29.004925 -0.0070409718 -0.011026455 -0.0075413943 
  245000    301.82816    5825.4927    23887.872    29.469254 -0.002180319  0.011273423 0.0019741471 
  246000    298.14336    7965.1438    23887.872     28.71255 -0.0043548051 -0.013642725 0.0027981548 
  247000    293.40416    4672.5943    23887.872    27.032358 -0.010810624 0.0027205706 0.00037562578 
  248000    298.35212    5169.3984    23887.872    25.878159 -0.0061407853 -0.0078475031  0.011625804 
  249000    298.46153    7206.2704    23887.872    24.804214   0.01547787 -0.0053340212 0.0055624024 
  250000    304.04407    4304.5224    23887.872    24.612058 -0.0035866055 0.0042205888 0.0040795212 
  251000    299.05216    4149.1464    23887.872    24.638715 -0.0038063051 -0.0091151759 -0.0021397477 
  252000    301.73111    5259.9423    23887.872    24.544654  0.011644408 -0.011978295 -0.0020289536 
  253000    306.32253    5403.8517    23887.872    24.824153 0.0093885752 -0.017073342 0.0055804952 
  254000    296.28954    6388.0977    23887.872    25.564075 0.0056687788 -0.0028896416 -0.0052036406 
  255000    302.39069    6603.6905    23887.872    26.663333 -0.013442524  0.010860015 -0.005823703 
  256000    299.86716     5041.201    23887.872    27.828672 -0.0043535774 0.0036962794  0.013575044 
  257000    306.69925    4549.3541    23887.872    28.764368 -0.016554037 0.0068169814 -0.0011277755 
  258000    305.18745     7406.406    23887.872    29.521261 -0.0055546624 -0.0031615904 -0.010250107 
  259000    304.03815    7920.2328    23887.872    29.301606 -0.0092305023  -0.01302303 8.731487e-05 
  260000    298.81021    2442.3185    23887.872    28.121967 0.0028369836 -0.0031672986 -0.0027386068 
  261000    299.28497    4139.7551    23887.872    26.481171 -0.0076528864 -0.0022038168 -0.0039085171 
  262000    300.72365    9231.7269    23887.872     25.47555 -0.0080330856 -0.0043347245 0.0010264264 
  263000    300.07281     7625.946    23887.872    25.092844 -0.0055613368 0.0092891208 -0.0056606961 
  264000    299.16799    2639.1615    23887.872    25.366419 0.0039785314 -0.0014412054 -0.0062168369 
  265000    298.19851    6012.5607    23887.872    25.793603 0.0064343984 0.0038244027 -0.0087291558 
  266000    296.83362    6710.0223    23887.872    26.309243 0.00037474335 0.0043506572  0.013118077 
  267000    300.52413    4949.4642    23887.872    26.419825 -0.0052117076 0.0030202673 -0.0043662758 
  268000    299.84373     6151.855    23887.872    26.359407 -0.0094841682  0.009791742 0.0024940984 
  269000     297.0701    6327.6082    23887.872    25.920932 -0.0092304647  0.013862177 -0.0062287327 
  270000    303.02426    2766.6393    23887.872    26.036031 0.0015888649  0.020491975  0.013703996 
  271000    295.82527    7533.8051    23887.872    26.962685  0.014788116  0.015350509 -0.00025683404 
  272000    300.85125    5744.6621    23887.872     28.04058 0.0091859176 -0.0023071277 -0.0076503767 
  273000    303.73887    5258.2906    23887.872    28.745851 0.00057914009 0.0021719339 -0.00074743541 
  274000     297.7817    5764.1237    23887.872    28.750859   0.01198844 -0.0048913059 0.0034524191 
  275000    301.40425    5632.8428    23887.872    28.234304 0.0003946564 -0.0055837412 0.0069729527 
  276000    301.26997    6221.0584    23887.872    28.424226 -0.0024349706 -0.0068675349 -0.012538238 
  277000    288.19949    8062.6921    23887.872    28.455754 0.0098155106  0.010161045 -0.010774742 
  278000    295.62053    5594.2249    23887.872    27.830992 -0.011426888 0.0013574536 -0.0021796069 
  279000    300.74497    5553.7626    23887.872     26.97669 -0.0031962411  0.019528266 0.0034009155 
  280000    293.88453    8123.6435    23887.872    25.885227 0.0094484625  0.011212894 -0.0082063069 
  281000    303.89378    3360.6603    23887.872    25.333745   0.01145902 0.0027923053 0.0045746691 
  282000    299.96796     4324.667    23887.872    25.791669 0.0084128024 -0.00030042938 -0.0095621982 
  283000    302.99402    7446.6234    23887.872      26.6617 7.9793478e-05 0.0058648722 0.0036850582 
  284000    299.20106    8011.6948    23887.872    27.766673 -0.0032068208  0.010277153 0.0031221607 
  285000    295.14512    4774.5147    23887.872    28.407332 0.00038553878 0.0079532058 0.0051688363 
  286000    298.71998    4982.9317    23887.872    28.975941 -0.00092082167 -0.011551142 -0.0017536518 
  287000    296.17775    9288.7563    23887.872    29.156447 0.0028260118 -0.0022781907  0.001269658 
  288000    304.08936    7987.8502    23887.872    28.896975 -0.0072348781 0.0057998822 -0.015517773 
  289000    299.17348    4104.6827    23887.872    28.113656 -0.013257488 -0.010223352 0.0066660748 
  290000    298.80322    3939.7315    23887.872    27.144997 0.00025139538 -0.0087037944 -0.013733073 
  291000    296.31107    6842.1501    23887.872    26.258098 0.00083845267 -0.0012408958 0.0010388204 
  292000    298.34936    8183.1648    23887.872    25.414977 0.0044760695 0.0061012599 -0.015665902 
  293000    301.06064    4943.8077    23887.872    24.997521 0.00093105492 -0.0044679844 0.0017649518 
  294000    294.93295    4641.3958    23887.872    25.192922 0.0036987895 -0.00019059861 0.0034334217 
  295000    300.94646     7980.167    23887.872    25.376287 0.0021731181 -0.009909702  0.001874979 
  296000    303.27394     9211.377    23887.872    26.115049 -0.013843105  0.012388585 -0.0043236464 
  297000    306.11014    4556.5121    23887.872    27.042258 -0.0066723789 0.0043495791  0.012059675 
  298000    299.60815    4640.3865    23887.872    27.653936 -0.0042953868 0.0046083706  0.010664367 
  299000    298.83923    7499.2642    23887.872    28.380048 -0.0092836307  0.001432286 -0.012486921 
  300000    296.06049     6698.694    23887.872    29.196289 3.857502e-05 0.0019348376  0.015396672 
  301000    294.39609    6488.5019    23887.872    29.363504 -0.006302104 -0.0008440432 0.0036402157 
  302000    298.68283     6491.779    23887.872    28.617909 -0.0044743094  0.010602338 0.0062096526 
  303000    308.09338    6398.8989    23887.872    27.422336 -0.0047987933 -0.0014741731  0.013173514 
  304000    306.17466     4721.907    23887.872    26.343667 -0.0065537056 -0.0010954702 0.0027266507 
  305000     293.1104    4791.6825    23887.872    26.148236 -0.018940538  0.017522817 -0.0010019923 
  306000    302.70283     5483.417    23887.872    26.623335 0.0074145491  0.006086553  0.013999541 
  307000    296.98124    6532.6523    23887.872    27.336896 -0.0063561598 -0.0027222313 0.0061922729 
  308000    298.34037    3930.1019    23887.872    28.083805  0.001915552 0.0028494508  0.011249911 
  309000    300.02445    5001.1022    23887.872    28.674966 0.0038419381 -4.006552e-05  0.011810549 
  310000    291.50656    6634.2372    23887.872    29.340246  0.010954874 0.0098603608 -0.003007004 
  311000    301.23348    5838.7866    23887.872    29.615076 -0.0053843564 -0.0038684352 -0.00075365366 
  312000    294.36169    4887.7556    23887.872    29.301867 0.0085448729  0.002732812 -0.015466764 
  313000    303.62834    7969.0646    23887.872    28.679185 -0.013256651  0.009932467 0.0048409961 
  314000     303.7808    5455.0749    23887.872    28.155541 -0.001133922 -0.021358798   0.01072299 
  315000     302.0031    5245.0217    23887.872    27.714319 0.0011935834 -0.010292034 -0.0042652383 
  316000    303.44552    5411.7161    23887.872    26.975011 -0.014010859 -0.0074837112 0.0052688307 
  317000    307.01279    6702.1281    23887.872    26.325304 -0.010480066 -0.0025220971 -0.0073649416 
  318000    294.46124    3886.6318    23887.872    26.021776 -0.0061315284 0.00064381899 0.0035627781 
  319000    294.54747     6381.097    23887.872    26.232964 -0.0089030703 0.0085173112 -0.00029763435 
  320000    299.83615    4845.0522    23887.872    27.315097 0.0023606096 0.0027161454 0.00080828573 
  321000    295.89557    6056.8778    23887.872     27.45704 -0.003895643 -0.0051506104 0.0077274553 
  322000    302.82749    6347.8345    23887.872    27.706304 0.0063955986  0.014660923 0.0012816474 
  323000    297.70109    8576.4232    23887.872    27.551543 0.0068977607 -0.00026416344 0.0049666456 
  324000    303.34137    6549.0018    23887.872    27.758741 0.0071863885 -0.016759143 0.0035395967 
  325000    299.80537    4249.4121    23887.872    27.794924 0.0010544711 -0.0084440648  0.001800473 
  326000    299.04719    5510.3586    23887.872    26.897818 -0.0062973478  0.003258714 -0.0071971065 
  327000    301.79228    5129.6636    23887.872    25.775008 0.0025070935 -0.0017113788 -0.011200939 
  328000    296.07332      5198.82    23887.872    25.229214 -0.0025365546 0.0028118466 -0.0036492202 
  329000    298.83413    6640.5287    23887.872    25.094768 -0.012618927 -0.013299561  0.012685446 
  330000    298.41291    4693.5229    23887.872     25.27017  -0.01023253 0.0017635357 -0.0071966234 
  331000    309.95804    5525.6868    23887.872    26.438581  0.005605865 -0.0053130428 -0.0041498646 
  332000    297.44423    7675.7432    23887.872    27.779143  -0.01128249 -0.0018299288 -0.014238405 
  333000    302.50539    2027.8254    23887.872    28.693565 -0.0016027296 -0.005692824 0.0046368857 
  334000    303.59638    4977.4328    23887.872     28.82845 0.0078881674 -0.016553623 -0.0049215936 
  335000    298.58484    5732.1657    23887.872    28.357002 -0.0022083647 -0.011355572 0.0048227432 
  336000    296.00196    7977.8203    23887.872    28.027738 0.00066831706 -0.010943799  0.006872722 
  337000    300.59439    6015.2118    23887.872    27.957762 -0.017614344  0.006355007 -0.0042269821 
  338000    299.99962    6035.2745    23887.872    28.314964 -0.0093546602 0.0016573335 -0.0024083722 
  339000    304.63443    4736.9824    23887.872    28.358823 -0.0037147726 0.0025791299  0.010506792 
  340000    302.84974    4471.1158    23887.872    28.202866 0.00019979096 -0.0028917664 -0.0089153028 
  341000    296.57553    8798.2847    23887.872    27.657261  0.015530249 0.0064845653 -0.0021547775 
  342000    294.70857    7593.1012    23887.872    27.607469  0.017152178 0.0073180934  -0.01297992 
  343000    303.51709    2836.8319    23887.872    27.718761 -0.00069034814 0.00092381407 -0.00069643973 
  344000    302.51499    5735.6072    23887.872    27.879591  0.016457513 -0.0035307997 0.0026258807 
  345000    295.80558    5855.3051    23887.872     28.05645 0.0052413589 0.0051194497 -0.0086508961 
  346000    295.47907    4357.9917    23887.872    28.158772 -0.0056050859 0.0050949338 0.0043052276 
  347000    298.37235    5748.2548    23887.872    28.050795 -0.0074110633 -0.0092914918  0.012849481 
  348000    300.38695    6892.2111    23887.872    27.851223 -0.0013293525 -0.0041215773 -0.0031538595 
  349000     304.0522    5815.1202    23887.872    27.478638 -0.0024608006  0.003195296  0.011039783 
  350000    297.58594    4373.2068    23887.872    27.122669 -0.0085350129  0.013299195 0.0037145734 
  351000    304.65103     6819.804    23887.872    27.119257 -0.0070234782 0.0053903588 -0.0034000046 
  352000    299.71975    4707.9029    23887.872    26.145938 0.0053810799 -0.0018618573 0.0092707944 
  353000    296.44061    6490.6318    23887.872    25.651671   0.01140354  0.006549218 -0.0054774314 
  354000    304.68224    7088.9232    23887.872    25.723656 0.0021748163 0.0082434554 0.0041532176 
  355000    299.58276    3461.3017    23887.872    26.120121 1.2616818e-06 -0.0034330633 -0.0021551678 
  356000    301.28224    6868.3018    23887.872    26.693126 -0.0029645295 0.0063626637 0.0077798985 
  357000    298.53528    3267.9267    23887.872    27.705248 -0.0024424096 -0.012408203 -0.015426323 
  358000    306.82392    8329.6183    23887.872    28.693829 -0.011740257 -0.010014515 -0.0018733964 
  359000    295.36492     5230.128    23887.872    27.859108  0.004445368 -0.0051807443 -0.0085880009 
  360000    297.32976    2734.6909    23887.872    26.270355 0.0037335411  0.013599212 0.0010690136 
  361000    300.12686    5821.0226    23887.872    25.785258 0.0096186996 0.0054197996 0.0049062228 
  362000    297.16901    6851.5635    23887.872    25.430033 -0.011815662 -0.0080238396 0.0085992757 
  363000    300.85376    6314.3064    23887.872    25.458293 0.0021806813  0.012729172 0.0063288714 
  364000    298.11626    3870.2029    23887.872    25.538364 -0.0024827341 0.0082245142  0.001834431 
  365000    291.83026    7121.7769    23887.872    25.800241 0.00049007075 0.0091118643 0.0034871431 
  366000     300.6045    3609.6374    23887.872    26.007772 0.0070983701  0.015282709 -0.0081931662 
  367000    298.55081    5062.7961    23887.872    26.513909 -0.0023106418  0.014768202 0.0049247152 
  368000     303.7518    8166.8088    23887.872    26.921285  0.009674643 -0.00078158575 0.00052396063 
  369000    294.24007    7583.7911    23887.872    26.902253 -0.014878103  0.006863935  0.012176313 
  370000     305.4506    3714.3166    23887.872    26.725185 -0.0036293023 -0.0045126964 -0.003025637 
  371000    296.77105    6034.1925    23887.872    26.685483  0.003971003 0.0004838229 -0.004489437 
  372000    299.92855    7903.7287    23887.872    27.297169 -0.0095196829 -0.014387394 -0.0015045135 
  373000     301.6543    2932.8886    23887.872      27.9258 -0.0061753504 0.0042966985  0.010492506 
  374000    300.12211    4484.9767    23887.872    27.522862 -0.00020417193 0.0034480258 0.0014136051 
  375000    300.26875    5878.1638    23887.872    27.316816  0.013233673 -0.012287815 -0.0061617551 
  376000    293.66617    9422.0578    23887.872     27.67049  0.010316406 0.0057261291 -0.0032314783 
  377000    297.50842    4345.6605    23887.872    28.032903 -0.0080657865 -0.0014921755  0.010830554 
  378000    298.49791    4742.7638    23887.872     27.99178 0.0016631086 0.0050748464 -0.013636948 
  379000    304.26645    4958.3465    23887.872    28.194002 0.0020021552  0.016942832 -0.00019018346 
  380000    302.00544    5976.5745    23887.872    28.927348 0.0060724218 -0.00061907386 -0.0028364153 
  381000    303.07087    4387.9873    23887.872    29.142466 0.00015640761 -0.00060249227 -0.023472579 
  382000    302.28656    6878.0984    23887.872    28.860635 0.0056918704 0.0074975665  0.013716239 
  383000      299.745    6559.1768    23887.872    28.731087   0.01075693  0.011082323  -0.00369792 
  384000     305.3102     5368.492    23887.872    29.563446 0.0013582513  -0.01448246 0.0020148222 
  385000     306.1754    5888.0087    23887.872     30.45138  0.010066209 -0.0054450505 0.0040473398 
  386000    298.57053    5492.5925    23887.872    30.827331 -0.012540907 -0.0043790131 -0.0071001325 
  387000    302.71497    6771.6419    23887.872    30.489418 0.0026425158 0.0055918676 -0.032446994 
  388000    296.68563    8990.7833    23887.872    30.166646 -0.0090041107 -0.013516237 0.00085311194 
  389000    301.60431     1606.428    23887.872    30.208577 -0.0024807069  0.010099746 -0.0015597908 
  390000    304.36662    4144.8604    23887.872    30.398447  0.004405317 -0.0055233893 -0.0065742677 
  391000    302.47504    8449.9631    23887.872    30.353649 0.0083613303  0.002734255 -0.0031365565 
  392000     305.4611    8857.7095    23887.872    30.261049 0.00092039872 -0.0061946633 0.0018834249 
  393000    301.33007     383.7871    23887.872    30.030346 0.0082912167  0.013834836 -0.011130333 
  394000    302.76505    4017.8936    23887.872    30.111448 -0.0048778095 0.00036647336 -0.018584317 
  395000    302.63024    9714.1246    23887.872    29.901144 -0.0017356736 -0.00010729014 -0.0081105256 
  396000    294.78802    6595.5733    23887.872    29.026036 -0.0040586562 0.0046319627 -0.0038044473 
  397000     293.8831    2976.4679    23887.872    28.032561 -0.011066884 -0.0099138461 -0.001874406 
  398000    300.97416    4448.5023    23887.872    27.364824 0.00057661189 -0.012251435 -0.013953409 
  399000    300.13083    8890.8936    23887.872    27.365344 -0.012452224 0.0013150384 0.0018000529 
  400000      296.521    3479.3437    23887.872    26.831691 0.0013655544 -0.018311648 -0.0064297711 
  401000    306.45638    5613.1265    23887.872    26.732096  0.006627519 -0.0056666668 0.0028371201 
  402000    301.97859    7620.8425    23887.872    26.582015 -0.0068829249 0.0058999793 -0.0068986493 
  403000    297.43185    5558.8063    23887.872    26.467302 0.0025711831 -0.0061862337 -0.0086841323 
  404000    301.51852    4033.6334    23887.872    25.207955  0.002182806 0.0037180872 -0.0030363947 
  405000    300.98086    8160.7177    23887.872    24.190382 0.0041106658 -0.00077551225 0.0059905617 
  406000    300.43568    8094.7476    23887.872     23.83852 -0.0029616548 0.0055146137 -0.00013728858 
  407000    293.98348    3916.2277    23887.872    23.437528 0.0091616574 -0.0074681531 0.0065547214 
  408000    302.32802    3855.0761    23887.872    23.832666 0.0061095214  0.010371264  0.017474682 
  409000    294.78606    6297.5188    23887.872    25.515345 0.0055365563 -0.0046625042 0.0039060498 
  410000     292.5582    6307.8294    23887.872    27.011778 -0.0015695069 -0.0012912869 0.0046815124 
  411000    300.16252    4887.7133    23887.872    27.885862 -0.003708807 0.00062000741  0.003505655 
  412000    302.98096    6953.2047    23887.872    27.695143  0.012305246 0.0065630263  0.015016737 
  413000    298.59809    8100.8432    23887.872    27.060253 -0.007686231 -0.00073233228 -0.011967831 
  414000    300.41582    4340.5354    23887.872    26.863234 -0.012627518 0.0079400936 0.00019583506 
  415000    298.69483    6139.1145    23887.872    26.901729 0.0073185533  0.009222651 0.0033728748 
  416000    302.20114    4090.3892    23887.872    27.378412  0.007095851 -5.265437e-05 -0.0024664132 
  417000    292.42719    3991.6646    23887.872    27.664626 0.0050481784 0.0062934851 -0.003317008 
  418000    297.00591    7205.2387    23887.872    27.282471 0.0081988767 0.0029173204 -0.0094396274 
  419000    303.70239    4738.2846    23887.872    26.978734 0.00036553279 -0.0053050378  0.020344192 
  420000    302.12553    2788.3103    23887.872    26.757301 -0.012680558 -0.0031808184 -0.00029782647 
  421000    294.85534    4257.9617    23887.872    26.733802 -0.0049177435 -0.010148524  0.017307889 
  422000    294.17333    8157.2592    23887.872    27.223334 0.0053437078 -0.010939969 -0.00069605059 
  423000    303.14804    6035.7954    23887.872    27.455667 -0.0026045751 0.0052735194  0.015106061 
  424000    304.18784     3963.039    23887.872    28.569058 0.0034584233 -4.9782089e-05 -0.012479887 
  425000    304.02331    6443.5201    23887.872    29.264132 0.0086515929 0.0070020586 -0.0076952109 
  426000    303.97066    7069.1157    23887.872    29.281799 -0.010010229 0.0020624231 -0.0061802504 
  427000    297.91818    3447.9026    23887.872    28.962443 -0.0040256174 -0.00065588129 -0.0015600039 
  428000    303.72553    6148.7698    23887.872    27.914548 -0.001908321 0.0073320359 0.0096773468 
  429000    300.80754    6471.7232    23887.872    27.025258 -0.0061943859 0.0058289824 -0.0022472487 
  430000    303.99647    3878.9034    23887.872     26.71063 -0.0024533296 0.0098006385 -0.0033931376 
  431000    294.74611    7008.4071    23887.872    27.088871 -0.0086311237  0.015253604 -0.0023961695 
  432000    297.13235      4626.14    23887.872    27.172791 0.0028802495 0.0071916644 0.00094099509 
  433000    293.93795    5205.9054    23887.872    27.039251 -0.014994371  0.011503347 0.0025186615 
  434000    290.44757    6481.4848    23887.872    26.949349 -0.013331833 0.0073597466 -0.0018417406 
  435000    304.00868    8638.5208    23887.872    27.010081 0.0063489142  0.013423838 0.0071300142 
  436000     294.7805    4562.1796    23887.872    27.649396 0.0077525771 -0.0069918573 -0.0013743959 
  437000    293.74323    1832.3335    23887.872    28.770762 -0.003387744 0.00095481073  0.011016396 
  438000    301.50729    6238.5331    23887.872    29.651061   0.01552457  0.004127277 0.0049774376 
  439000    300.54734    7997.7316    23887.872    29.454676 -0.0017411218 -0.022432348 -0.0013400006 
  440000     299.3786    4681.8141    23887.872    28.279602 -0.0043013563 5.2340906e-05 -0.026143165 
  441000    301.63105    5560.7468    23887.872    26.805825 0.0027321201  0.013480892 -0.010567397 
  442000    305.05915    6865.5215    23887.872     25.81672 0.0071146987  0.012573968 0.0036608267 
  443000    307.38933    4879.1468    23887.872    25.203544 -0.0012959248 0.0028181139 -0.0093183047 
  444000    299.20712    3919.6839    23887.872    24.885808 -0.0026007517 -0.013903192 -0.012291147 
  445000    302.14921     6470.062    23887.872    25.023003 -0.015698315 0.0074984741 -0.011249948 
  446000    307.89952    6103.0319    23887.872    25.751109 -0.016256441 -0.0017705806 0.0052402613 
  447000     294.7788    3685.9171    23887.872    26.603698 0.0041771975 -0.0081669163 0.00054902688 
  448000     305.9276    5987.5412    23887.872    27.786819 0.00048439754  0.003374894 -0.0089433061 
  449000     300.2283    6748.8532    23887.872     28.83172  0.014917574 -0.006027579   0.01037733 
  450000    301.41106    5410.8744    23887.872    28.955668 -0.0062902873  0.010332145 -0.014185336 
  451000    289.20442    3558.9687    23887.872    28.321417 0.0054121669 -0.0022505782 -0.00022981418 
  452000    297.53883    7089.7108    23887.872    27.916493 0.0052605485 0.0027486398 -0.006775686 
  453000    298.78449    6548.0701    23887.872     28.39982 0.0067680059 0.0042104503 0.0027963063 
  454000    299.79255    3526.1407    23887.872    29.125791 0.0026615744 -0.011848438 -0.0054396161 
  455000    299.16967    5527.0799    23887.872     29.85964 -0.0065743771 -0.0074343897 0.0032365459 
  456000    297.26891    7970.3145    23887.872    30.139069 -0.007131278 0.00041701085 -0.0023582485 
  457000    304.50896    5682.4081    23887.872    29.690473 -0.0045232736   0.01104145 -0.012871815 
  458000    301.72371    5427.7407    23887.872    28.554402 -2.128989e-05 -0.013230754  0.010844247 
  459000    305.66455    4328.6235    23887.872    27.793896 0.00057901837 -0.00048152421 -0.0027198757 
  460000    304.05683    4675.1532    23887.872    27.944835 -0.0016477457 0.0056230383 -0.0058485235 
  461000    298.29239    5507.4284    23887.872    28.687341 0.0021444784 -0.0062930231 0.0051444801 
  462000     304.4162     8027.065    23887.872     29.33391 -0.0050667318 -0.001695536 0.0076521842 
  463000    298.15659    6271.2843    23887.872    29.226725 0.0069399152 0.0033354872  0.011534084 
  464000    300.50713    3504.2745    23887.872    28.405166 -0.002482472 0.0083374205 0.0070168159 
  465000    299.16821    5057.6742    23887.872    27.608057  0.003635211    0.0063526 -0.013155846 
  466000    306.62289    8108.2793    23887.872    27.381312 -0.004991566 -0.014047433 -0.008268902 
  467000    300.91267     7168.479    23887.872    26.604481 0.0026984941 -0.0054160888 0.0014516577 
  468000    296.53666    3870.4963    23887.872    26.440681 0.0041262302 0.0012172047  0.018265714 
  469000    309.34397    8315.7717    23887.872    27.057143 0.0072914119 0.0029773205 0.0013783207 
  470000     297.3803     8378.622    23887.872    27.681703 -0.0038727205 -0.0049291708 -0.0095760948 
  471000    300.22754    6833.8614    23887.872    27.597892 -0.0022191341 -0.0057128783 -0.0057593869 
  472000    297.34961    3088.0589    23887.872    26.898055 -0.011954119 0.0031079082 -0.016669565 
  473000    297.89436    7275.9799    23887.872    26.471002 -0.0051889685 0.00052620335 -0.0025019978 
  474000    300.93363    6714.1567    23887.872    26.617733  0.002417454 -0.0013153105 -0.0064301464 
  475000    303.11035    4579.1704    23887.872    27.568066 -0.006942861 0.0053268262 0.0098698725 
  476000    299.42742    5955.2471    23887.872    28.110967 -0.0021412683 0.0075446319 0.0024514762 
  477000    309.02829    5929.5543    23887.872    27.579303 -0.0011373182 0.0076209855 0.0021220761 
  478000    292.02539    4697.7975    23887.872    26.953897 0.0079334133  0.001344386 -0.0069388145 
  479000    304.71977     4656.141    23887.872    26.400268 -0.014906115  0.019969381 -0.0013407091 
  480000    301.79004    5584.1956    23887.872    25.881638 -0.0037979514 -0.0090593915 -0.010344839 
  481000    295.77921    5387.4422    23887.872    25.942968 -0.013773272 -0.0049256866 -0.0013265852 
  482000    296.76798    7211.4249    23887.872    26.654164 -0.0090942843 -0.0020119692 -0.00057548684 
  483000    290.81006    4226.3165    23887.872    27.372111 -0.0011328894 0.0086440022 0.00050642805 
  484000    303.50501    4709.9674    23887.872    27.989617 -0.0077748635 0.0032853455 -0.0027132683 
  485000    299.30608    4837.5513    23887.872    28.188107  0.011920916 0.0023242338 -0.0062665068 
  486000     293.9384    5306.0385    23887.872    28.003472 0.0098092613 0.00086151266 -0.0098329816 
  487000     300.8717    6418.3154    23887.872    27.592086 0.0012840933 -0.003029194 -0.0066400134 
  488000    304.09625    4732.9564    23887.872    27.024933 -0.018307526 -0.0032459491 -0.0075773166 
  489000    291.81273    5785.1357    23887.872    26.766117  0.014828263 0.0024610877 -0.0051811552 
  490000    301.67043    5279.2329    23887.872    26.833712 -0.0076484004  0.005644462 0.0048617082 
  491000    291.71043    7987.5446    23887.872    27.092141 0.0026559672 0.0027594755 -0.0014040327 
  492000    297.04393    5492.8623    23887.872    27.463396 0.0022129908 -0.0090181525 -0.0065355142 
  493000    298.87064    4848.2823    23887.872    27.257178 0.00041460774  0.011043813  0.010697183 
  494000    296.72843    6500.5814    23887.872      27.1369 0.0071543757 -0.019191141 0.0059604236 
  495000     298.5775    6399.1443    23887.872    27.615796 -0.012931985 -0.018297644 8.0542874e-05 
  496000    300.42168    5612.5669    23887.872    27.888517 0.0074043608 0.0034880189 -0.007608705 
  497000    296.88811    3261.3922    23887.872    27.880434 -0.010669718 0.0063480582 0.0048211992 
  498000    302.12652    5386.4817    23887.872    28.260269 0.0057371149 0.0033588755 0.0025392098 
  499000    300.78911    7452.5965    23887.872    28.698277 0.0050931909 0.0065968632 0.0017802884 
  500000    303.36546    5882.6678    23887.872    28.617384 -0.0015472178 0.0043016271 -0.001442312 
  501000    307.30012    4327.3432    23887.872    28.213183  0.016312129   0.00892016 0.0042941873 
  502000    310.82541    6146.0877    23887.872    27.732334 0.0047236346 0.0048555002 0.0053704255 
  503000    303.92157    4952.2114    23887.872    27.513602  -0.01083339 -0.005101255 0.0050778068 
  504000    302.20321    7919.6666    23887.872    27.171166 0.00048821273 0.0011031662  0.019572359 
  505000    305.15804    7930.9167    23887.872    26.728351 0.0032570782 -0.0094829226 0.00058678939 
  506000    296.59669    3311.6837    23887.872    26.753433  0.010875605 0.0021204433 -0.0049988368 
  507000    305.84799    761.65566    23887.872    26.705475 -4.0821301e-06  0.015818154 -0.0024908753 
  508000    296.59262     6790.659    23887.872    26.424682 0.0099262622  0.018479621 -0.0065327603 
  509000    297.09858    8663.5011    23887.872    26.258137 0.0048513208 0.0088104505   -0.0087466 
  510000    301.79562     5604.916    23887.872    25.888654  0.016552465 0.0016744178 0.0020964849 
  511000    300.01493    4031.5276    23887.872    25.374879 0.0083576461 -0.0013892564 0.0039081317 
  512000    297.22798    6153.9009    23887.872    25.069368 0.0049899752 -0.0022398186 0.0086294521 
  513000    305.94825    5313.7181    23887.872    25.248861 0.0032041727 -0.0041164296 -0.0051228719 
  514000     293.3842    8244.7856    23887.872    25.497406 -0.011978557  0.010342867 -0.015021558 
  515000    297.03959    4794.9984    23887.872    25.763624 -0.0081784473 0.00081212258 -0.012536122 
  516000    299.96079    3178.2037    23887.872    26.580768 0.00090907056 0.00084314131 0.0025878593 
  517000    295.97182    7064.3865    23887.872    27.516515  -0.01126706  0.011398047 -0.00054391683 
  518000     299.8677    8301.2286    23887.872    28.009376  0.003615134 -0.0014076962   0.01453559 
  519000     290.6914    6235.6405    23887.872    27.754055 0.0021865652 -0.0039405834  0.012416349 
  520000    296.27949    5206.7019    23887.872    27.361222  0.011347275 -0.0061270004 -0.0062060585 
  521000    293.70447    5763.7941    23887.872    27.139078 -0.0022340616  0.011139585 0.0027520453 
  522000    302.15942    3921.9382    23887.872    27.427577 -0.00053262604 0.0026093142 0.0036886572 
  523000     300.5466    6637.3618    23887.872    27.559785 -0.00092625363 0.00057898156  -0.00598001 
  524000    296.16206    6836.9708    23887.872    27.375231 -0.00056954964  0.001602035 0.0032225292 
  525000    295.91544    3840.4144    23887.872    27.252013 0.0033181307 -0.004144383 -0.00073485243 
  526000    301.94701    4479.0332    23887.872    27.208498 0.0034160165 -0.0038374771  0.014779937 
  527000     296.7895    8014.4188    23887.872    27.333026 0.0090301861  0.004714465  0.009748068 
  528000    295.94349     3681.139    23887.872    28.166118 0.0088679787 0.0016502822 0.0006334981 
  529000    298.76355     4336.193    23887.872    29.574117 0.0039431182 0.0099590838 -0.010392345 
  530000    306.88712    5278.4131    23887.872    29.548478 -0.0029474345 -0.013215811 -0.0022685707 
  531000    304.11732    7278.6656    23887.872    28.666721 0.0075044171 -0.0062219715 -0.00032665231 
  532000     301.3918     4990.048    23887.872    28.310731  0.010286951 -0.018965614 0.0012218609 
  533000    296.64989    5262.8603    23887.872    28.365709  0.017986265 0.0024649316  0.015020414 
  534000    293.46527    6398.6327    23887.872    28.575164 0.0086846247 0.00045383923  0.016934477 
  535000    302.15361    4592.1936    23887.872    28.298746 0.0014412318 -0.0079763209 0.0025250638 
  536000    310.66909    4734.5466    23887.872    27.461239 0.0068706437 -0.0060674086  0.013584833 
  537000    297.89245    5903.2837    23887.872    26.710721  0.008954732 -0.00039962831 -0.0033319848 
  538000    297.01309    7090.2619    23887.872    25.998607 0.0094745791 -0.015752819 -0.013100262 
  539000    290.43691    5117.0913    23887.872    25.664302  0.011204391   0.00247468 -0.0027558392 
  540000    302.63555    3998.8254    23887.872    25.332847 -0.00051769253 -0.005682078 -0.0090528798 
  541000    303.63305     5365.666    23887.872    25.560393 -0.0082664919 -0.0038807324 0.00029842333 
  542000    303.78626    4874.7884    23887.872    26.448897 0.0063956008 -0.0021498956 0.0038172849 
  543000    303.35879    7676.1564    23887.872    27.297382   0.01072059 -0.0011472258 0.0035493021 
  544000    301.95276    4565.3606    23887.872    28.045712 -0.0037473982 0.00095161669 -0.0020912168 
  545000    298.54061    3948.1328    23887.872    28.679961 -0.0070928364 -0.017956459 -0.0047245787 
  546000    289.85133    6186.7014    23887.872    28.749409 0.0065977522 0.0020295046 0.0025755607 
  547000    301.19388    6223.0551    23887.872    28.444721 0.0064492606 0.0052399882 0.0070990943 
  548000    300.55353    7904.8317    23887.872    27.720788 0.0055347035 0.0033174732 -0.0039471333 
  549000    302.89007    3579.0106    23887.872    26.579766 0.00069490551 -0.0046629852 0.0054817441 
  550000    301.12923     4327.845    23887.872    26.247907 0.00031632637 -0.0055237772 -0.0043599348 
  551000    298.67417    5968.1979    23887.872    25.691545 0.0023560911   0.01559657 -0.0090629938 
  552000    299.07208    8317.6457    23887.872     25.13214 -0.012504977  0.019691532 -0.0015459482 
  553000     290.3376    5549.2502    23887.872    24.497767 -0.0026400821  0.002590031  -0.00405815 
  554000     294.6613    5065.7856    23887.872    24.034164 -0.019339193  0.012337269 -0.012519507 
  555000    288.66262    6076.5567    23887.872    24.748991 -0.0018923981 0.0061752875 -0.0089189464 
  556000    301.75045    6270.0112    23887.872    26.042981 0.0081579054 -0.0046772523 -0.0070579073 
  557000    300.86454    3183.0269    23887.872    26.753691 -0.0014643837 -0.0073831772 0.0073421946 
  558000    299.05752    5516.9785    23887.872    26.776863 0.0029244851  0.014339935  0.010985015 
  559000    302.17473    4853.5201    23887.872     27.02258  0.012534289 -0.00094198898 -0.007053081 
  560000    299.92406    6155.2473    23887.872    27.622452  0.012345746 -0.00084572802 0.0010658493 
  561000     299.9206    5313.5662    23887.872    28.077184 0.0055489054 0.0055091423 -0.0047308833 
  562000    302.31537    5244.9892    23887.872    27.550743 0.0088904153 -0.0068238048  0.011623686 
  563000    296.25565    7656.7713    23887.872    26.426302 0.0043512248 -0.0095012956 0.0046096392 
  564000    302.17461    5222.6455    23887.872    25.377509  0.011569146 0.0027505207 -0.0077720314 
  565000    298.64318    3805.6592    23887.872    25.218781 -0.0078283249 -0.0087056465 -0.0071371049 
  566000    305.25827    6689.5584    23887.872    25.798455 -0.0068435567 0.0013363544 -0.0045560828 
  567000    302.97107    5323.3623    23887.872    26.505558 -0.0095389602 0.0064868379 -0.0070350196 
  568000    298.20565    4856.5492    23887.872    27.144781 0.0005149508 0.0016380373  0.012155708 
  569000    299.62886    6493.8661    23887.872    27.297538  0.010128012 0.00072464225  -0.01285618 
  570000    299.71138    5304.1086    23887.872    26.947318 0.0040930466 0.0050846721 0.0082815955 
  571000    296.16169    7517.6976    23887.872    26.486152 0.0048035863 0.0093631935  0.011664801 
  572000    290.23104    3689.5489    23887.872    26.076561 -0.0011830744  0.013032553 -0.00072505226 
  573000    301.80638    5809.4995    23887.872    25.829555 -0.010789197 -0.013274273 -0.00047507505 
  574000    296.36089    6407.0031    23887.872    25.993435 0.0012429001 0.0039981501 0.0065333252 
  575000    293.26449    5951.4642    23887.872    26.628226 0.00045769621  0.014623625 -0.015024893 
  576000    293.93243    3801.9154    23887.872    27.069201 -0.0023352185  0.014316284 -0.0022941554 
  577000    298.21925    5834.2022    23887.872    26.932203  0.013310026 -5.2688485e-05 -0.0053798393 
  578000    302.62056     6714.222    23887.872    27.183665  0.019258152  0.010619528  0.016429743 
  579000    301.63631    3968.7589    23887.872    27.962067  0.007304826 -0.00086331764 0.0073299318 
  580000    301.67387    3020.1057    23887.872     28.35992 -0.0028394639 0.0027753858   0.01278386 
  581000    303.89529    4210.0436    23887.872    28.269144 0.0058275431 -0.00014772082 0.0033999591 
  582000    295.93416    7854.0441    23887.872     27.85704 0.0046772097 0.0075434078   0.01129492 
  583000     300.1375     5675.691    23887.872    27.800913 -0.0028518796 0.0012249788 -0.0030031677 
  584000    298.23439    3503.7164    23887.872    27.328346 -0.010030784 0.0042189128  0.015541525 
  585000    297.13161    8092.4361    23887.872    27.039298  0.014015308 -0.0063507882 -0.0081307748 
  586000    302.12652    7022.8774    23887.872     26.79148  0.016066872 -0.0094563405 -0.0043778015 
  587000    295.48282    3250.1842    23887.872    26.636216 0.00013845818 0.0050178663 -0.0010323508 
  588000    294.89075    5021.3671    23887.872    26.977822 -0.0097126146 0.0031278945 -0.0048149903 
  589000    298.92092    7099.0324    23887.872    27.919289 0.0018502909 -1.95284e-05 -3.7571985e-05 
  590000    289.70652    6178.1384    23887.872       29.409 -0.0055834052 -0.0073837774 0.0011337726 
  591000    299.04166    2192.7032    23887.872    29.986665 -0.0042152165  0.017062214 -0.00089875975 
  592000    298.86226    4707.7065    23887.872    29.621646 -0.0084720699 0.0084754528 -0.0045726866 
  593000    296.75802    9286.6345    23887.872    28.788628 -0.0094537377 0.0034615285 0.0049940526 
  594000    292.98083    6541.8857    23887.872    27.982287 -0.0096415849 -0.012506049 -0.0018675429 
  595000    297.32239    1961.9005    23887.872    27.285307  0.020807163 -0.0084937942 -0.0026966489 
  596000    305.67948    6896.5303    23887.872    26.802378 -0.0071556762 -0.0039775628 0.00065574825 
  597000    295.92484    8058.5367    23887.872    26.966117 -0.0067923764 -0.015676071  0.011760238 
  598000    298.64518    5492.3738    23887.872    27.542118 -0.019481149 -0.012114047  -0.00262711 
  599000     299.2407    3654.2035    23887.872    27.743466 -0.00039804241 0.0045563796  0.007645285 
  600000    297.23191    5806.6126    23887.872    27.570529 0.0087609386 -0.008108486 0.0069514702 
  601000    298.43536    6119.2988    23887.872    27.013149 0.0054102758 0.0034651457  -0.01633031 
  602000    306.56117    6599.9638    23887.872     26.58998  0.013446192  0.012370365 0.0043650199 
  603000     303.4488    5169.6832    23887.872    27.187291 0.0017931746  0.011486224 -0.0076441541 
  604000    305.18279    6049.9429    23887.872    28.097085 0.0031986436 0.0068488307 -0.0033681527 
  605000    298.29449    4865.3894    23887.872    29.243332 -0.010017795   0.00624751  0.010569363 
  606000    310.72448    5462.0985    23887.872    29.607432 0.0054874217 -0.028663081 0.0035414949 
  607000    300.86809    5618.2246    23887.872    29.654589 0.00065998038 -0.011720384 0.0075935513 
  608000    296.70824    5016.1908    23887.872    29.362481 -0.012391438 -0.007573347 -0.002089926 
  609000     296.8812     5725.478    23887.872    28.834931 -0.026375184 -0.0095577053 -0.0043176038 
  610000    295.83465    7436.3557    23887.872     28.09242 -0.0004088286 -0.003188534 -0.0013587188 
  611000    294.56602    5234.2234    23887.872    27.464976 -0.015861687 0.0052216068 0.0041223182 
  612000     296.0593    4923.6931    23887.872    27.687426  -0.01112802 -0.010051758 -0.0088177298 
  613000    297.52579    8882.5688    23887.872    27.888549 -0.011943213 0.0018021589 -0.00048767408 
  614000    295.09088    2992.4543    23887.872     27.63529  0.012935352 -0.0026003656   -0.0125875 
  615000    301.86081    5373.8964    23887.872    27.583957 -0.025442022 0.0029200552 -0.0026228305 
  616000    291.00586    8011.1564    23887.872    28.092487 -0.0061468577 0.00091091236 -0.0060871177 
  617000    297.91619    5989.1368    23887.872    29.036851   -0.0013497 0.0037904913 -0.010589633 
  618000    291.62764    3400.7411    23887.872    29.900124 0.0041597315  0.002878415 -0.0086968319 
  619000    302.07931    3449.7026    23887.872    30.080468 0.0043411856 -0.0061845212 -0.0067209006 
  620000    297.69872    8581.0228    23887.872    29.721651  0.010637216 0.0061165416 0.0055286447 
  621000    298.29997    5485.5405    23887.872    29.808553 0.00065671124  0.007580749 -7.9833962e-05 
  622000    296.73829    3663.8232    23887.872    29.695201 0.0054826114  0.007129858 0.0048938424 
  623000    299.10738    4500.2848    23887.872    28.941222 -0.0010788734  0.007938358 0.0025898818 
  624000    305.73268    7216.2428    23887.872    28.036963 0.0014490205  0.000123754  -0.01066726 
  625000    297.01583    5726.8263    23887.872    28.041351 -0.0046487516 0.0015276378 0.0095573794 
  626000    300.49179     3872.792    23887.872    28.454353  0.010163054 0.0081133482 -0.0069841946 
  627000    296.03852    5631.4382    23887.872    28.694215  0.002432778 0.0084148365 0.0075044309 
  628000    298.09712    7179.3123    23887.872    28.483121 -0.0014417682 -0.0027978253 -0.014091263 
  629000     296.9226    5684.9552    23887.872    27.554514 -0.0063179547 0.00022071669 0.0046305468 
  630000    293.17489    797.25834    23887.872    26.947795 -0.0043471695 0.00093239777 -0.010855466 
  631000    295.81808    7711.6971    23887.872    26.591607 -0.0040539171 -0.0083873614  0.012828206 
  632000    298.03959    10670.991    23887.872    26.145042 0.0013479093 0.0070364396 -0.0014756057 
  633000    300.18313    4044.7801    23887.872    25.797336 0.0034051138 -0.0087299726 0.0038992071 
  634000    303.81542    304.76248    23887.872    25.478393 -0.0023658491 -0.0026141096 -0.0032669075 
  635000     292.3046    4647.8192    23887.872    25.212839  0.006776645 -0.0027701275 0.0018228488 
  636000    300.86728    8595.7282    23887.872     25.36111 -0.0035339959 0.0024901749 0.0077401855 
  637000    300.59197    4831.1187    23887.872    25.906492 -0.00028636242 0.0058727467 -0.0043820411 
  638000    301.39645    2988.6697    23887.872    26.673672 0.0032807527 -0.010115102  0.002906744 
  639000    302.51654    6804.0834    23887.872    27.715851  0.010917016   0.01445715 -0.005856238 
  640000    295.87729    6240.3196    23887.872    28.409181 0.0022739081 -0.0011351932 -0.0076824993 
  641000    298.97324    4772.3653    23887.872    29.073668 -0.0015996042  0.010393673 0.0066659373 
  642000    300.47905    5116.6607    23887.872    30.226322 0.0042422417 0.00053506747 0.0068806052 
  643000    302.20268    6638.0153    23887.872    31.028269 0.0088978483 0.0084817909  0.013779379 
  644000    294.12243    5171.0363    23887.872    31.347038 -0.0060118211 0.0052532229 -0.005607324 
  645000    298.81926    2665.4942    23887.872    31.507557 -0.0045444853 -0.0051489595 -0.0012041317 
  646000    303.17406    8581.2067    23887.872    31.178163 -0.0076847255  0.020855484 -0.0043566435 
  647000     292.7485    6526.6929    23887.872    30.353441 0.0053678111 2.6357764e-06 0.0034038361 
  648000    301.42417    1637.9159    23887.872    29.645221 0.0085132548 -0.0060958353 -0.0081913336 
  649000    295.22718    4368.4212    23887.872    29.626699 0.0013361761 -0.00089093042 0.0091127705 
  650000      298.667    7643.3917    23887.872     29.30433  0.006640949 -0.0053920397 0.0036257447 
  651000    300.34907      4060.89    23887.872     28.98346  0.004815511 0.0059345815 0.0047684885 
  652000    294.59868    5357.7771    23887.872    28.838859 0.0019655187 -0.001414503 -0.0080524065 
  653000    302.37241    6225.6891    23887.872    29.496768 -0.009398826 -0.0029947169  0.012179112 
  654000    303.89412    4482.7242    23887.872    30.303687  -0.01715034 0.0044677552 -0.0058297541 
  655000    302.68923    3639.2721    23887.872    30.692883  0.012887718 0.00030385008 0.0030033174 
  656000    301.43733    5629.5744    23887.872    30.623844 0.0041990681 -0.0054458464 -0.0015572127 
  657000     296.9185     6279.325    23887.872    30.059431 0.0095339909 0.0047481104 0.0023427398 
  658000    303.81722    5364.4172    23887.872    29.473286 0.0058779446 0.0024952057 -0.0025546613 
  659000    295.44813    6263.5604    23887.872    28.679208 -0.010990139 0.0061849622 -0.012745435 
  660000    294.18964     4780.703    23887.872    27.882812 0.0055709506 -0.0058944998 -0.016528901 
  661000    298.49846    4460.1543    23887.872    27.464089 -0.0027797767 0.0082481424 -0.010662792 
  662000    297.52299    5316.0341    23887.872    27.345436 -0.00039083992 -0.0077824744 -0.0064298075 
  663000    302.02483    6753.9939    23887.872    27.156886 -0.0060773859 -0.0010282807  0.011129253 
  664000    297.50199    6519.2841    23887.872    27.609687 0.00049741749 -0.009533176 0.00088936041 
  665000    300.59855    3885.0255    23887.872    27.742604 -0.00076434727 -0.0013822511 -0.0068982202 
  666000     302.3847    5974.0184    23887.872    27.434191 -0.0095045577 -0.0021095858 -0.0031192527 
  667000    296.81081    6007.4576    23887.872    27.088085 -0.013861122 -0.0066333512 -0.00028563311 
  668000    296.63921     6732.516    23887.872    26.803888 -0.0019685327  0.016411414 0.0027810519 
  669000    302.10102    3737.6274    23887.872    27.118606  0.010398001 0.0013980489 -0.0028803955 
  670000    294.61825    2292.8317    23887.872    27.957701 -0.0078296282 0.0039174569 0.0069250662 
  671000    301.37084    6630.7262    23887.872    28.403804 -0.012094064    0.0170078 -0.0044696981 
  672000    301.46658    5873.8359    23887.872     28.86544 0.0051397929 -0.00025761732 0.0039078183 
  673000    300.67138    3496.8824    23887.872    29.231302 0.0077638241 -0.0086948938  0.011205605 
  674000     299.9667    7730.3486    23887.872    29.449148  0.011302281 -0.0037136216 -0.0065965788 
  675000    293.70049    5897.6503    23887.872    30.136748  0.003373287 -0.0052650824 0.0044266547 
  676000    294.55864    4048.4768    23887.872    31.227436 0.0071431781    0.0082666 0.0075027245 
  677000    292.04632    6536.5364    23887.872    31.974827 0.0062530945 0.0044366375  0.004811508 
  678000    300.88405    6350.8156    23887.872    32.292422 0.0071247444 -0.00049250121 -0.013043919 
  679000    298.89333    4098.3721    23887.872    32.144117 -0.0015593428   0.03127071 -0.0021776832 
  680000    301.76183    5421.6923    23887.872    31.586753 -0.012447416 -0.016233452 -0.0033112741 
  681000    301.90584     8177.799    23887.872    30.988832 -0.00031326188 -0.0057038078 0.0027102925 
  682000    299.70579    5702.7503    23887.872    30.771471 -0.0082801595 0.0022155513 -0.012305021 
  683000    288.47639    2923.1172    23887.872    30.201065  0.011386378 0.0081709413   0.00950132 
  684000    293.48144    6410.7609    23887.872    29.690998 0.0039790416 -0.0040231582  -0.01400457 
  685000    295.72003    7757.1041    23887.872    29.479566  0.012286937   0.01705563 0.0019566037 
  686000    299.84215    3902.9027    23887.872     29.08678 -0.0012182854 -0.0094733192   0.01138624 
  687000    301.32163    3438.6396    23887.872    28.799753 -0.0010486998 7.992869e-05 -0.016265567 
  688000    300.30032    6827.0164    23887.872    28.524203 -0.00084581287 -0.0060276282 0.0023169543 
  689000    306.91743    6285.7542    23887.872    28.549097 -0.006345356  0.010799028  0.012065644 
  690000    297.33044    4648.5737    23887.872    29.007597 -0.0012074085 -0.0057188652 0.0057925573 
  691000    293.97054    4518.3218    23887.872    29.571561 -0.0090570014 -0.0013134827 0.0061751642 
  692000    300.98156    5183.0358    23887.872    29.497512 -0.013516812 -0.0071264244 0.0026838862 
  693000    298.55684     5799.205    23887.872    29.884134 0.0045034981 -0.019936943 -0.0023301576 
  694000    298.44434    7014.2289    23887.872    30.295222  0.010834306 0.00048335391 -0.011450141 
  695000    295.31088    3836.0451    23887.872     30.03415 -0.014567142  -0.01435396 -7.6448636e-05 
  696000     301.1612    3667.1679    23887.872    30.348887 0.0050469774 0.0028755144 0.0013257054 
  697000    297.39505    8021.8656    23887.872    30.531762 -0.00037103843 0.0063133123 -0.020590225 
  698000     304.9369    5366.7501    23887.872    30.702167 0.0036005546 -0.0054600764 -0.0013937016 
  699000    299.79347    3584.8615    23887.872    30.321342 -0.0066941707  0.012248728 -0.024339702 
  700000    293.69873    4936.0269    23887.872    29.894244 -0.0057999824 0.0075666413 -0.0032207343 
  701000    302.17719     5590.858    23887.872    29.491969  0.002390765 -0.0044938801   0.01188992 
  702000    296.83414    6454.1931    23887.872     29.41593 -0.00081409096 0.0070260275 0.0047418465 
  703000    293.70381    3235.3635    23887.872    29.263238 -0.0026555515 0.0099307658 0.0087316632 
  704000    298.00152    2405.5934    23887.872    29.325886 0.0022736706 -0.0034606456  -0.01257823 
  705000    299.43683    6329.0892    23887.872    29.462261 -0.0094719257 -0.009569644  0.011275068 
  706000    294.81997    6632.6577    23887.872    29.430285 0.0041337863 -0.0099182598 2.0887441e-05 
  707000    295.24063    5228.0243    23887.872    29.557425 0.0054986448 -0.0069936071 -0.007373083 
  708000    293.66541    3844.9244    23887.872    29.881238 -0.0038593648  0.005534247 0.0012623591 
  709000     298.2722    7073.4633    23887.872    29.950267 -0.0060510559 0.0030713955 -0.0044732322 
  710000    301.41632    4383.2124    23887.872    29.316503 -0.0066011302  -0.01061828 -0.0089862657 
  711000    300.16319    6052.0462    23887.872    28.205809 -0.0038740142 -0.003863376  -0.01190443 
  712000    298.34663    5084.9422    23887.872    27.883617  0.015125716 -0.005400271 -0.0037744229 
  713000    307.59745    3615.8503    23887.872    28.009783 0.0074694483 -0.0035214834  0.014941147 
  714000    300.92045    6045.2914    23887.872    28.232379 0.0014105922 -0.0033939347   0.01340969 
  715000    291.12958    6121.8684    23887.872    27.737197 0.0037398012  0.012540255 0.0044628587 
  716000    295.99255    3453.7061    23887.872     27.48537 0.0073310807 0.0051617281 -0.013977293 
  717000     297.7541    5579.3447    23887.872     27.69198  0.013376818 0.0016102313 -0.0077428962 
  718000    298.01337     8284.723    23887.872    27.445826 0.0035110633 0.0056361208 -0.0024775406 
  719000    304.23278    5725.8539    23887.872    26.412106 0.0001010014 -0.0032345122 -0.0015890601 
  720000    296.16863    3071.1102    23887.872    25.430066  0.013626989 -0.0023321351 -0.0086273853 
  721000    296.60991    6071.1322    23887.872    24.666941  0.011004971 -0.0073008905 -0.010589614 
  722000    298.84527    6519.4894    23887.872    25.082274 -0.0045081624 0.00072798397 -0.0046159274 
  723000    295.30005    3802.0257    23887.872    26.214196  0.009188248 -0.0019315364  0.003621551 
  724000     298.0612    5686.9835    23887.872    27.221062 0.0088413063  0.001513969 0.0097224312 
  725000    296.67669    4721.2259    23887.872    27.325247 0.0050768183 0.0024797538 0.0016926995 
  726000    300.23834    3789.3221    23887.872    25.943425 0.0086131566 -0.0008778184 0.0015154246 
  727000     296.8303    7075.5795    23887.872    24.304677 -0.00064056396 -0.0055627454 -0.0029468464 
  728000    293.07031    6583.0314    23887.872    23.226811  0.011825134 -0.011854345 0.0090887942 
  729000    301.53076    6494.0987    23887.872    22.673841 0.0070692062 -0.0071957539 -0.0066489399 
  730000    302.93196    3296.4678    23887.872    22.749666 -0.005709082 0.0066728471 0.0028137238 
  731000      301.264    5006.3445    23887.872     23.34093  0.004871763  0.011944616 0.00025986537 
  732000    300.75473    10153.073    23887.872    23.809788 0.0040619027  0.012152495 -0.0030367047 
  733000    302.47516    3073.3358    23887.872     24.13637 -0.0087443309 0.0074976731 -0.0008643365 
  734000    303.68099    1860.6109    23887.872    24.469555 -4.2943154e-06 0.0055604926 0.0083174209 
  735000    304.84383    6090.1784    23887.872    24.449981 -0.00038668473  0.015510265 -0.0067260713 
  736000    298.88481    6214.6404    23887.872    24.232387 -0.0010313159 0.0055502302 -0.0091514866 
  737000    299.80741    5632.8141    23887.872    24.252631  0.017901499  0.016421656 -0.0063435648 
  738000     293.3855    5142.7843    23887.872    24.535272 0.0064777278 -0.013329205 -0.014044222 
  739000    294.49434    5047.9388    23887.872    25.135302 0.0033925648 0.0025657528 0.0031839728 
  740000    296.99954    3745.6211    23887.872    24.983593  0.007932679 2.9958709e-05 -0.001169185 
  741000    298.32295    6919.0599    23887.872    24.407747 0.0059997345 -0.00062115924 -0.0016443302 
  742000    292.66366    5840.6107    23887.872    24.770505 -0.0052076484  0.010464748 -0.0022575717 
  743000    297.38657    3867.1464    23887.872    25.821196 0.00031248618 0.0011987067 0.0033169273 
  744000    299.01266    6485.7919    23887.872    26.885811 0.0082034647 0.0070150896 -0.0099763684 
  745000    298.88331    7960.2248    23887.872    27.218451 -0.0033222586  0.011089683  -0.00460544 
  746000    295.34348    6402.7915    23887.872    27.195025 -0.0057561144 0.0062712179 -0.0062818219 
  747000    291.42259    3766.1824    23887.872    27.262957 0.00060615833  0.016104084 -0.0077582966 
  748000    296.29512    3932.4752    23887.872    27.424035  0.021431251 -0.0030590765 -0.013314373 
  749000     298.1178    5455.5738    23887.872    27.696805 -0.00065976736 -0.0070483843 -0.0079876481 
  750000     296.6247    5237.8543    23887.872    28.029687  0.017244047 0.00029118707 -0.0078388992 
  751000    301.32537    5326.4787    23887.872    27.840569 -0.0016937797 0.0071046604 0.0082253717 
  752000    296.67863    5985.8538    23887.872    28.025277 0.0013866251 0.0067741346 -0.003796478 
  753000    299.02256    3508.4928    23887.872    28.389928 0.0075972606 -0.013140649 0.0024862054 
  754000    294.31711    5597.9669    23887.872    28.982267 -0.012065209 -0.00070058845 -0.0020945603 
  755000    294.59592    9225.4171    23887.872    29.655827 -0.0045465738 0.0010675331 0.0036518045 
  756000    296.18648    5926.3744    23887.872    29.555832 -0.00062813892  0.002719409 0.0077401565 
  757000    303.70681    4800.4229    23887.872    29.399336 -0.0061916889 0.0086805125 0.0061498204 
  758000    293.55814    4792.7818    23887.872    29.429032 -0.0066803892  0.005447247  0.014699265 
  759000    297.23462    5310.7491    23887.872    29.685603 -0.0030435076 0.0077502783 -0.0058324602 
  760000    300.44947    7263.5494    23887.872    29.390458 -0.0022707731 -0.0077436484 0.0062579959 
  761000    293.58335    6027.0222    23887.872    29.225166 0.0067241293 0.0097730192  0.011022075 
  762000    301.62511     5410.811    23887.872    29.239483  0.021076154 0.00053878596 0.0028945055 
  763000    301.44371    3883.2989    23887.872    28.826694 0.0091579121 -0.010836776 -0.0045623496 
  764000    298.48707    5446.0375    23887.872    28.598332 0.00024209119  -0.01106334 0.00078484036 
  765000    303.12975    5811.5897    23887.872    28.529631 -0.0082679525 -0.0058627498 -0.0043146038 
  766000    298.89748    4014.1065    23887.872    28.646174 -0.0020225514 0.0088595315  0.010276224 
  767000    302.09006     7318.061    23887.872    28.940163 0.0065830182 0.0031186889 -0.010729125 
  768000     297.5997    4177.2681    23887.872    28.890779 -0.0032742956 -0.0037968968 0.0016594289 
  769000    294.66557    5962.7796    23887.872     28.43802  0.011214332 0.0030562948 -0.010741011 
  770000    296.18974     7029.247    23887.872    28.440424  0.010691114 0.0025141008 0.00054848214 
  771000    302.06559    4382.0345    23887.872    28.130358  0.020949442 -0.0042762532 0.0085941761 
  772000    298.72404    3551.0119    23887.872    27.598899 -0.0029752766 -0.0092727519 -0.0020862139 
  773000    299.80372     5446.375    23887.872    27.078194 0.0052982812 0.00028978406 -0.009321515 
  774000    297.38753    7324.8356    23887.872    26.395016 0.0038224425 -0.013850726 0.0010256539 
  775000    302.73654    6417.1689    23887.872    26.177592 0.0060696199 -0.0023176561  0.010327813 
  776000    298.41017    3188.4591    23887.872    26.201854 -0.0033128763 -0.0085710864 -0.012842603 
  777000    302.02104    6701.0578    23887.872    26.286912  0.004501235 0.0040786749 -0.010730298 
  778000    294.78528    6203.5313    23887.872    27.158047  -0.00942225 0.0022300329 -0.002127259 
  779000    297.10161    4982.1935    23887.872    27.239894 -0.00029578732 0.0079114826 0.0074384774 
  780000    303.93674    6877.4394    23887.872     26.38432 -0.0048759347 -0.0039707269 0.0083482805 
  781000     299.3984    4980.0139    23887.872    25.624413 -0.011902211 0.00051502827 -0.0048713545 
  782000    295.65163     3332.894    23887.872     25.19753 -0.0097700968 0.0047421569 0.0018301353 
  783000    295.40311     5968.844    23887.872    25.400864 -0.008548468  0.001200569 -0.0087622619 
  784000    299.41083     6107.971    23887.872    25.571493 0.0027919079 0.0003434066 -0.015729681 
  785000    293.48426    4235.6941    23887.872    25.892205 -0.0036404285 -0.011851367 -0.0014415799 
  786000    292.57528    5029.2695    23887.872    26.067596 -0.0031129664 -0.013250929 0.00046728604 
  787000    301.86542      5432.44    23887.872    26.014624 0.0017651876 0.0082341623 0.0022124544 
  788000     296.1711    4802.6759    23887.872    25.174841  0.011944648  0.014085705 -0.0024990498 
  789000    296.38601    6414.8621    23887.872    24.399633 -0.0010982514 -0.0019510815 -0.0099983176 
  790000    300.02572    4292.4572    23887.872    23.963281 -0.0093771773 -0.0055930901 0.0027235071 
  791000     298.8752    3068.0865    23887.872    23.753076  0.010392981 -0.0090061709 0.0015578115 
  792000    300.99019    5832.8427    23887.872    23.845055 0.0038516155 0.0097837576 0.0071458398 
  793000    293.99216    8173.7531    23887.872     23.64629  0.014379214 -0.0072365437 -0.010925787 
  794000    298.65448    4509.6212    23887.872    23.755358 -0.00051333595 0.0010669736 -0.013071175 
  795000    300.67296    4080.1196    23887.872    24.332588 -0.0057098252 -0.0052382978 -0.0039957792 
  796000    302.36172    6401.7474    23887.872    25.123559  0.012071339 -0.0058157822 0.0022162403 
  797000    298.19167    4723.9447    23887.872    25.834377 -0.00072932702  0.013531702 0.0052719034 
  798000    297.88482    3553.2301    23887.872    25.851465 -0.012500011 0.0093382304 -0.011731923 
  799000     304.2953    2800.2175    23887.872    26.413977 0.0087868492 -0.0082138286 0.0012159945 
  800000    296.28888    6016.9247    23887.872    27.147706 0.0082113161 0.0042163652 0.0094072809 
  801000    297.29899     7586.297    23887.872    27.764929 -0.0040790131 -0.0088275482 0.0038710162 
  802000    296.58153    4697.3859    23887.872    27.889027 0.0021772658 -0.0037836302  0.014258239 
  803000    289.87806    2744.4863    23887.872    28.007096  0.010124345 0.00089980174 -0.0071065196 
  804000    293.92821    6306.0505    23887.872    27.757488 -0.004386959 0.0033918559 -0.0089608376 
  805000    300.66591    7659.3156    23887.872    27.344196 0.00051772836 0.0015183448 -0.0069009216 
  806000    296.36609    6815.8638    23887.872    27.060346  0.011845122 0.0025320672 0.0054644076 
  807000      297.752    4188.4374    23887.872    26.516368 -0.0078938561  0.011446412 -0.0014754592 
  808000     290.3687    3526.2391    23887.872    25.769292 -0.010735546  0.011468598 -0.0045403433 
  809000    296.58463    7752.0909    23887.872    25.582863  0.011149802 0.0073560846 0.0052075426 
  810000    294.72048    5330.3435    23887.872    25.216477 0.0084119907 -0.0024430596 -0.0034349851 
  811000    299.80515    5986.8859    23887.872    25.439772 0.00023915964  0.012696568 -0.0031592086 
  812000    298.22053    4809.1548    23887.872    26.059717 -0.0065624324 0.0069531277 0.0031881384 
  813000    304.70123    5501.1328    23887.872    27.047812 -0.010650639  -0.01084297 -0.00089818448 
  814000    301.28135    3934.6437    23887.872    27.642061 -0.0047207257  0.019734608 -0.0073140058 
  815000    295.75506    5989.4192    23887.872    27.762763 -0.0041245282 0.0060868138 -0.0017049123 
  816000    302.23463     6084.941    23887.872    27.635198 -0.00078967045 0.0057375975 -0.0072843224 
  817000    295.98945    7375.1037    23887.872    27.509706 -0.012182829 0.0021315262 -0.00049921588 
  818000    289.69731     5939.314    23887.872    27.530727 0.0049981121 -0.0054817469  0.020849285 
  819000    300.13247    3404.0008    23887.872    28.136738 -0.00011236714 -0.0070562856  0.012996367 
  820000    298.78516    2227.7026    23887.872    28.634956 -0.0029368471 -0.00020936729  0.024223272 
  821000    300.49931    6461.1441    23887.872    28.738527 0.0035604004   0.01211656 0.0089006466 
  822000    299.62137    5709.4099    23887.872    28.474048   0.01912347 0.0032060165 -0.0016435981 
  823000    304.30144    2612.0289    23887.872    27.919862 -0.0036701924  0.006611252  0.013239774 
  824000    293.93353    3016.8308    23887.872    27.444004 0.0087132476 0.0037769159 -0.015017863 
  825000    303.88185    7321.6386    23887.872    27.336266 -0.00079456644 7.6888176e-05 0.0057137075 
  826000    298.01822     5345.651    23887.872    27.662972  0.010649714 0.0064538607 -0.0029660765 
  827000    292.96383    5767.2677    23887.872    28.981124 0.0091429501  0.017719441 -0.020464241 
  828000    294.34036    4424.5515    23887.872    29.848443  0.010442735 -0.0038767602 0.0037957293 
  829000     291.6901    5290.7665    23887.872    30.391783  0.004836718 0.0069784812  0.011184358 
  830000    296.73075    5025.8677    23887.872    30.372994 -0.0033734385 -0.0013007745 0.0048907659 
  831000    295.00945     6033.486    23887.872    29.863376    0.0045283 0.0006610565 -0.0017969377 
  832000    297.49502    7108.2359    23887.872    29.190915 -0.0011658637 -0.0038998491 0.0021262645 
  833000    298.18827    6798.4575    23887.872    28.870639 -0.0010653031 0.0079124335 -0.0070893648 
  834000    298.69258    4626.6962    23887.872    28.478838 0.0058913922 0.0034616143 -0.014652353 
  835000    300.44625    5148.2075    23887.872    28.752111 0.0054105652 -0.014315935 0.0087837847 
  836000    303.09981    3707.7308    23887.872    28.488405 0.0021456729 -0.0091648651 -0.0080311046 
  837000    300.74877    5860.1504    23887.872    28.211753 0.0084796281 0.0011103211 -0.010762419 
  838000    297.45372    5248.2381    23887.872    27.890983 -0.0064678991 -0.0010226759 0.0094943607 
  839000    297.96564    3235.3625    23887.872    27.443589 0.0046691772 -0.0088709051 -0.011161972 
  840000    303.92335    3808.6745    23887.872    26.860405 -0.00071695854 0.0053493025 0.0086020897 
  841000    304.23564    7191.1726    23887.872    26.170725 -0.0097303353 0.00011539797 -0.0029930458 
  842000     299.5531    6589.7322    23887.872    25.693149 -0.0064223417 -0.012723145 0.0005187409 
  843000    300.59961    5764.0253    23887.872    25.336779 -0.0039091461 0.0042279595 -0.0079042055 
  844000    298.44274    4133.2802    23887.872    25.143453   0.01533086 0.0037542351 -0.0064168696 
  845000    298.20594    7063.4807    23887.872    25.010675 0.0013990044  0.015141937 0.0062288777 
  846000    301.17537    4233.2468    23887.872    25.097445 -0.015185571 0.0072165624 0.0026357666 
  847000    298.98343    4519.0607    23887.872    25.228337 0.0095916503 -0.0033623286 -0.0068197062 
  848000    297.78379    6482.2885    23887.872    25.038813 -0.010053812  0.010229054 -0.012818815 
  849000    300.04322    5071.2131    23887.872    25.279456 -0.0076090227 0.0070329915 -0.0082173312 
  850000    299.92915    3566.0132    23887.872    25.928649 0.0028904855 0.00084132715 -0.003439904 
  851000     292.7454    3743.1654    23887.872    26.729063 -0.0025766705 0.0027380069 -0.00047212861 
  852000    290.71607    5576.0578    23887.872    27.444687 0.0093180484 -0.001781182 -0.0065326175 
  853000    293.64045    6370.1502    23887.872    27.474765 0.0049983835 -0.012842723 0.0057468275 
  854000    296.28048    4104.4701    23887.872    27.159471  0.011877644 -0.00055086741 -0.0079794721 
  855000    297.11816    5247.8151    23887.872    26.777263 -0.0018282743  0.010780009 -0.020384623 
  856000      304.297    6647.1414    23887.872    27.485207  0.015273526 -0.0035100026 -0.0083998926 
  857000    294.86133    5793.4854    23887.872    28.567256 0.0051246958 0.0069546509 -0.0037052134 
  858000    299.77069    4492.7517    23887.872    29.226052 0.0014333001  0.013397937 -0.019585793 
  859000    293.96878    4595.2145    23887.872    29.584227 -0.002068724  0.008867032 -0.00082014024 
  860000    299.84353    4933.4794    23887.872    30.053276 -0.0052921473 0.0005726588  0.014877492 
  861000    300.85842    4315.4749    23887.872    30.419045 -0.003003272 -0.013516498  0.010362882 
  862000    305.19072    6067.5974    23887.872    30.758942 0.0043427603 -0.0057863211 0.0020386839 
  863000    303.13629    5766.1891    23887.872    30.879164 0.0089334363 0.0015019947 -0.0033660504 
  864000    293.65774     5794.711    23887.872    30.445224 -0.0045639874  0.011480227 0.0023665931 
  865000    296.19724    3724.1127    23887.872    29.708235 0.00055493884  0.012456059 -0.00080137004 
  866000    292.96115    4293.4916    23887.872    28.694725  0.015604373 0.00070924456 -0.010240509 
  867000    299.45529    6907.5613    23887.872    27.736514 0.0013022509 0.00063761524 -0.0061362452 
  868000    295.88379    6223.0172    23887.872    26.796911 -0.010298557 -0.003016948 0.0011314882 
  869000    302.02676    4018.4649    23887.872    26.837512 -0.0025842062 -0.00088208266 -0.012746916 
  870000    302.72072    6825.1185    23887.872     27.60338 -0.0086976798 -0.0067825556 0.00071643236 
  871000    298.45672    5555.1966    23887.872    28.210732 -0.0073081383 -0.0033657327 -0.0074633855 
  872000    304.24859    3529.7744    23887.872    28.105478 0.00039589868 -0.010554917 -0.011356331 
  873000    295.01353    4370.5483    23887.872    27.353006 0.0089015575 -0.0093964537 -0.0039611987 
  874000    296.81063    7010.7222    23887.872     26.90571 -0.0038285578  0.013078075 0.0075557236 
  875000     296.7127    6365.4824    23887.872    26.687039 0.0034388789  0.013515678 0.0069150466 
  876000    299.13552    5971.8626    23887.872    26.331422 -0.0028547173 0.0089085016  0.012944045 
  877000    301.61005    4607.9795    23887.872    26.306397  0.020485056 -0.0089770433  0.011460508 
  878000    299.17467    5323.8089    23887.872    26.736355 0.00069511356 0.00046955093  0.017568452 
  879000    296.83965    4729.7803    23887.872    27.740516 0.0034501747 -0.0032209438 -0.0058433353 
  880000    290.67011     4428.151    23887.872    28.668297 -0.0095569234 0.0058958697 0.0050235311 
  881000    295.70892    6704.3386    23887.872    29.037191  -0.01545647 -0.00010068914  0.020592242 
  882000     303.7504    5292.1557    23887.872    28.842284 -0.024903883 -0.0018898014 0.0062155843 
  883000     294.4141    6494.4613    23887.872    28.158194 -0.011883329 0.0078999346 0.00024034882 
  884000     297.9013    4338.3045    23887.872    28.248012 -0.0083355933 0.00099454622 0.0082879999 
  885000    301.13127    4358.7552    23887.872    28.730363  0.014534201 -0.0028332657  -0.01127624 
  886000    301.76075    4881.4109    23887.872    28.721947 -0.0064394729 0.0056459254 -0.0037150087 
  887000    300.95675    3463.3499    23887.872    29.193149  0.011694046 -0.0050741932 -0.005574095 
  888000    295.94208    7687.6177    23887.872    29.280992 0.0043519986 -0.0064044516 0.0090612137 
  889000    301.54416     5681.666    23887.872    29.025313 0.0080815549 0.0067783108 -0.0014372477 
  890000    303.04683    4041.5759    23887.872    28.909198 -0.0013353822 -0.0032540421 -0.0031788671 
  891000    304.17527    4069.5895    23887.872    28.963824 0.0062649193 -0.0054765243 0.0094103032 
  892000    294.20406    6177.9323    23887.872    29.001522 0.0020153242  -0.01041059 -0.0031358683 
  893000    303.22183    7887.5505    23887.872    29.010028 -0.013545683 -0.0097265571 -0.0043956411 
  894000    298.22529    4947.7772    23887.872    28.850052 -0.0021573002 0.0013965677 -0.0079066153 
  895000    291.66769    2574.4544    23887.872    28.700018 0.0012107003 -0.010562147 0.0053249749 
  896000    299.89655    3842.4655    23887.872    28.238485 0.0083407073 -0.0085746524 0.00041262671 
  897000      308.354    7845.1564    23887.872    27.823197 -0.0074368745 -0.0041901587 0.0055393632 
  898000    297.73881    6402.6925    23887.872     27.58119 -0.0063524236 0.0063480868 0.0075031971 
  899000    303.69679    3214.3379    23887.872    28.077425 -0.0022475923  0.011122786 -0.011673221 
  900000    298.50164    3590.1005    23887.872    28.520358 0.0012691051  0.011616664  0.002890888 
  901000    295.24147    6098.8431    23887.872    28.948896 -0.0083200527 0.0089392593 -0.013673506 
  902000    302.81979    6493.6903    23887.872    29.517859 -0.0039449121 -0.011746727 -0.00043596663 
  903000    303.66225     2501.689    23887.872    29.722011  0.001491529 -0.014551708 -0.020314674 
  904000    307.74725     5057.059    23887.872    29.156546 -0.0047702756 0.0058769833 -0.0043991581 
  905000    297.53847    7108.5433    23887.872    27.987674 -0.0062849482  0.012079598 -0.0081481836 
  906000    300.41806    2845.0917    23887.872    26.709969 0.00063153674 0.0086300468  0.010695364 
  907000    304.14801    3702.4554    23887.872    26.183101 -0.018473665 -0.0065855463 -0.00017770235 
  908000    297.02039    6121.0738    23887.872    26.497847 -0.0011471798 0.00034861037 -0.0084180233 
  909000    294.27687    7125.6815    23887.872    26.737752  -0.01508294 -0.0098025803  0.011953209 
  910000    296.01282    4255.1579    23887.872    27.227183  0.008279575 0.0052192164 -0.0052895146 
  911000    295.11372    6476.9779    23887.872    27.793611 -0.0091910783 -0.0066951013 -0.014294572 
  912000    299.49083    6159.8205    23887.872    27.301127 0.0072294136 -0.0067715073  0.027418236 
  913000    298.52766    4425.4624    23887.872    26.659146 -0.010159206 -0.0099697071 0.0034396296 
  914000    299.79095    4099.8119    23887.872    26.331279 -0.0045822497 -0.016000041 0.0045006294 
  915000     295.9279    5406.1494    23887.872    26.089741 -0.011355974 -0.015136802 0.0040902014 
  916000    290.38581    7064.0857    23887.872    25.896704 0.0052154896 0.0035371393 0.0024380123 
  917000    300.50694     4106.859    23887.872    26.341606 -0.0038379153 0.0093142722  0.006179361 
  918000     293.3645    4960.5403    23887.872    27.371728 0.00094468425 -0.0022627963 -0.013650317 
  919000    291.66751    5839.1101    23887.872    27.934424 -0.0064654244 -0.0028306829 -0.001761341 
  920000    301.11876    3942.2741    23887.872    27.798144 -0.0065120795 0.0045469602 0.0010595571 
  921000    298.04205    5226.1356    23887.872    27.268972 0.00091444075 -0.020026563 0.0043051796 
  922000    299.30359    5421.9377    23887.872    26.603799 -0.00046901003 -0.0041265112 0.0037460584 
  923000    299.71041    4277.7573    23887.872    25.848346 0.00084650424 0.0038098091 0.0094956486 
  924000    296.78353    4044.6556    23887.872    25.412585 -0.006273868 -0.0040088083   0.01112782 
  925000    299.28697    7895.4109    23887.872    25.589548   -0.0165594  0.010047106  0.011116369 
  926000    290.98609     4341.751    23887.872    25.888311 -0.016500739 -0.0036737442 0.0078066068 
  927000    297.33113    3279.8453    23887.872    26.029418 0.0076433401 -0.0024540178 -0.0013331727 
  928000    291.85405    5145.6578    23887.872    25.862872 -0.016975178 0.0020284415 0.0032745076 
  929000    301.38241    5571.7539    23887.872    25.692016  0.012500384  0.013336986 0.0019901805 
  930000    296.56024    2975.0168    23887.872    25.787895 -0.0055814558 -0.0022255384 0.00015485152 
  931000    296.83262    4190.3768    23887.872    25.807223 0.0007431779 -0.010115397 -0.012686125 
  932000    298.14411    6235.9817    23887.872    26.222408 -0.0007004569 -0.006873408 -0.015520234 
  933000    299.48508    6085.5758    23887.872    27.406113 0.0060020262  0.014466568 -0.00099568971 
  934000    303.21226    1868.1798    23887.872    28.594275 -0.0017911242 -0.004498651 -9.3951724e-06 
  935000    296.92675    3511.6559    23887.872    29.295551 0.0021988828 0.00016643389 0.0014021037 
  936000    300.44027    6298.5254    23887.872    29.317414 -0.011805972 -0.0071350832 -0.0097352849 
  937000    301.96674    4948.4118    23887.872    29.309119 -0.0010119496 0.00072495431 -0.003273889 
  938000    303.24086    2417.4748    23887.872    28.958341 0.0092366664 -0.0080833916 -0.010631559 
  939000    294.75658    5466.9635    23887.872    28.374328 -0.008317736 0.0012242962 -0.019245975 
  940000    298.26231     7562.231    23887.872    27.602675 -0.0099430083 -0.0017343011 0.0074265831 
  941000    297.76723    6484.2853    23887.872    26.693054 -0.00071085792 6.5985219e-05 0.0026492712 
  942000    301.79398    783.90034    23887.872    26.199406 -0.0063794873 -0.0093392606 -0.0067053435 
  943000    297.94257    3571.2079    23887.872    26.201751  0.013913849 0.0057044276 -0.0012938729 
  944000    299.13124    7190.0825    23887.872    27.087271 -0.010306597  0.011309647 -0.0086657534 
  945000    300.85972    7212.8893    23887.872     27.87833 0.0048033628 -0.0035221848  0.018292053 
  946000    302.51008    3864.9634    23887.872    28.591085  0.011211345  0.018202204  0.004430901 
  947000    298.34175    5046.8073    23887.872    28.917792  0.019165552 -0.004861099  0.002583616 
  948000    298.37518    4385.3237    23887.872    28.686257 0.0096788513 -0.0030148704  -0.01113633 
  949000     304.0169    5673.0113    23887.872    28.043456 0.0050211062  0.013356272 -0.0044841406 
  950000     293.5094    5963.8409    23887.872     26.87242 0.0075141817 0.0014770132  -0.01014783 
  951000    300.17371    2431.6852    23887.872     25.97196 0.0024744739 0.0038860293 0.00090877582 
  952000    306.02221     4321.288    23887.872    25.740069 0.0035534284 -0.0033580187  0.021232298 
  953000     296.5284    5272.3592    23887.872    25.778636 0.0036690947 0.0071610462 0.0010256869 
  954000     297.6076    6430.1446    23887.872    26.236658 0.0058503252 0.0074259954 0.0029607687 
  955000    300.12315    4890.3785    23887.872    26.573538 -0.0073556121  0.012677233 -0.0040345019 
  956000    299.77531     2047.371    23887.872    27.171204 0.00031809316 0.0078004325 -0.0049599482 
  957000    304.26303    4649.6099    23887.872    27.563779  -0.01440449 -0.0040959941 -0.0067164328 
  958000    290.70005    6366.5482    23887.872    27.732006 -0.0036671233 0.00059260288 -0.0066472277 
  959000    295.67469    4358.1522    23887.872    28.430586 -0.0070823818 0.0058698446 0.00071423098 
  960000     297.4057    3192.2024    23887.872    29.177718 -0.0097839985 0.0069085034 0.0038799186 
  961000    296.89526    5900.1543    23887.872    28.898942 -0.0088677604 0.0038539471 0.0017861383 
  962000    303.71035    4185.0346    23887.872    28.708561 0.00012314496 -0.0077949424   0.00352428 
  963000    300.91697    4720.5417    23887.872    28.294206 0.0058507486 0.0036543937  -0.01034535 
  964000     296.2486    6389.1021    23887.872    27.653819   0.02130188 -0.0011544409 0.0014971923 
  965000    295.34535    7237.8323    23887.872    27.044426 0.0058631021  0.012135212 0.0035342013 
  966000    293.58433    3802.9827    23887.872      26.5669 0.0064441965 -0.0030877394 0.0060199687 
  967000    296.54046    2150.0015    23887.872    26.577553 0.0015407676 0.0014216444  0.015110215 
  968000    302.10771    3831.5128    23887.872    27.190073 0.0030092811 -0.009862812 -0.0060925359 
  969000    298.42386    7754.5148    23887.872    27.949221  0.018540357 -0.015732655 0.0020340161 
  970000    299.01066    4225.8918    23887.872     28.16875 0.0088447396 -0.0036706677 -0.0066389846 
  971000    303.79398    3793.9905    23887.872    27.135002 -0.00033484372 0.00094060666 -0.0021873867 
  972000    301.65517     5710.559    23887.872    25.802567 -0.012622084 0.0087501825 -0.0064465184 
  973000    298.51415    5920.7201    23887.872    25.646118 0.0076569127 -0.014643621 -0.010378741 
  974000    298.69077    4197.3095    23887.872    26.394091 -0.011939761 0.0049509714 -0.0059708116 
  975000    303.91784    6424.3927    23887.872    26.803112 -0.0050493264 -0.0017413085 0.0043748985 
  976000    302.03817    5052.8361    23887.872     26.60064 -0.00076956573 -0.0093230521 0.0045454494 
  977000    299.43147    3521.7446    23887.872    26.119533  -0.01236613 -0.0014751356 -0.0088960627 
  978000    302.78053    2935.3288    23887.872    25.946941 0.0062344336 0.0036788888 -0.0027993035 
  979000    297.41135    6812.3974    23887.872    25.804015  0.014734063 0.0013126155 0.0011133928 
  980000    300.54651    6539.0192    23887.872    26.078203  0.016957102 0.0088800139  0.000498317 
  981000    294.36649    3561.6062    23887.872    26.589324  0.013246441  0.011606696  0.005745366 
  982000    291.93855     4348.802    23887.872    27.094003 0.0045259206 -0.0040592764 -0.0018600717 
  983000    289.58897    7952.7363    23887.872    27.364347 -0.0076744443 0.0015159738 0.0083489919 
  984000    298.81732    4979.2646    23887.872    27.371814 0.0067361171 0.0078213967 -2.0684159e-05 
  985000    303.33088    2058.4983    23887.872    27.126809 -0.0076375928 0.0099617852 -0.00086123024 
  986000    289.19799    7899.1906    23887.872    26.896476 -0.00088818469  0.001774656 0.0048765069 
  987000    305.04643    7603.4323    23887.872    26.917776 -0.0042177856 -0.0043483378    0.0082134 
  988000    298.94681    4887.5622    23887.872    26.962932 -0.0071416578  0.012835286 -0.0042522533 
  989000    290.55787    4509.9286    23887.872    26.861866 -0.0041686495 0.0074340155 0.0014012783 
  990000    291.40263    5210.0411    23887.872    26.589237 -0.00070826392 -0.0030141737 0.0099766055 
  991000    302.49261    6491.8442    23887.872    26.111323 -0.0052376679 -0.011121729 0.0045252855 
  992000     300.2179    3845.5925    23887.872    26.129412 -0.0082185187 0.00089333253 0.0050346293 
  993000    300.17999    3823.3804    23887.872    26.385117 -0.0085498005 0.00077448111 -0.00045606036 
  994000    301.47577    6101.9846    23887.872    26.530011 -0.006434471 0.0034590329 -0.0096675144 
  995000    292.82652    6579.5131    23887.872    27.120386 -0.0058055798  0.013256008 -0.016384283 
  996000    290.38736    3463.1307    23887.872    27.890589 -0.0058207522 0.0071208491 0.0059011489 
  997000    292.26501    3124.2751    23887.872    28.467432  0.004836208 0.0048099401 -0.015802155 
  998000    289.26944    4761.2849    23887.872    28.330147 -0.0049249593 -0.013753098  0.006164901 
  999000    295.39209    8804.4029    23887.872    27.786683   0.00694611 0.0021410911  -0.01759006 
 1000000    302.18451    5163.8226    23887.872    27.386116 -0.015627414 -0.0057668597 -0.00018931808 
Loop time of 22216.7 on 16 procs for 1000000 steps with 1920 atoms

Pair  time (%) = 19240.1 (86.6017)
Bond  time (%) = 0.510577 (0.00229817)
Neigh time (%) = 39.6142 (0.178308)
Comm  time (%) = 2374.86 (10.6895)
Outpt time (%) = 5.4969 (0.0247422)
Other time (%) = 556.182 (2.50344)

Nlocal:    120 ave 123 max 114 min
Histogram: 1 0 1 0 2 2 2 3 2 3
Nghost:    4978.69 ave 5020 max 4950 min
Histogram: 2 2 2 3 2 2 0 0 1 2
Neighs:    52878 ave 54729 max 50121 min
Histogram: 1 1 0 1 1 3 3 2 3 1
FullNghs: 105756 ave 108992 max 100484 min
Histogram: 1 1 0 1 2 1 2 4 2 2

Total # of neighbors = 1692096
Ave neighs/atom = 881.3
Ave special neighs/atom = 0
Neighbor list builds = 4621
Dangerous builds = 0
#	run			10000
	unfix			1
	uncompute		myKE
	uncompute		myPE
	uncompute		myStress
	uncompute		flux
	uncompute		myDis
	unfix			JJ

	next seed
	next iseed
jump lmp.in.gk loop_seed
variable iseed loop 10
variable seed index 11111 22222 33333 44444 55555 66666 77777 88888 99999 11110
clear
###########################################################################
#x0
###########################################################################
units 			metal
atom_style		full
read_data		fort.26
  0 = max bonds/atom
  0 = max angles/atom
  0 = max dihedrals/atom
  triclinic box = (0 0 0) to (28.8 28.8 28.8) with tilt (0 0 0)
  2 by 2 by 4 processor grid
  1920 atoms
  0 bonds
  0 angles
  0 dihedrals
  0 = max # of 1-2 neighbors
  0 = max # of 1-3 neighbors
  0 = max # of 1-4 neighbors
  1 = max # of special neighbors
group         		C type = 1
60 atoms in group C
###########################################################################
#OLPS
###########################################################################

################################################################################
#### Pair potentials
################################################################################
pair_style hybrid/overlay tersoff lj/cut 12.0
pair_coeff * * tersoff C.temp.tersoff 1 2 3 4 5 6 7 8 9 10 11 12 13 14 15 16 17 18 19 20 21 22 23 24 25 26 27 28 29 30 31 32
pair_coeff 1 2 lj/cut 0.00070000000 3.5500000000
pair_coeff 1 3 lj/cut 0.00070000000 3.5500000000
pair_coeff 1 4 lj/cut 0.00070000000 3.5500000000
pair_coeff 1 5 lj/cut 0.00070000000 3.5500000000
pair_coeff 1 6 lj/cut 0.00070000000 3.5500000000
pair_coeff 1 7 lj/cut 0.00070000000 3.5500000000
pair_coeff 1 8 lj/cut 0.00070000000 3.5500000000
pair_coeff 1 9 lj/cut 0.00070000000 3.5500000000
pair_coeff 1 10 lj/cut 0.00070000000 3.5500000000
pair_coeff 1 11 lj/cut 0.00070000000 3.5500000000
pair_coeff 1 12 lj/cut 0.00070000000 3.5500000000
pair_coeff 1 13 lj/cut 0.00070000000 3.5500000000
pair_coeff 1 14 lj/cut 0.00070000000 3.5500000000
pair_coeff 1 15 lj/cut 0.00070000000 3.5500000000
pair_coeff 1 16 lj/cut 0.00070000000 3.5500000000
pair_coeff 1 17 lj/cut 0.00070000000 3.5500000000
pair_coeff 1 18 lj/cut 0.00070000000 3.5500000000
pair_coeff 1 19 lj/cut 0.00070000000 3.5500000000
pair_coeff 1 20 lj/cut 0.00070000000 3.5500000000
pair_coeff 1 21 lj/cut 0.00070000000 3.5500000000
pair_coeff 1 22 lj/cut 0.00070000000 3.5500000000
pair_coeff 1 23 lj/cut 0.00070000000 3.5500000000
pair_coeff 1 24 lj/cut 0.00070000000 3.5500000000
pair_coeff 1 25 lj/cut 0.00070000000 3.5500000000
pair_coeff 1 26 lj/cut 0.00070000000 3.5500000000
pair_coeff 1 27 lj/cut 0.00070000000 3.5500000000
pair_coeff 1 28 lj/cut 0.00070000000 3.5500000000
pair_coeff 1 29 lj/cut 0.00070000000 3.5500000000
pair_coeff 1 30 lj/cut 0.00070000000 3.5500000000
pair_coeff 1 31 lj/cut 0.00070000000 3.5500000000
pair_coeff 1 32 lj/cut 0.00070000000 3.5500000000

pair_coeff 2 3 lj/cut 0.00070000000 3.5500000000
pair_coeff 2 4 lj/cut 0.00070000000 3.5500000000
pair_coeff 2 5 lj/cut 0.00070000000 3.5500000000
pair_coeff 2 6 lj/cut 0.00070000000 3.5500000000
pair_coeff 2 7 lj/cut 0.00070000000 3.5500000000
pair_coeff 2 8 lj/cut 0.00070000000 3.5500000000
pair_coeff 2 9 lj/cut 0.00070000000 3.5500000000
pair_coeff 2 10 lj/cut 0.00070000000 3.5500000000
pair_coeff 2 11 lj/cut 0.00070000000 3.5500000000
pair_coeff 2 12 lj/cut 0.00070000000 3.5500000000
pair_coeff 2 13 lj/cut 0.00070000000 3.5500000000
pair_coeff 2 14 lj/cut 0.00070000000 3.5500000000
pair_coeff 2 15 lj/cut 0.00070000000 3.5500000000
pair_coeff 2 16 lj/cut 0.00070000000 3.5500000000
pair_coeff 2 17 lj/cut 0.00070000000 3.5500000000
pair_coeff 2 18 lj/cut 0.00070000000 3.5500000000
pair_coeff 2 19 lj/cut 0.00070000000 3.5500000000
pair_coeff 2 20 lj/cut 0.00070000000 3.5500000000
pair_coeff 2 21 lj/cut 0.00070000000 3.5500000000
pair_coeff 2 22 lj/cut 0.00070000000 3.5500000000
pair_coeff 2 23 lj/cut 0.00070000000 3.5500000000
pair_coeff 2 24 lj/cut 0.00070000000 3.5500000000
pair_coeff 2 25 lj/cut 0.00070000000 3.5500000000
pair_coeff 2 26 lj/cut 0.00070000000 3.5500000000
pair_coeff 2 27 lj/cut 0.00070000000 3.5500000000
pair_coeff 2 28 lj/cut 0.00070000000 3.5500000000
pair_coeff 2 29 lj/cut 0.00070000000 3.5500000000
pair_coeff 2 30 lj/cut 0.00070000000 3.5500000000
pair_coeff 2 31 lj/cut 0.00070000000 3.5500000000
pair_coeff 2 32 lj/cut 0.00070000000 3.5500000000

pair_coeff 3 4 lj/cut 0.00070000000 3.5500000000
pair_coeff 3 5 lj/cut 0.00070000000 3.5500000000
pair_coeff 3 6 lj/cut 0.00070000000 3.5500000000
pair_coeff 3 7 lj/cut 0.00070000000 3.5500000000
pair_coeff 3 8 lj/cut 0.00070000000 3.5500000000
pair_coeff 3 9 lj/cut 0.00070000000 3.5500000000
pair_coeff 3 10 lj/cut 0.00070000000 3.5500000000
pair_coeff 3 11 lj/cut 0.00070000000 3.5500000000
pair_coeff 3 12 lj/cut 0.00070000000 3.5500000000
pair_coeff 3 13 lj/cut 0.00070000000 3.5500000000
pair_coeff 3 14 lj/cut 0.00070000000 3.5500000000
pair_coeff 3 15 lj/cut 0.00070000000 3.5500000000
pair_coeff 3 16 lj/cut 0.00070000000 3.5500000000
pair_coeff 3 17 lj/cut 0.00070000000 3.5500000000
pair_coeff 3 18 lj/cut 0.00070000000 3.5500000000
pair_coeff 3 19 lj/cut 0.00070000000 3.5500000000
pair_coeff 3 20 lj/cut 0.00070000000 3.5500000000
pair_coeff 3 21 lj/cut 0.00070000000 3.5500000000
pair_coeff 3 22 lj/cut 0.00070000000 3.5500000000
pair_coeff 3 23 lj/cut 0.00070000000 3.5500000000
pair_coeff 3 24 lj/cut 0.00070000000 3.5500000000
pair_coeff 3 25 lj/cut 0.00070000000 3.5500000000
pair_coeff 3 26 lj/cut 0.00070000000 3.5500000000
pair_coeff 3 27 lj/cut 0.00070000000 3.5500000000
pair_coeff 3 28 lj/cut 0.00070000000 3.5500000000
pair_coeff 3 29 lj/cut 0.00070000000 3.5500000000
pair_coeff 3 30 lj/cut 0.00070000000 3.5500000000
pair_coeff 3 31 lj/cut 0.00070000000 3.5500000000
pair_coeff 3 32 lj/cut 0.00070000000 3.5500000000

pair_coeff 4 5 lj/cut 0.00070000000 3.5500000000
pair_coeff 4 6 lj/cut 0.00070000000 3.5500000000
pair_coeff 4 7 lj/cut 0.00070000000 3.5500000000
pair_coeff 4 8 lj/cut 0.00070000000 3.5500000000
pair_coeff 4 9 lj/cut 0.00070000000 3.5500000000
pair_coeff 4 10 lj/cut 0.00070000000 3.5500000000
pair_coeff 4 11 lj/cut 0.00070000000 3.5500000000
pair_coeff 4 12 lj/cut 0.00070000000 3.5500000000
pair_coeff 4 13 lj/cut 0.00070000000 3.5500000000
pair_coeff 4 14 lj/cut 0.00070000000 3.5500000000
pair_coeff 4 15 lj/cut 0.00070000000 3.5500000000
pair_coeff 4 16 lj/cut 0.00070000000 3.5500000000
pair_coeff 4 17 lj/cut 0.00070000000 3.5500000000
pair_coeff 4 18 lj/cut 0.00070000000 3.5500000000
pair_coeff 4 19 lj/cut 0.00070000000 3.5500000000
pair_coeff 4 20 lj/cut 0.00070000000 3.5500000000
pair_coeff 4 21 lj/cut 0.00070000000 3.5500000000
pair_coeff 4 22 lj/cut 0.00070000000 3.5500000000
pair_coeff 4 23 lj/cut 0.00070000000 3.5500000000
pair_coeff 4 24 lj/cut 0.00070000000 3.5500000000
pair_coeff 4 25 lj/cut 0.00070000000 3.5500000000
pair_coeff 4 26 lj/cut 0.00070000000 3.5500000000
pair_coeff 4 27 lj/cut 0.00070000000 3.5500000000
pair_coeff 4 28 lj/cut 0.00070000000 3.5500000000
pair_coeff 4 29 lj/cut 0.00070000000 3.5500000000
pair_coeff 4 30 lj/cut 0.00070000000 3.5500000000
pair_coeff 4 31 lj/cut 0.00070000000 3.5500000000
pair_coeff 4 32 lj/cut 0.00070000000 3.5500000000

pair_coeff 5 6 lj/cut 0.00070000000 3.5500000000
pair_coeff 5 7 lj/cut 0.00070000000 3.5500000000
pair_coeff 5 8 lj/cut 0.00070000000 3.5500000000
pair_coeff 5 9 lj/cut 0.00070000000 3.5500000000
pair_coeff 5 10 lj/cut 0.00070000000 3.5500000000
pair_coeff 5 11 lj/cut 0.00070000000 3.5500000000
pair_coeff 5 12 lj/cut 0.00070000000 3.5500000000
pair_coeff 5 13 lj/cut 0.00070000000 3.5500000000
pair_coeff 5 14 lj/cut 0.00070000000 3.5500000000
pair_coeff 5 15 lj/cut 0.00070000000 3.5500000000
pair_coeff 5 16 lj/cut 0.00070000000 3.5500000000
pair_coeff 5 17 lj/cut 0.00070000000 3.5500000000
pair_coeff 5 18 lj/cut 0.00070000000 3.5500000000
pair_coeff 5 19 lj/cut 0.00070000000 3.5500000000
pair_coeff 5 20 lj/cut 0.00070000000 3.5500000000
pair_coeff 5 21 lj/cut 0.00070000000 3.5500000000
pair_coeff 5 22 lj/cut 0.00070000000 3.5500000000
pair_coeff 5 23 lj/cut 0.00070000000 3.5500000000
pair_coeff 5 24 lj/cut 0.00070000000 3.5500000000
pair_coeff 5 25 lj/cut 0.00070000000 3.5500000000
pair_coeff 5 26 lj/cut 0.00070000000 3.5500000000
pair_coeff 5 27 lj/cut 0.00070000000 3.5500000000
pair_coeff 5 28 lj/cut 0.00070000000 3.5500000000
pair_coeff 5 29 lj/cut 0.00070000000 3.5500000000
pair_coeff 5 30 lj/cut 0.00070000000 3.5500000000
pair_coeff 5 31 lj/cut 0.00070000000 3.5500000000
pair_coeff 5 32 lj/cut 0.00070000000 3.5500000000

pair_coeff 6 7 lj/cut 0.00070000000 3.5500000000
pair_coeff 6 8 lj/cut 0.00070000000 3.5500000000
pair_coeff 6 9 lj/cut 0.00070000000 3.5500000000
pair_coeff 6 10 lj/cut 0.00070000000 3.5500000000
pair_coeff 6 11 lj/cut 0.00070000000 3.5500000000
pair_coeff 6 12 lj/cut 0.00070000000 3.5500000000
pair_coeff 6 13 lj/cut 0.00070000000 3.5500000000
pair_coeff 6 14 lj/cut 0.00070000000 3.5500000000
pair_coeff 6 15 lj/cut 0.00070000000 3.5500000000
pair_coeff 6 16 lj/cut 0.00070000000 3.5500000000
pair_coeff 6 17 lj/cut 0.00070000000 3.5500000000
pair_coeff 6 18 lj/cut 0.00070000000 3.5500000000
pair_coeff 6 19 lj/cut 0.00070000000 3.5500000000
pair_coeff 6 20 lj/cut 0.00070000000 3.5500000000
pair_coeff 6 21 lj/cut 0.00070000000 3.5500000000
pair_coeff 6 22 lj/cut 0.00070000000 3.5500000000
pair_coeff 6 23 lj/cut 0.00070000000 3.5500000000
pair_coeff 6 24 lj/cut 0.00070000000 3.5500000000
pair_coeff 6 25 lj/cut 0.00070000000 3.5500000000
pair_coeff 6 26 lj/cut 0.00070000000 3.5500000000
pair_coeff 6 27 lj/cut 0.00070000000 3.5500000000
pair_coeff 6 28 lj/cut 0.00070000000 3.5500000000
pair_coeff 6 29 lj/cut 0.00070000000 3.5500000000
pair_coeff 6 30 lj/cut 0.00070000000 3.5500000000
pair_coeff 6 31 lj/cut 0.00070000000 3.5500000000
pair_coeff 6 32 lj/cut 0.00070000000 3.5500000000

pair_coeff 7 8 lj/cut 0.00070000000 3.5500000000
pair_coeff 7 9 lj/cut 0.00070000000 3.5500000000
pair_coeff 7 10 lj/cut 0.00070000000 3.5500000000
pair_coeff 7 11 lj/cut 0.00070000000 3.5500000000
pair_coeff 7 12 lj/cut 0.00070000000 3.5500000000
pair_coeff 7 13 lj/cut 0.00070000000 3.5500000000
pair_coeff 7 14 lj/cut 0.00070000000 3.5500000000
pair_coeff 7 15 lj/cut 0.00070000000 3.5500000000
pair_coeff 7 16 lj/cut 0.00070000000 3.5500000000
pair_coeff 7 17 lj/cut 0.00070000000 3.5500000000
pair_coeff 7 18 lj/cut 0.00070000000 3.5500000000
pair_coeff 7 19 lj/cut 0.00070000000 3.5500000000
pair_coeff 7 20 lj/cut 0.00070000000 3.5500000000
pair_coeff 7 21 lj/cut 0.00070000000 3.5500000000
pair_coeff 7 22 lj/cut 0.00070000000 3.5500000000
pair_coeff 7 23 lj/cut 0.00070000000 3.5500000000
pair_coeff 7 24 lj/cut 0.00070000000 3.5500000000
pair_coeff 7 25 lj/cut 0.00070000000 3.5500000000
pair_coeff 7 26 lj/cut 0.00070000000 3.5500000000
pair_coeff 7 27 lj/cut 0.00070000000 3.5500000000
pair_coeff 7 28 lj/cut 0.00070000000 3.5500000000
pair_coeff 7 29 lj/cut 0.00070000000 3.5500000000
pair_coeff 7 30 lj/cut 0.00070000000 3.5500000000
pair_coeff 7 31 lj/cut 0.00070000000 3.5500000000
pair_coeff 7 32 lj/cut 0.00070000000 3.5500000000

pair_coeff 8 9 lj/cut 0.00070000000 3.5500000000
pair_coeff 8 10 lj/cut 0.00070000000 3.5500000000
pair_coeff 8 11 lj/cut 0.00070000000 3.5500000000
pair_coeff 8 12 lj/cut 0.00070000000 3.5500000000
pair_coeff 8 13 lj/cut 0.00070000000 3.5500000000
pair_coeff 8 14 lj/cut 0.00070000000 3.5500000000
pair_coeff 8 15 lj/cut 0.00070000000 3.5500000000
pair_coeff 8 16 lj/cut 0.00070000000 3.5500000000
pair_coeff 8 17 lj/cut 0.00070000000 3.5500000000
pair_coeff 8 18 lj/cut 0.00070000000 3.5500000000
pair_coeff 8 19 lj/cut 0.00070000000 3.5500000000
pair_coeff 8 20 lj/cut 0.00070000000 3.5500000000
pair_coeff 8 21 lj/cut 0.00070000000 3.5500000000
pair_coeff 8 22 lj/cut 0.00070000000 3.5500000000
pair_coeff 8 23 lj/cut 0.00070000000 3.5500000000
pair_coeff 8 24 lj/cut 0.00070000000 3.5500000000
pair_coeff 8 25 lj/cut 0.00070000000 3.5500000000
pair_coeff 8 26 lj/cut 0.00070000000 3.5500000000
pair_coeff 8 27 lj/cut 0.00070000000 3.5500000000
pair_coeff 8 28 lj/cut 0.00070000000 3.5500000000
pair_coeff 8 29 lj/cut 0.00070000000 3.5500000000
pair_coeff 8 30 lj/cut 0.00070000000 3.5500000000
pair_coeff 8 31 lj/cut 0.00070000000 3.5500000000
pair_coeff 8 32 lj/cut 0.00070000000 3.5500000000

pair_coeff 9 10 lj/cut 0.00070000000 3.5500000000
pair_coeff 9 11 lj/cut 0.00070000000 3.5500000000
pair_coeff 9 12 lj/cut 0.00070000000 3.5500000000
pair_coeff 9 13 lj/cut 0.00070000000 3.5500000000
pair_coeff 9 14 lj/cut 0.00070000000 3.5500000000
pair_coeff 9 15 lj/cut 0.00070000000 3.5500000000
pair_coeff 9 16 lj/cut 0.00070000000 3.5500000000
pair_coeff 9 17 lj/cut 0.00070000000 3.5500000000
pair_coeff 9 18 lj/cut 0.00070000000 3.5500000000
pair_coeff 9 19 lj/cut 0.00070000000 3.5500000000
pair_coeff 9 20 lj/cut 0.00070000000 3.5500000000
pair_coeff 9 21 lj/cut 0.00070000000 3.5500000000
pair_coeff 9 22 lj/cut 0.00070000000 3.5500000000
pair_coeff 9 23 lj/cut 0.00070000000 3.5500000000
pair_coeff 9 24 lj/cut 0.00070000000 3.5500000000
pair_coeff 9 25 lj/cut 0.00070000000 3.5500000000
pair_coeff 9 26 lj/cut 0.00070000000 3.5500000000
pair_coeff 9 27 lj/cut 0.00070000000 3.5500000000
pair_coeff 9 28 lj/cut 0.00070000000 3.5500000000
pair_coeff 9 29 lj/cut 0.00070000000 3.5500000000
pair_coeff 9 30 lj/cut 0.00070000000 3.5500000000
pair_coeff 9 31 lj/cut 0.00070000000 3.5500000000
pair_coeff 9 32 lj/cut 0.00070000000 3.5500000000

pair_coeff 10 11 lj/cut 0.00070000000 3.5500000000
pair_coeff 10 12 lj/cut 0.00070000000 3.5500000000
pair_coeff 10 13 lj/cut 0.00070000000 3.5500000000
pair_coeff 10 14 lj/cut 0.00070000000 3.5500000000
pair_coeff 10 15 lj/cut 0.00070000000 3.5500000000
pair_coeff 10 16 lj/cut 0.00070000000 3.5500000000
pair_coeff 10 17 lj/cut 0.00070000000 3.5500000000
pair_coeff 10 18 lj/cut 0.00070000000 3.5500000000
pair_coeff 10 19 lj/cut 0.00070000000 3.5500000000
pair_coeff 10 20 lj/cut 0.00070000000 3.5500000000
pair_coeff 10 21 lj/cut 0.00070000000 3.5500000000
pair_coeff 10 22 lj/cut 0.00070000000 3.5500000000
pair_coeff 10 23 lj/cut 0.00070000000 3.5500000000
pair_coeff 10 24 lj/cut 0.00070000000 3.5500000000
pair_coeff 10 25 lj/cut 0.00070000000 3.5500000000
pair_coeff 10 26 lj/cut 0.00070000000 3.5500000000
pair_coeff 10 27 lj/cut 0.00070000000 3.5500000000
pair_coeff 10 28 lj/cut 0.00070000000 3.5500000000
pair_coeff 10 29 lj/cut 0.00070000000 3.5500000000
pair_coeff 10 30 lj/cut 0.00070000000 3.5500000000
pair_coeff 10 31 lj/cut 0.00070000000 3.5500000000
pair_coeff 10 32 lj/cut 0.00070000000 3.5500000000

pair_coeff 11 12 lj/cut 0.00070000000 3.5500000000
pair_coeff 11 13 lj/cut 0.00070000000 3.5500000000
pair_coeff 11 14 lj/cut 0.00070000000 3.5500000000
pair_coeff 11 15 lj/cut 0.00070000000 3.5500000000
pair_coeff 11 16 lj/cut 0.00070000000 3.5500000000
pair_coeff 11 17 lj/cut 0.00070000000 3.5500000000
pair_coeff 11 18 lj/cut 0.00070000000 3.5500000000
pair_coeff 11 19 lj/cut 0.00070000000 3.5500000000
pair_coeff 11 20 lj/cut 0.00070000000 3.5500000000
pair_coeff 11 21 lj/cut 0.00070000000 3.5500000000
pair_coeff 11 22 lj/cut 0.00070000000 3.5500000000
pair_coeff 11 23 lj/cut 0.00070000000 3.5500000000
pair_coeff 11 24 lj/cut 0.00070000000 3.5500000000
pair_coeff 11 25 lj/cut 0.00070000000 3.5500000000
pair_coeff 11 26 lj/cut 0.00070000000 3.5500000000
pair_coeff 11 27 lj/cut 0.00070000000 3.5500000000
pair_coeff 11 28 lj/cut 0.00070000000 3.5500000000
pair_coeff 11 29 lj/cut 0.00070000000 3.5500000000
pair_coeff 11 30 lj/cut 0.00070000000 3.5500000000
pair_coeff 11 31 lj/cut 0.00070000000 3.5500000000
pair_coeff 11 32 lj/cut 0.00070000000 3.5500000000

pair_coeff 12 13 lj/cut 0.00070000000 3.5500000000
pair_coeff 12 14 lj/cut 0.00070000000 3.5500000000
pair_coeff 12 15 lj/cut 0.00070000000 3.5500000000
pair_coeff 12 16 lj/cut 0.00070000000 3.5500000000
pair_coeff 12 17 lj/cut 0.00070000000 3.5500000000
pair_coeff 12 18 lj/cut 0.00070000000 3.5500000000
pair_coeff 12 19 lj/cut 0.00070000000 3.5500000000
pair_coeff 12 20 lj/cut 0.00070000000 3.5500000000
pair_coeff 12 21 lj/cut 0.00070000000 3.5500000000
pair_coeff 12 22 lj/cut 0.00070000000 3.5500000000
pair_coeff 12 23 lj/cut 0.00070000000 3.5500000000
pair_coeff 12 24 lj/cut 0.00070000000 3.5500000000
pair_coeff 12 25 lj/cut 0.00070000000 3.5500000000
pair_coeff 12 26 lj/cut 0.00070000000 3.5500000000
pair_coeff 12 27 lj/cut 0.00070000000 3.5500000000
pair_coeff 12 28 lj/cut 0.00070000000 3.5500000000
pair_coeff 12 29 lj/cut 0.00070000000 3.5500000000
pair_coeff 12 30 lj/cut 0.00070000000 3.5500000000
pair_coeff 12 31 lj/cut 0.00070000000 3.5500000000
pair_coeff 12 32 lj/cut 0.00070000000 3.5500000000

pair_coeff 13 14 lj/cut 0.00070000000 3.5500000000
pair_coeff 13 15 lj/cut 0.00070000000 3.5500000000
pair_coeff 13 16 lj/cut 0.00070000000 3.5500000000
pair_coeff 13 17 lj/cut 0.00070000000 3.5500000000
pair_coeff 13 18 lj/cut 0.00070000000 3.5500000000
pair_coeff 13 19 lj/cut 0.00070000000 3.5500000000
pair_coeff 13 20 lj/cut 0.00070000000 3.5500000000
pair_coeff 13 21 lj/cut 0.00070000000 3.5500000000
pair_coeff 13 22 lj/cut 0.00070000000 3.5500000000
pair_coeff 13 23 lj/cut 0.00070000000 3.5500000000
pair_coeff 13 24 lj/cut 0.00070000000 3.5500000000
pair_coeff 13 25 lj/cut 0.00070000000 3.5500000000
pair_coeff 13 26 lj/cut 0.00070000000 3.5500000000
pair_coeff 13 27 lj/cut 0.00070000000 3.5500000000
pair_coeff 13 28 lj/cut 0.00070000000 3.5500000000
pair_coeff 13 29 lj/cut 0.00070000000 3.5500000000
pair_coeff 13 30 lj/cut 0.00070000000 3.5500000000
pair_coeff 13 31 lj/cut 0.00070000000 3.5500000000
pair_coeff 13 32 lj/cut 0.00070000000 3.5500000000

pair_coeff 14 15 lj/cut 0.00070000000 3.5500000000
pair_coeff 14 16 lj/cut 0.00070000000 3.5500000000
pair_coeff 14 17 lj/cut 0.00070000000 3.5500000000
pair_coeff 14 18 lj/cut 0.00070000000 3.5500000000
pair_coeff 14 19 lj/cut 0.00070000000 3.5500000000
pair_coeff 14 20 lj/cut 0.00070000000 3.5500000000
pair_coeff 14 21 lj/cut 0.00070000000 3.5500000000
pair_coeff 14 22 lj/cut 0.00070000000 3.5500000000
pair_coeff 14 23 lj/cut 0.00070000000 3.5500000000
pair_coeff 14 24 lj/cut 0.00070000000 3.5500000000
pair_coeff 14 25 lj/cut 0.00070000000 3.5500000000
pair_coeff 14 26 lj/cut 0.00070000000 3.5500000000
pair_coeff 14 27 lj/cut 0.00070000000 3.5500000000
pair_coeff 14 28 lj/cut 0.00070000000 3.5500000000
pair_coeff 14 29 lj/cut 0.00070000000 3.5500000000
pair_coeff 14 30 lj/cut 0.00070000000 3.5500000000
pair_coeff 14 31 lj/cut 0.00070000000 3.5500000000
pair_coeff 14 32 lj/cut 0.00070000000 3.5500000000

pair_coeff 15 16 lj/cut 0.00070000000 3.5500000000
pair_coeff 15 17 lj/cut 0.00070000000 3.5500000000
pair_coeff 15 18 lj/cut 0.00070000000 3.5500000000
pair_coeff 15 19 lj/cut 0.00070000000 3.5500000000
pair_coeff 15 20 lj/cut 0.00070000000 3.5500000000
pair_coeff 15 21 lj/cut 0.00070000000 3.5500000000
pair_coeff 15 22 lj/cut 0.00070000000 3.5500000000
pair_coeff 15 23 lj/cut 0.00070000000 3.5500000000
pair_coeff 15 24 lj/cut 0.00070000000 3.5500000000
pair_coeff 15 25 lj/cut 0.00070000000 3.5500000000
pair_coeff 15 26 lj/cut 0.00070000000 3.5500000000
pair_coeff 15 27 lj/cut 0.00070000000 3.5500000000
pair_coeff 15 28 lj/cut 0.00070000000 3.5500000000
pair_coeff 15 29 lj/cut 0.00070000000 3.5500000000
pair_coeff 15 30 lj/cut 0.00070000000 3.5500000000
pair_coeff 15 31 lj/cut 0.00070000000 3.5500000000
pair_coeff 15 32 lj/cut 0.00070000000 3.5500000000

pair_coeff 16 17 lj/cut 0.00070000000 3.5500000000
pair_coeff 16 18 lj/cut 0.00070000000 3.5500000000
pair_coeff 16 19 lj/cut 0.00070000000 3.5500000000
pair_coeff 16 20 lj/cut 0.00070000000 3.5500000000
pair_coeff 16 21 lj/cut 0.00070000000 3.5500000000
pair_coeff 16 22 lj/cut 0.00070000000 3.5500000000
pair_coeff 16 23 lj/cut 0.00070000000 3.5500000000
pair_coeff 16 24 lj/cut 0.00070000000 3.5500000000
pair_coeff 16 25 lj/cut 0.00070000000 3.5500000000
pair_coeff 16 26 lj/cut 0.00070000000 3.5500000000
pair_coeff 16 27 lj/cut 0.00070000000 3.5500000000
pair_coeff 16 28 lj/cut 0.00070000000 3.5500000000
pair_coeff 16 29 lj/cut 0.00070000000 3.5500000000
pair_coeff 16 30 lj/cut 0.00070000000 3.5500000000
pair_coeff 16 31 lj/cut 0.00070000000 3.5500000000
pair_coeff 16 32 lj/cut 0.00070000000 3.5500000000

pair_coeff 17 18 lj/cut 0.00070000000 3.5500000000
pair_coeff 17 19 lj/cut 0.00070000000 3.5500000000
pair_coeff 17 20 lj/cut 0.00070000000 3.5500000000
pair_coeff 17 21 lj/cut 0.00070000000 3.5500000000
pair_coeff 17 22 lj/cut 0.00070000000 3.5500000000
pair_coeff 17 23 lj/cut 0.00070000000 3.5500000000
pair_coeff 17 24 lj/cut 0.00070000000 3.5500000000
pair_coeff 17 25 lj/cut 0.00070000000 3.5500000000
pair_coeff 17 26 lj/cut 0.00070000000 3.5500000000
pair_coeff 17 27 lj/cut 0.00070000000 3.5500000000
pair_coeff 17 28 lj/cut 0.00070000000 3.5500000000
pair_coeff 17 29 lj/cut 0.00070000000 3.5500000000
pair_coeff 17 30 lj/cut 0.00070000000 3.5500000000
pair_coeff 17 31 lj/cut 0.00070000000 3.5500000000
pair_coeff 17 32 lj/cut 0.00070000000 3.5500000000

pair_coeff 18 19 lj/cut 0.00070000000 3.5500000000
pair_coeff 18 20 lj/cut 0.00070000000 3.5500000000
pair_coeff 18 21 lj/cut 0.00070000000 3.5500000000
pair_coeff 18 22 lj/cut 0.00070000000 3.5500000000
pair_coeff 18 23 lj/cut 0.00070000000 3.5500000000
pair_coeff 18 24 lj/cut 0.00070000000 3.5500000000
pair_coeff 18 25 lj/cut 0.00070000000 3.5500000000
pair_coeff 18 26 lj/cut 0.00070000000 3.5500000000
pair_coeff 18 27 lj/cut 0.00070000000 3.5500000000
pair_coeff 18 28 lj/cut 0.00070000000 3.5500000000
pair_coeff 18 29 lj/cut 0.00070000000 3.5500000000
pair_coeff 18 30 lj/cut 0.00070000000 3.5500000000
pair_coeff 18 31 lj/cut 0.00070000000 3.5500000000
pair_coeff 18 32 lj/cut 0.00070000000 3.5500000000

pair_coeff 19 20 lj/cut 0.00070000000 3.5500000000
pair_coeff 19 21 lj/cut 0.00070000000 3.5500000000
pair_coeff 19 22 lj/cut 0.00070000000 3.5500000000
pair_coeff 19 23 lj/cut 0.00070000000 3.5500000000
pair_coeff 19 24 lj/cut 0.00070000000 3.5500000000
pair_coeff 19 25 lj/cut 0.00070000000 3.5500000000
pair_coeff 19 26 lj/cut 0.00070000000 3.5500000000
pair_coeff 19 27 lj/cut 0.00070000000 3.5500000000
pair_coeff 19 28 lj/cut 0.00070000000 3.5500000000
pair_coeff 19 29 lj/cut 0.00070000000 3.5500000000
pair_coeff 19 30 lj/cut 0.00070000000 3.5500000000
pair_coeff 19 31 lj/cut 0.00070000000 3.5500000000
pair_coeff 19 32 lj/cut 0.00070000000 3.5500000000

pair_coeff 20 21 lj/cut 0.00070000000 3.5500000000
pair_coeff 20 22 lj/cut 0.00070000000 3.5500000000
pair_coeff 20 23 lj/cut 0.00070000000 3.5500000000
pair_coeff 20 24 lj/cut 0.00070000000 3.5500000000
pair_coeff 20 25 lj/cut 0.00070000000 3.5500000000
pair_coeff 20 26 lj/cut 0.00070000000 3.5500000000
pair_coeff 20 27 lj/cut 0.00070000000 3.5500000000
pair_coeff 20 28 lj/cut 0.00070000000 3.5500000000
pair_coeff 20 29 lj/cut 0.00070000000 3.5500000000
pair_coeff 20 30 lj/cut 0.00070000000 3.5500000000
pair_coeff 20 31 lj/cut 0.00070000000 3.5500000000
pair_coeff 20 32 lj/cut 0.00070000000 3.5500000000

pair_coeff 21 22 lj/cut 0.00070000000 3.5500000000
pair_coeff 21 23 lj/cut 0.00070000000 3.5500000000
pair_coeff 21 24 lj/cut 0.00070000000 3.5500000000
pair_coeff 21 25 lj/cut 0.00070000000 3.5500000000
pair_coeff 21 26 lj/cut 0.00070000000 3.5500000000
pair_coeff 21 27 lj/cut 0.00070000000 3.5500000000
pair_coeff 21 28 lj/cut 0.00070000000 3.5500000000
pair_coeff 21 29 lj/cut 0.00070000000 3.5500000000
pair_coeff 21 30 lj/cut 0.00070000000 3.5500000000
pair_coeff 21 31 lj/cut 0.00070000000 3.5500000000
pair_coeff 21 32 lj/cut 0.00070000000 3.5500000000

pair_coeff 22 23 lj/cut 0.00070000000 3.5500000000
pair_coeff 22 24 lj/cut 0.00070000000 3.5500000000
pair_coeff 22 25 lj/cut 0.00070000000 3.5500000000
pair_coeff 22 26 lj/cut 0.00070000000 3.5500000000
pair_coeff 22 27 lj/cut 0.00070000000 3.5500000000
pair_coeff 22 28 lj/cut 0.00070000000 3.5500000000
pair_coeff 22 29 lj/cut 0.00070000000 3.5500000000
pair_coeff 22 30 lj/cut 0.00070000000 3.5500000000
pair_coeff 22 31 lj/cut 0.00070000000 3.5500000000
pair_coeff 22 32 lj/cut 0.00070000000 3.5500000000

pair_coeff 23 24 lj/cut 0.00070000000 3.5500000000
pair_coeff 23 25 lj/cut 0.00070000000 3.5500000000
pair_coeff 23 26 lj/cut 0.00070000000 3.5500000000
pair_coeff 23 27 lj/cut 0.00070000000 3.5500000000
pair_coeff 23 28 lj/cut 0.00070000000 3.5500000000
pair_coeff 23 29 lj/cut 0.00070000000 3.5500000000
pair_coeff 23 30 lj/cut 0.00070000000 3.5500000000
pair_coeff 23 31 lj/cut 0.00070000000 3.5500000000
pair_coeff 23 32 lj/cut 0.00070000000 3.5500000000

pair_coeff 24 25 lj/cut 0.00070000000 3.5500000000
pair_coeff 24 26 lj/cut 0.00070000000 3.5500000000
pair_coeff 24 27 lj/cut 0.00070000000 3.5500000000
pair_coeff 24 28 lj/cut 0.00070000000 3.5500000000
pair_coeff 24 29 lj/cut 0.00070000000 3.5500000000
pair_coeff 24 30 lj/cut 0.00070000000 3.5500000000
pair_coeff 24 31 lj/cut 0.00070000000 3.5500000000
pair_coeff 24 32 lj/cut 0.00070000000 3.5500000000

pair_coeff 25 26 lj/cut 0.00070000000 3.5500000000
pair_coeff 25 27 lj/cut 0.00070000000 3.5500000000
pair_coeff 25 28 lj/cut 0.00070000000 3.5500000000
pair_coeff 25 29 lj/cut 0.00070000000 3.5500000000
pair_coeff 25 30 lj/cut 0.00070000000 3.5500000000
pair_coeff 25 31 lj/cut 0.00070000000 3.5500000000
pair_coeff 25 32 lj/cut 0.00070000000 3.5500000000

pair_coeff 26 27 lj/cut 0.00070000000 3.5500000000
pair_coeff 26 28 lj/cut 0.00070000000 3.5500000000
pair_coeff 26 29 lj/cut 0.00070000000 3.5500000000
pair_coeff 26 30 lj/cut 0.00070000000 3.5500000000
pair_coeff 26 31 lj/cut 0.00070000000 3.5500000000
pair_coeff 26 32 lj/cut 0.00070000000 3.5500000000

pair_coeff 27 28 lj/cut 0.00070000000 3.5500000000
pair_coeff 27 29 lj/cut 0.00070000000 3.5500000000
pair_coeff 27 30 lj/cut 0.00070000000 3.5500000000
pair_coeff 27 31 lj/cut 0.00070000000 3.5500000000
pair_coeff 27 32 lj/cut 0.00070000000 3.5500000000

pair_coeff 28 29 lj/cut 0.00070000000 3.5500000000
pair_coeff 28 30 lj/cut 0.00070000000 3.5500000000
pair_coeff 28 31 lj/cut 0.00070000000 3.5500000000
pair_coeff 28 32 lj/cut 0.00070000000 3.5500000000

pair_coeff 29 30 lj/cut 0.00070000000 3.5500000000
pair_coeff 29 31 lj/cut 0.00070000000 3.5500000000
pair_coeff 29 32 lj/cut 0.00070000000 3.5500000000

pair_coeff 30 31 lj/cut 0.00070000000 3.5500000000
pair_coeff 30 32 lj/cut 0.00070000000 3.5500000000

pair_coeff 31 32 lj/cut 0.00070000000 3.5500000000

special_bonds lj 0.0 0.0 0.0 coul 0.0 0.0 0.0

#pair_style tersoff 
#pair_coeff * * C.4.tersoff 1 2 3 4

#pair_style lj/cut 12.0
#pair_coeff 1 1 0.00070000000 3.5500000000
#special_bonds lj 0.0 0.0 0.0 coul 0.0 0.0 0.0
###########################################################################


#--------------------------------------------------------------------------
#variables
#--------------------------------------------------------------------------
variable   	dt 		equal 0.001
#--------------------------------------------------------------------------
#kappa parameters
#--------------------------------------------------------------------------
variable    	p 		equal 100000 	# correlation length
variable    	s 		equal 10  	# sample interval
variable    	d 		equal $p*$s 	# dump interval 
variable    	d 		equal 100000*$s 	variable    	d 		equal 100000*10 	
#--------------------------------------------------------------------------
variable 	T_run 		equal 300
#--------------------------------------------------------------------------

log 	log_heat_${iseed}.lammps
log 	log_heat_3.lammps
