	reset_timestep  	0
	fix 			1 all nve
	compute   		myKE all ke/atom
	compute   		myPE all pe/atom
	compute   		myStress all stress/atom virial
	compute   		flux all heat/flux myKE myPE myStress
	variable  		Jx equal c_flux[1]/vol
	variable  		Jy equal c_flux[2]/vol
	variable  		Jz equal c_flux[3]/vol
	fix       		JJ all ave/correlate $s $p $d c_flux[1] c_flux[2] c_flux[3] type auto file J0Jt_${iseed}.dat ave running
	fix       		JJ all ave/correlate 10 $p $d c_flux[1] c_flux[2] c_flux[3] type auto file J0Jt_${iseed}.dat ave running
	fix       		JJ all ave/correlate 10 100000 $d c_flux[1] c_flux[2] c_flux[3] type auto file J0Jt_${iseed}.dat ave running
	fix       		JJ all ave/correlate 10 100000 1000000 c_flux[1] c_flux[2] c_flux[3] type auto file J0Jt_${iseed}.dat ave running
	fix       		JJ all ave/correlate 10 100000 1000000 c_flux[1] c_flux[2] c_flux[3] type auto file J0Jt_4.dat ave running
	compute 		myDis all msd 
	thermo_style 		custom step temp press vol c_myDis[4] v_Jx v_Jy v_Jz 
	thermo			1000
	timestep		${dt}
	timestep		0.001
	run			1000000
Memory usage per processor = 6.0234 Mbytes
Step Temp Press Volume myDis[4] Jx Jy Jz 
       0    305.92899    4822.0498    23887.872 8.051317e-30 -0.0099704406    0.0158385 -0.016557174 
    1000    308.46746     8577.674    23887.872    2.2377084 -0.011243018 0.0057987999 -0.0054576119 
    2000    301.29807    6916.6795    23887.872    7.0146447 -0.007009487 6.8780521e-05 -0.00045117031 
    3000    303.79434    4857.4302    23887.872    12.298313 0.0075106801 0.0018982311 -0.0020488999 
    4000    305.10083    3912.4519    23887.872    17.833467 0.0072951314  0.008155812 -0.0073468895 
    5000    301.23275    9808.7446    23887.872    22.071589 0.0076271099   0.02352985 -0.0050934077 
    6000    300.66598     8013.418    23887.872    25.511289 -0.0092233235 -9.7743355e-05  0.010412824 
    7000    308.63929    3824.7084    23887.872    27.161669 -0.015877361  0.015599682 0.0065058486 
    8000    304.89483    5410.7824    23887.872    27.841447 -0.0060802383 0.00017212716 0.0064489295 
    9000    308.70046    7183.0733    23887.872    27.576657 -0.0087684899 0.0087778697 -0.0026184189 
   10000    303.45092    6909.3247    23887.872    26.479417 -0.0091865969 -0.0071897929 -0.0089569509 
   11000    310.50809    5608.2295    23887.872    25.323478 -0.017536299 -0.0061012231 0.0077162398 
   12000    300.59623    7610.2027    23887.872    24.576652 -0.010788058 0.00072397317 0.0064689903 
   13000    302.74392    6702.6673    23887.872    24.412952   0.01054633 0.0093417828  0.015482003 
   14000    307.70204    5735.7907    23887.872    25.052158 -0.0022979527 -0.001383781 -0.0013874439 
   15000    302.98039    6466.7664    23887.872    25.965311 0.0029150393 -0.003148246 0.0067490555 
   16000    303.60844    5757.8764    23887.872    28.100124 0.0023094912 0.0034867262 0.0033094801 
   17000     300.2883    6269.9297    23887.872    29.787385 0.0027789843 0.0071743994 -0.002895563 
   18000    309.69219    8264.7247    23887.872    29.862656 -0.012215548 0.0097343512 -0.0096404688 
   19000    298.99831    5466.5092    23887.872    29.042426 0.0075963758 -0.0041499588 0.0073410966 
   20000    311.56875    6876.1254    23887.872    28.879325 -0.0056681743 0.0087806657 -0.0027158685 
   21000    298.07999    8830.6017    23887.872    29.605096 0.0030927633  0.011311863  0.013144784 
   22000    305.91989    3186.9353    23887.872    30.495745 -0.008507591 0.0007638782 -0.0093243266 
   23000    305.09853     6519.756    23887.872    30.196443 0.0084979029  0.003171976 -0.0092040105 
   24000    306.28765    8295.6983    23887.872    28.793953 -0.00076007446  0.003391899 -0.0042215827 
   25000    308.35291    4024.1125    23887.872    27.044099 0.0044155883 -0.0014551162 -0.0040532528 
   26000     303.4031    5575.2546    23887.872    26.517806 -0.011700412 0.0053095617 0.00036364558 
   27000    311.32855    4184.4857    23887.872     26.24558 -0.023747643 -0.0040358613 -0.0022650578 
   28000    309.32913    7783.2304    23887.872    26.870128 -0.00033178343  0.002158286  0.003312595 
   29000     306.1879    7395.0807    23887.872    27.916482 -0.010103238 0.0058234156 -0.0053473153 
   30000    311.27509    3698.4063    23887.872    29.035301 0.0081646742 -0.0036901526  0.010323527 
   31000    308.65312    5731.5298    23887.872    29.427029 0.00058531981 -0.0088346295 -0.00058333661 
   32000    313.25842    10938.848    23887.872    29.644559 0.0012640168   0.01130856 0.0085660467 
   33000    303.61708    4354.2625    23887.872    28.835938 0.0023163915 0.0073284203 0.0099135382 
   34000     300.2438    2140.6614    23887.872    27.004693 -0.010436071 -0.011617054 -0.001979147 
   35000    308.34649    8280.3008    23887.872    26.463977 -0.010411627 0.0073634541  -0.03083444 
   36000    304.86746    7439.0187    23887.872    27.206845 0.0057591888 -0.012419379 0.00042121031 
   37000    310.25355    3744.3475    23887.872    28.290616 -0.0073528795 -0.00087431405 -0.009629004 
   38000    306.19551    6166.6569    23887.872    29.299657 0.0065488342 0.00072124713 -0.0048628071 
   39000    302.99958    6738.6302    23887.872    29.264997 0.0013556875 0.0021797232 -0.0075759029 
   40000    307.94995    6973.0167    23887.872    28.450516 0.00083901576 -0.0027714314 0.0033041874 
   41000    303.30138     4863.635    23887.872    26.780556 -0.020613983 -0.0011716682  0.012362597 
   42000    308.14565      6337.47    23887.872    26.064815 0.0083886261 -0.0051676705 0.0062568442 
   43000    302.87232    7569.9902    23887.872    26.451333 0.0053101437 0.0023239776 -0.0060657808 
   44000    301.99082    7479.7486    23887.872    27.637331 -0.003383757 -0.010207256 0.0010947223 
   45000    305.15028    6124.8339    23887.872    28.154754 -0.0045602244 -0.006864888 -0.00077852696 
   46000    312.64614    4929.4057    23887.872    27.907487 -0.0077899855 -0.019385039 -0.00036293143 
   47000    303.60932    4051.6806    23887.872     27.60147 -0.013686546  -0.01566098 0.00032220064 
   48000    303.87277    8110.0944    23887.872    26.879348 0.0017647505 0.0057524177  0.021805561 
   49000    310.28111    7405.7842    23887.872    25.910997   0.01312566 -0.0030657917 -0.0034763008 
   50000    301.56676    4512.1706    23887.872    25.356895 -0.010715806 -0.017943158 0.0069496387 
   51000    306.20375    6977.3188    23887.872     25.87355  0.013077376 0.0064666765 -0.0063416212 
   52000    305.14475    5827.2792    23887.872    26.742362 0.0035438809 0.0045688658 -0.0060295458 
   53000    307.98576    8582.9807    23887.872    27.181089 -0.0095294693  0.004976939 0.0046344606 
   54000    308.97105    6278.6968    23887.872    27.352512 -0.015248592 -0.0043917901 -0.0030361534 
   55000    304.05341    2963.1956    23887.872     26.89366 8.930422e-06 -0.0074004306 0.0092725054 
   56000    310.62274    5962.1925    23887.872    26.571528 -0.0037249379 -0.0079500116 -0.0042436808 
   57000    302.52756    8332.1031    23887.872    25.751616 0.0060513287 -0.0090370176 -0.0074381263 
   58000    305.36177    6257.2238    23887.872    24.997826 0.0072201571 0.0068755427 -0.0064087626 
   59000    308.11604    5651.3101    23887.872    24.667762 0.0023765268 -0.00086677096 -0.0049326136 
   60000     307.2335    6070.1569    23887.872    24.895499 0.0037938663 -0.0013886698 -0.0024282618 
   61000    298.82962    7359.0274    23887.872    25.623667 0.0022013149 0.0008526726  0.015684795 
   62000     305.2275    6574.4122    23887.872    26.947713 -0.005692643 -0.016060941 -0.011087365 
   63000     311.6119    5077.8376    23887.872    28.175049 -0.011415874 0.0029633231 0.0020298852 
   64000    310.10297    5803.0004    23887.872    28.253736 0.0043129812 -0.003812527 -0.013939662 
   65000    307.06547    6818.6436    23887.872    27.022632 0.00041231184  0.011643567 -0.0012875803 
   66000    302.86645    6237.3013    23887.872    26.546771 0.0025647693 -0.0061225018 -0.00072074473 
   67000    301.15374    6322.1781    23887.872    26.879225  0.008055109 -0.0030150383 -0.0069293453 
   68000    310.91315    5125.2681    23887.872    26.866689 0.0066728221 0.0060067455  0.013588556 
   69000    304.59589    8187.0976    23887.872    26.633687 -0.009438187 -0.0024387899 0.00022027501 
   70000    300.22539    6483.2927    23887.872    26.193533 -9.785366e-05 -0.0018262592 -0.0090935844 
   71000    302.55684    5606.4453    23887.872    26.481887 0.00083394505 -0.0089115062 0.0069192458 
   72000    307.52997    6752.9551    23887.872    26.675486 0.00097710173 0.0047893868  0.012483229 
   73000    306.24986    6232.8745    23887.872    26.686535 -0.024519375 -0.0016986104  0.020716592 
   74000    305.89171    5555.5558    23887.872    27.663328 0.0081170825 0.0048554688 -0.0031875117 
   75000    312.48764    5658.2285    23887.872    28.748681 -0.0022537344 0.0028900275   0.01712114 
   76000    308.88548    6237.5933    23887.872    28.899552 -0.010024792 0.0076055178   0.01591148 
   77000    302.46257    5362.3211    23887.872     28.54991  0.001856576 -0.010812942 0.0041628525 
   78000      305.282    7376.2766    23887.872    28.141798 0.0052076923 0.0026480924 -0.0015808774 
   79000    303.27801    5715.2994    23887.872    28.046799 0.0083892858 -0.0078551224 -0.0051022174 
   80000    301.59166    6939.2949    23887.872    28.298299 0.00022013689 -0.012616549 -0.00034348551 
   81000     303.7015    7524.4785    23887.872    28.475389 -0.0083549356 -0.0092740824 0.0038434356 
   82000    307.26724    4777.1484    23887.872    29.044897 -0.0081687117 -0.0028866638 0.00010647301 
   83000    301.33723    6165.8431    23887.872     29.24777 0.0036537654 0.0089727007 -0.0086607826 
   84000    310.44714    6510.0736    23887.872    28.716547 -0.00085507809 -0.0069235707 -0.018564301 
   85000    310.53865    5644.5439    23887.872    28.116308 0.0075250075 0.0052137172 -0.0035823375 
   86000    309.92431    5434.6987    23887.872    27.949159 0.0053713115 -0.016209862 0.0015133485 
   87000    314.39386    7847.2235    23887.872    28.157059 -0.011452119  0.012169509 -0.0042679654 
   88000    305.55969    8174.2973    23887.872    27.974458 -0.00072012518 -0.013083235  0.003388029 
   89000    300.41922    3875.8597    23887.872    27.344353 0.0057888665 0.0080635307 0.0013134307 
   90000    308.51067    9076.7258    23887.872    26.453071 0.0064101084 0.0083012637 0.0010548518 
   91000    298.37489    3983.0766    23887.872    25.371135  0.012649583 0.0028720253 0.00092065479 
   92000    312.45092    5787.6125    23887.872    24.848182 0.00090822232  -0.01348692 0.0005685026 
   93000    297.95546    9128.5735    23887.872    25.183812 0.0058013787 0.0041451757 -0.0025934963 
   94000    302.73414    6859.8734    23887.872    25.991726 0.0067973911 -0.0058843697 0.0043045418 
   95000    297.30784    7125.0502    23887.872     26.63138 -0.0020269559 0.0029928277 0.0043111245 
   96000    304.50633    6657.4588    23887.872    27.353966   0.01175555 -0.00010476102 0.00028019211 
   97000    313.06298    8222.1859    23887.872     27.36894  0.021198771 -0.0040471643 -0.0076790957 
   98000    309.69258    6095.2471    23887.872    27.319377 -0.0046318853 -0.012094131 -0.0013716275 
   99000    301.90047    5877.5986    23887.872    27.025254 0.0015565019 -0.016177762 -0.008617471 
  100000    304.23267    6408.9717    23887.872    26.678437 -0.0078018852 0.0090073719 -0.0054611671 
  101000    313.54451    6320.8811    23887.872    25.925659 -0.0086329887 -0.0090298445 -0.0099341813 
  102000    310.23588    2232.8985    23887.872    24.743698  0.013567614 -0.019216045 0.0054449487 
  103000     304.8909    5929.4038    23887.872    23.753532 -0.0040953721 -0.0051465205 0.0078105257 
  104000    308.11125    7861.0265    23887.872    23.536719 0.0033761514 -0.0042844807 0.0057835194 
  105000    305.98389    6394.2779    23887.872    23.895713  0.007756104 -0.0052555661 0.0097602798 
  106000    313.22586    6188.5364    23887.872    23.879986 -0.010688459 -0.015128264 -0.0086529555 
  107000    306.54875    6147.8613    23887.872    24.539402 -0.0059236314 -0.018893743  0.011257152 
  108000    302.98209     7135.548    23887.872    25.772686 0.0036134233  0.011241995 0.0089575248 
  109000    303.47837    4705.3085    23887.872    26.983288 -0.00066634941  0.015250528 0.0065478421 
  110000    308.15628     5270.208    23887.872    27.168959 -0.015347135 -0.014211085 -0.0072513305 
  111000    306.36565    5691.1343    23887.872    26.734082 0.0082882088  0.015689553 0.0095718585 
  112000    310.64585    4532.7761    23887.872     26.55397 -0.011597196 -0.0020002845 0.0042946629 
  113000     302.1136    7279.6895    23887.872    26.732536  0.011419437 -0.0033973629 -0.013934621 
  114000    302.62733    6934.0919    23887.872    27.115727 0.0017618433 -0.020443935 -0.011549294 
  115000    301.87172    6733.5336    23887.872    27.440019 -0.0040542892 -0.0069088946  0.003966426 
  116000    303.04483    6989.2325    23887.872    28.247857 -0.0049224066  0.018235262 0.0042994495 
  117000    309.43864    5253.1985    23887.872    28.319369 0.00056302787 -0.013163742  0.013180396 
  118000    300.24632    6332.0864    23887.872    27.649917 0.00090287562 0.0013980882 -0.0031275084 
  119000    306.32991    5938.9496    23887.872    27.547778 0.0095819058 0.00034546284 -0.0089298664 
  120000    310.60384    4923.0149    23887.872    27.643366 -0.0011750996 0.0015361038 0.0039282929 
  121000    303.06351    4713.2503    23887.872    28.061649 0.0091831414 0.0054333908 -0.0089592707 
  122000    305.04198    8532.9704    23887.872    28.635706 0.0073515435 0.0060100324 0.0074695827 
  123000    307.58906    9050.2484    23887.872    29.093229 0.0020285676 -0.00020624129 -0.0005773349 
  124000    298.65226    3057.1097    23887.872    29.516065 -0.0047535357 0.0018012811 -0.011907375 
  125000    303.33089    6538.6006    23887.872    29.239244 -0.00046238913 -0.0018493194  0.012714086 
  126000    309.40031    7106.6254    23887.872    28.965708 -0.0027708366 0.0069363396 0.0023753121 
  127000    308.50526    6786.9802    23887.872    29.583193 0.0036111152 0.0042145654 -0.0028343531 
  128000    306.42954    2375.6812    23887.872    29.522001 0.0069676173 -0.0040376498 -0.011544502 
  129000    304.03121     7260.443    23887.872    28.765386  0.015917904  0.018774022 0.0050395402 
  130000    306.76546    7097.6955    23887.872    27.641524 0.0051414118 0.0091417478 -0.0025460231 
  131000    315.43544    5687.8645    23887.872    27.130581 -0.0054497003 -0.0071813265 -0.0062348929 
  132000    303.65578    4882.3396    23887.872    27.678442 0.0013522444 0.0032499706 0.0088348987 
  133000    297.41264    6588.4408    23887.872    28.747907 -0.0091182975 0.00040470239 -0.0098391572 
  134000    307.26539    8159.2659    23887.872    30.142942 -0.00029155968 -0.015963592 -0.010440452 
  135000     298.8944    4670.2787    23887.872    30.882428 -0.0053187364 -0.017216106 -0.0053770741 
  136000    297.75132    5348.3869    23887.872    30.513761  -0.00181812 -0.012899914  0.015402255 
  137000    295.43023    8424.4407    23887.872    29.554999  0.002047733 0.0017887668 0.0015316888 
  138000    301.21206    6122.8714    23887.872    28.582281  0.010457987 0.0049836608 0.0080705981 
  139000    312.20399     5495.423    23887.872    28.142491  0.017640424 -0.0090586132 -0.0012450308 
  140000    301.95089    5481.7898    23887.872     28.44326 0.0034540402 0.0017428776 -0.0015232693 
  141000    297.76206    5106.1406    23887.872    28.334773 0.0026775188 -0.0076275913 -0.0042558328 
  142000    305.39898    6226.9691    23887.872    28.318432 -0.0056084816 0.00094973613 0.0080081762 
  143000    302.23096    7064.7515    23887.872    28.218461 -0.003537942 -0.00015867847 -0.002363292 
  144000    305.40424    8098.9223    23887.872    27.475049 0.0054956687 -0.0065010375 -0.0048142364 
  145000    311.97268    5152.1838    23887.872    27.252056 0.00068646253 -0.012143504 0.0078460519 
  146000    310.75836    3866.1904    23887.872    27.339677 0.0094180885 0.00086355405  0.002198293 
  147000    307.94049    8145.6217    23887.872    27.267172 -0.0071004884 0.0036893986 -0.0004770076 
  148000    303.26793    7057.7977    23887.872    26.918626 0.0046322991 -0.002547836 0.0099619361 
  149000    307.54737    4360.1766    23887.872     26.51584 -0.0086483456 0.0061242586 -0.0067333027 
  150000    312.12668    8421.2228    23887.872    26.510889 0.0051502895 1.9771152e-05 -0.0083198744 
  151000    303.12429    6757.5569    23887.872    26.826629 0.0042509114  0.008443152 -0.0047471757 
  152000    305.07681    5862.4122    23887.872    27.735457 0.0030779265 0.0046181759 -0.014328863 
  153000    305.84794    5785.4481    23887.872    28.867932  0.011648892 -0.003860403 0.0074521665 
  154000    306.57718    5718.0873    23887.872    29.361204 -0.0070742855 -0.0056764202 -0.00011988633 
  155000    301.51988    6946.0976    23887.872    29.585845 -0.0092479871  0.020840698  0.010240322 
  156000    299.83442    6734.5023    23887.872    29.784287 -0.0024582644 0.0066058647 0.00026687814 
  157000     304.2357    4575.2652    23887.872    29.497195  0.010949074  0.007448633 -0.00016940408 
  158000    304.55099    7899.1959    23887.872    29.357546 0.0032319469 0.0044069282 0.0021831822 
  159000    301.77169    4222.9019    23887.872    28.920815 -0.0026550913 -0.0044897834  0.011181237 
  160000    306.19655    4635.1192    23887.872    27.991251 -0.0073642612 -0.0089869914 -0.0082793715 
  161000    303.82912    8046.2191    23887.872    27.437577 -0.0090082774 -0.0061386058 0.0085366371 
  162000    310.74079    3506.6818    23887.872    27.677006  -0.01579729 0.0050787248 0.0056285472 
  163000    302.57193    5301.8644    23887.872    27.625408 -0.008422375 -0.0072638837 -0.012293564 
  164000    295.95767    7190.9266    23887.872    27.270537  0.010453358 0.0049366978 0.0052015661 
  165000    308.02435    5981.2557    23887.872    26.310019  -0.00830138 -0.0026728618 -0.0062287316 
  166000    301.60354     9849.478    23887.872    25.842547 -0.00044571417  -0.01910513 0.0079572657 
  167000    298.65977     5621.822    23887.872    25.968238 0.0028906204 0.0087717216 -3.5743874e-05 
  168000    305.16005    2956.4724    23887.872    25.845161 0.0064561727 0.00081277344 -0.0028290023 
  169000    299.50553    7916.4293    23887.872    25.846225 -0.0047586573  0.007204074 -0.0089114346 
  170000    308.39513    7665.0557    23887.872    26.475689 -0.0014399071 0.00075541679 0.0062249285 
  171000    308.57869    6599.9628    23887.872    27.166507 -0.0003430446 0.0060600182  0.010483634 
  172000     303.2725    2683.3971    23887.872    27.803978 0.00015421047 -0.004455718  0.015546958 
  173000     306.3308    7634.7394    23887.872     28.54812  -0.01420278  0.019169018 -0.0047685384 
  174000    309.01804    8078.5066    23887.872      28.6136 -0.0063138041 -0.004568242 0.0012687606 
  175000    303.13561    5164.1956    23887.872    27.914093 0.0038981707 -0.0092188053  0.007308259 
  176000    300.41528    4753.6625    23887.872    27.383881 0.0027957971 -0.0045046507 0.0036778943 
  177000      299.595    6960.7538    23887.872    27.587793  0.004974795 0.0054392617 -0.0006823003 
  178000     303.9363    6893.3712    23887.872    28.431755 -0.0091563027 0.0029156282  0.014548173 
  179000    304.39247     6078.086    23887.872    29.094566 -0.0086301937 0.0055876338  0.010714002 
  180000    314.27118    7059.9788    23887.872    28.874758 -0.010416939 0.0030721181  0.018643923 
  181000    312.21297    4161.1639    23887.872     28.50539 -0.012718483 -0.012739565  0.012730455 
  182000    304.88961    5892.2341    23887.872     28.37691 -0.0015761739 -0.0099748358 -0.00022894319 
  183000    304.36234    7720.4467    23887.872     28.39123 -0.0014142117 -0.0014954588 -6.1664058e-05 
  184000     300.7737    5684.3904    23887.872    28.509937 -0.0078697676 -0.0076107064 0.0018371562 
  185000    305.76764    5149.0306    23887.872    28.714181 -0.0070509903 -0.014290852 0.0098533611 
  186000    301.03722    5487.9396    23887.872    28.356355 -0.0044611715 0.00085838165 0.00013715524 
  187000    301.08231    8661.2359    23887.872    27.735369 0.0065561234 -0.014571235 -0.011168313 
  188000    305.40423    6194.2902    23887.872    26.863372 -0.0020822051 0.0095725293 0.00018061699 
  189000    295.83607    3910.8851    23887.872    25.712088 0.00098945296 -0.0012778699 -0.0053537615 
  190000    308.69004    8629.0292    23887.872    24.744476 0.0075416262 -0.00030635502 0.0034584842 
  191000    302.85634    5573.1191    23887.872    23.920602 -0.0029648997 0.0072322873  0.010547611 
  192000    300.65855    5356.8938    23887.872     23.73191 -0.0067499572 0.0060877051 0.0044284021 
  193000    304.38278    8620.5956    23887.872    24.285889 -0.004912467 -0.0030171602 -0.0052938065 
  194000    307.29647    5783.9553    23887.872    25.508803  0.005433819 -0.0073666414 -0.013202321 
  195000    303.89087     6510.272    23887.872    26.573006  0.006048546  0.005143141 0.0097503863 
  196000    303.80494    6337.9472    23887.872    27.000154 0.0052102236  0.012875584  -0.01043791 
  197000    306.46084    5689.7065    23887.872    27.675143 -0.0015031326 0.0056315856 0.0061755134 
  198000    313.09792    7162.9746    23887.872    28.232396 0.0078470082 -0.011598866 -0.007145286 
  199000    308.96158    5631.2229    23887.872    28.798558 0.0073751595 0.0051905784 -0.002427626 
  200000    302.42647    7255.1331    23887.872    29.141195 0.0099194163 -0.00079648383 0.00087310878 
  201000    294.88833    8176.1033    23887.872    28.457128  0.013124114 0.0069007746 0.0095184712 
  202000    303.38754    6624.2819    23887.872    27.775467 0.0023709265   0.01606832 0.0027329276 
  203000    306.41566     3405.127    23887.872    27.454027  0.011372872 -0.00056398468 0.0033744163 
  204000    302.81294     6401.527    23887.872    27.612478 0.0011274517 0.0054157564 -0.0021959457 
  205000    311.27153    4669.1848    23887.872    28.492133 0.0049985224 -0.0027280582 -0.010571193 
  206000    307.75248    6635.4562    23887.872    29.595176 -0.0058363903 0.0076123531 0.00087575039 
  207000    303.08117    7106.0142    23887.872    29.839917 -0.010559484 0.00019445134 -0.0082577355 
  208000    298.36224    5223.4054    23887.872    29.373974 0.0043498656 0.0052125517 0.0080496218 
  209000     303.7468    5219.7863    23887.872    28.855196  0.013816119 -0.00076031702 -0.0016569103 
  210000    307.23136    8123.5967    23887.872    28.004838 0.00093027291 0.0081037784 0.0068702072 
  211000    307.83557    5654.2453    23887.872    26.986422 -0.002327846  0.020441794 -0.0064313891 
  212000    301.98953    3779.5198    23887.872    26.136633 0.0044664065 0.0082812569 -0.0032185138 
  213000    303.94221     2621.247    23887.872    26.329416 -5.0931092e-05 0.0022317166 -0.017016136 
  214000    304.02278    7762.5173    23887.872    27.214707 -0.0086323067 0.0077141954 -0.00082188659 
  215000     310.0302    7465.0472    23887.872    28.378967 -0.0035167225 -0.017865425 0.0012267657 
  216000    301.07877    5588.4989    23887.872    29.316241 -0.0070781677 -0.00018134815 0.0055063665 
  217000    303.34538    7921.6819    23887.872    29.457411 0.0007364402 0.0063253291  0.010434087 
  218000     307.0865    4955.8246    23887.872     28.03044 -0.0092719348 -0.0056627061 -0.0015994767 
  219000    312.84507    4619.6773    23887.872    26.726198 0.0033061156 -0.012920487   0.01537458 
  220000    306.77826    7136.3563    23887.872    26.533396  -0.01130075 -0.010409148 0.0071994497 
  221000    297.53882    8861.5205    23887.872     26.29385 -0.0053783818 0.0099278084 0.0033373567 
  222000    303.96795    2131.0697    23887.872      25.9825 0.0073414707 0.0048047259 -0.0034172255 
  223000    308.94985    6911.7107    23887.872    26.100602  0.012871555 0.0017843476 -0.0047326768 
  224000    301.90348    6133.5452    23887.872    26.438871 -0.0019336563 -0.003427152 0.00023058438 
  225000      295.769    6346.4811    23887.872    26.304764  0.001209585 -0.0010769596 -0.013917041 
  226000    310.50137    5230.1833    23887.872    26.078916 0.0012516428  0.008907251  0.010928277 
  227000    303.13849    5460.7689    23887.872    26.011823 -0.0055893704  0.001973831 -0.0051388702 
  228000    309.28564    4984.5779    23887.872    26.137386 -0.00043586731 0.0014665556 0.0077714608 
  229000    305.67588    6512.0451    23887.872    26.290149 -0.0097413184 -0.0046747207 -0.0017858192 
  230000    301.83617    4944.4181    23887.872    26.331818  0.017759005  0.011355475  0.022019318 
  231000    309.45821    3808.5162    23887.872    25.258544  0.010797668 -0.0074141598  0.019088025 
  232000    302.96493     7100.581    23887.872    24.400254 0.0042940698 -0.0033140633 -0.0059583891 
  233000    299.83358    7277.8374    23887.872    23.691002 0.0032133094  0.011804179 1.695746e-05 
  234000    300.59169    3183.2397    23887.872    22.850393  0.010354269 -0.00016381861 0.0095821107 
  235000    305.38677     4406.409    23887.872    22.787631  0.012205073 -0.00098000527 -0.0048333821 
  236000    312.20383    7046.2318    23887.872    23.841112 0.0049698352 0.0010314657 -0.014147344 
  237000    301.23335    2552.0662    23887.872     25.83896 0.00098449863 -0.011570172 -0.001509826 
  238000    313.50979    5003.7263    23887.872    27.675493 -0.012730805 -0.0079851109  0.015037948 
  239000    301.46324    7473.0752    23887.872    28.729092 -0.0086239964 0.0053962873 -0.0040112376 
  240000    306.65412     5729.666    23887.872    29.340608 0.0019598544  0.012105826 0.0095945957 
  241000    307.61101    6423.3967    23887.872     29.31854  0.011248026 -0.0021821493 -0.0091361779 
  242000     305.3514    6983.8152    23887.872    29.033947 0.0098370414   0.01255895 -0.0097163375 
  243000    303.49096    5639.3998    23887.872    28.757953 -0.014965028 -0.010041447 -0.0014808529 
  244000    303.02347    4666.4394    23887.872    27.861312 0.0097100513  0.012281316 0.0073214543 
  245000    299.85196    5485.1679    23887.872    27.016015 -0.0082796491 -0.019780041 -0.014734781 
  246000    300.51195    5372.8941    23887.872    26.166706 0.0044712895 0.00067792736 0.0059558903 
  247000     299.2844    7465.6435    23887.872    25.551081 0.0044360709 -0.0020450506 -0.012546521 
  248000    307.35174    3739.6287    23887.872    25.511729 0.0048462819  0.010282409 0.00088994786 
  249000    301.42551    4684.4922    23887.872    25.881936 -0.0051952546  0.024625385 0.0085190693 
  250000    301.36436    7080.1091    23887.872    26.623936 -0.0066396148 0.0041123283 -0.012720762 
  251000    302.89437    7185.6827    23887.872    26.953734  0.013756021  0.018260164 -0.0080622601 
  252000    302.13217    5235.7126    23887.872    27.845753 0.0047050938 -0.026772637 -0.014099122 
  253000    297.44685     3482.142    23887.872    28.845834 -0.014728522  0.013925476  0.003812958 
  254000    302.98807    8165.2211    23887.872    29.940597 -0.0048054489 -0.0025082354 0.00020171029 
  255000    302.33035    3824.2767    23887.872     30.94639 0.0021535983  0.001438105 -0.0064784745 
  256000    304.76698    4891.6826    23887.872    31.283203 -0.0024199004 0.0028595964 0.00046161752 
  257000    310.91697     10129.32    23887.872    30.992616  0.010057975 -0.0031122002 0.0011052218 
  258000    298.82438    6291.4335    23887.872    30.395502   0.02189101 -0.0051273699 -0.0037147211 
  259000    306.60706    3584.6232    23887.872    29.612566 0.0039902901 0.0023745768 -0.0074012139 
  260000    299.01825    7407.2002    23887.872    29.508787 -0.0031659838 -0.0092812049 -0.00072267041 
  261000    305.03259    5958.3412    23887.872    30.015442 0.0038654032 -0.0069344002 0.0090747864 
  262000    309.18486    4794.1447    23887.872    30.200366 -0.010489826 -0.0013764054  0.012609908 
  263000     297.1121    7744.3165    23887.872     30.29027 0.0080478757  -0.01312402  0.014523149 
  264000      311.977    4597.8054    23887.872    30.413078 0.00047645259 -0.015818947 0.0015811158 
  265000    303.14274    7280.3663    23887.872    30.402577 -0.0045151352 -0.0070804435 -0.0047425066 
  266000    309.50911    7036.5458    23887.872    29.829089 0.00030459159 0.00065163379 -0.010281724 
  267000    305.27462     4839.434    23887.872    28.553161 0.00055968259 -0.00085526143 0.0045425342 
  268000    302.18149    6905.4235    23887.872    27.123156   0.01064602 0.0040029156 0.0033852874 
  269000    305.46122    4466.9259    23887.872    25.812883 0.0090694444 -0.0063443376 -0.018737154 
  270000    308.98524    5379.4731    23887.872    25.368688 0.0064770776  0.011064103   -0.0048353 
  271000    308.70309    8140.3278    23887.872     25.22994 -0.0043542904 0.0073687643  0.012100065 
  272000    305.63095    2838.5866    23887.872    25.852716 -0.0053336515    0.0159193  -0.01280684 
  273000    305.28223     4507.983    23887.872    26.493878 0.0075997315  0.017857835 0.0021621546 
  274000     305.4896    9780.2215    23887.872    27.172809 0.0043669596 0.0035693743 0.0090048707 
  275000    307.38047    4947.8549    23887.872    27.443897 -0.0016169231 0.0026456244 -0.0036648057 
  276000    307.92206    3275.8701    23887.872    27.580271 0.0039401723 0.0042973935  0.010131071 
  277000    305.33915    5480.5244    23887.872    27.664289 -0.013397475 -0.0012782313 -0.002683698 
  278000    297.47653    8533.7792    23887.872      27.8793 0.0049239286 -0.011917072 0.0037661771 
  279000    310.23431    6033.2939    23887.872    28.037342 -0.0071388719 0.0016750206 -0.0062796966 
  280000    301.56195    4116.8716    23887.872    28.033863 0.0059462421 0.0081096184  0.014092655 
  281000    304.63798    6519.7026    23887.872    27.665278 0.0034223113 -0.018992955 0.0027484527 
  282000    303.13501    6097.4852    23887.872    27.461611 0.0021906937 -0.014872658 0.0074578199 
  283000    307.09833    4461.6261    23887.872    27.363874  0.012702108 -0.005911693 0.0030115429 
  284000    308.32409     4230.866    23887.872    27.751465 -0.0066510318 -0.0087202083  -0.01652247 
  285000    309.54513    6506.5029    23887.872    28.481368 -0.0025786288 0.0084399602 0.0036477462 
  286000    301.82024    6060.5569    23887.872    28.200812 0.0017481195 -0.014316377 -0.015016295 
  287000      300.438    5514.8265    23887.872    27.076162 -0.0086754111 -0.0076260909 0.0041261727 
  288000    301.92801    4403.9092    23887.872     25.87011 -0.014224376 -5.1642813e-05 -0.012400387 
  289000    296.45528    4287.5634    23887.872    24.882296 -0.0067841265 -0.0066503352  -0.01468171 
  290000    310.61586    8607.9655    23887.872     24.47257 -0.0020593253 0.00062295626 -0.0049508583 
  291000    303.23783    6681.2794    23887.872    25.333557 0.0016975148 0.0046336182 -0.0050501496 
  292000    296.38405     4381.435    23887.872    26.796498 -8.0023935e-05 0.0098591617  0.008179907 
  293000    305.40295    3510.7914    23887.872    27.580677 -0.0040729826 0.0021178795 0.0035189156 
  294000    312.56767    7175.7857    23887.872    27.848055 0.0029768926 0.0044352174 -0.0047999868 
  295000    306.05664    6994.2081    23887.872    27.691082 -0.0054458481  0.004177554 -0.00062106773 
  296000    308.18129    6014.6595    23887.872    27.581731 -0.011514729 -0.010722453 -0.0042777666 
  297000    297.97793    4780.5978    23887.872    26.865433  0.016639514 0.0048110252 0.0015181879 
  298000    301.01418     8288.245    23887.872     26.49752 0.0065092436 -0.00086626945 -0.011911775 
  299000    309.32489    4702.7943    23887.872    26.740908 0.0055842143 0.0027637043 -0.0026637605 
  300000     303.3606    2900.9622    23887.872    27.011973 -0.011925059 0.0087468635 -0.00092312305 
  301000      303.241     2922.906    23887.872    27.223386 -0.010580483 0.0047937451 0.0027125348 
  302000    307.48318    6067.0583    23887.872    26.844917 0.0033410682 -0.019313433 -0.0037773687 
  303000    305.84305    6919.7866    23887.872    26.251961 -0.0071870134 0.0057888755 -0.011159602 
  304000     299.1034    5102.3999    23887.872    25.818293  0.012078151 -0.00096320213 -0.0093393715 
  305000    304.27392    6222.7901    23887.872    26.138478 -0.0064787371  0.010967307 -0.0082127827 
  306000    298.79672    5822.0434    23887.872    27.539659 -0.0067539231 -0.0031369569 0.0051254664 
  307000    295.28347    2247.2208    23887.872    29.013994  0.011796889 -0.0071273937 0.0079355784 
  308000    304.89543    6608.5442    23887.872    30.024639  0.021959123 -0.0053426576 0.0048984932 
  309000    297.28651    7649.1752    23887.872     29.63923 -0.0057455045 0.0033583215 0.0048412238 
  310000    300.87679    4159.2078    23887.872    28.171574 0.0070035606 -0.0031310762 -0.0043825919 
  311000    304.68544    6140.5259    23887.872    26.547094 -0.0038536368 -0.009289803 0.00097402578 
  312000    303.22606    6088.2962    23887.872    25.093618 0.0057387108 -0.0035843761 0.0012466027 
  313000    302.55111     4576.591    23887.872    24.741513 0.0058138365 -0.011724597 -0.0045640659 
  314000     308.8892    5245.7069    23887.872    25.146993 0.0025850579 0.0052314141  0.019172139 
  315000    306.42163    5643.2488    23887.872     25.82966 -0.0029221649 -0.0013088044  0.003904346 
  316000    301.90385     4752.086    23887.872     27.02552 -0.008290914   0.01482101 -0.014679125 
  317000    302.70718    7440.9036    23887.872    28.289738 -0.012374593 0.0050254702 -0.0047160962 
  318000    302.48155    5187.2166    23887.872    29.285247  0.011968591 -0.0012122451 -0.0049161715 
  319000    308.26543    4256.8169    23887.872     29.00128 -0.010786552  0.015778271 0.00092649752 
  320000    309.56346    4087.6071    23887.872    27.933356 -0.014974078 0.0074535266 0.0056524046 
  321000    300.38427    7904.6793    23887.872    27.426017 -0.0033917538  0.013415596 0.0071327911 
  322000    299.00136    5454.5848    23887.872    27.525481  0.011057271 0.0066119723 -0.0089761307 
  323000    306.07712    4524.4584    23887.872    27.358813  0.014905323 0.0053513749 0.0037950326 
  324000    307.85199    5361.7009    23887.872    26.995594  0.020360447 -0.0092955534 -0.0022195662 
  325000    308.75064    7716.0472    23887.872    26.860313 -0.0068950345 0.0039376971 -0.010097583 
  326000    301.98062    3962.3999    23887.872    27.084055  -0.01239495 -0.0098484865 -0.0025813668 
  327000    303.26012    4909.7329    23887.872    26.946633  -0.01007504 0.0046618891 -0.0010952038 
  328000    308.27097    6975.4781    23887.872    26.951506 -0.0037228102 0.0045957224 0.0047732849 
  329000    310.24169    4029.2666    23887.872    26.487119 -0.0053575471 -0.0063963568  -0.01456611 
  330000    297.84955    6813.6392    23887.872     25.81389 -0.0052268882 0.0077408818 -0.0075303613 
  331000    303.85228     6186.726    23887.872    26.156716 -0.0018099325 -0.0060787307  0.012335839 
  332000    300.44509    5602.3914    23887.872    26.939327  0.011563239 0.0022343871 -0.0006252669 
  333000    304.94362    4042.0269    23887.872     27.65835 0.0011018433 -0.0083621388 0.0055296391 
  334000    301.43769    8944.7147    23887.872     27.73486 -0.0076013915  0.011564181 -0.00061482355 
  335000    298.71362    4882.9733    23887.872    27.760639 -0.005384268 0.0030606214 -0.011646087 
  336000    300.31408     3461.671    23887.872    27.515619 -0.011391824 -0.010488348 -0.0043530805 
  337000    302.63918     5375.483    23887.872     26.99568 -0.019900775 0.0061493327   0.01660209 
  338000    306.40227    6945.9205    23887.872    26.768232 -0.00011966204 -0.0064957648 -0.0077113147 
  339000    302.80738    5773.0186    23887.872    26.981911 0.0076683453 -0.0006138639 -0.0080453156 
  340000     305.5747    4694.4591    23887.872    27.550996 -0.00040965591 0.0072038702  0.010167921 
  341000    300.01234    6447.9149    23887.872    28.100062 0.0052422847  0.012939009 0.0042979309 
  342000    305.26566    6947.1927    23887.872    28.705936  0.018927541  0.010491296  -0.00755473 
  343000    305.57359    4846.1371    23887.872    29.118372 -0.009314623 -0.00021631832 -0.0043321211 
  344000    301.77381    6730.8148    23887.872    28.769316  0.011473306 -0.0037145978 0.0089965675 
  345000    301.83762    5875.0663    23887.872    27.945897 -0.011878522  -0.01233128 -0.0092613487 
  346000    302.01961    5760.2895    23887.872    27.859431  0.013926569 -0.010204042 -0.0025567402 
  347000    309.37199    4341.4629    23887.872    28.220783  0.009228685 -0.0099552027 -0.0025172609 
  348000    303.35258    5481.8733    23887.872    28.938448 0.0063705601 0.0012344922 -0.0039668947 
  349000    306.94869    8138.0471    23887.872    29.551147 -0.0018132533 -0.0090676309  0.010616659 
  350000    303.61212    5463.5099    23887.872    29.758884 0.0047544701 0.0084789958 -0.0086903138 
  351000    294.97463     3559.791    23887.872    29.942114 8.5672975e-05  0.014642432 -0.011182338 
  352000    306.00483    4801.2089    23887.872    30.092332  -0.01598969 0.0087150674  0.010425779 
  353000    301.54642    9686.8934    23887.872    30.147694 -0.0025408837 -0.00015539661 -0.0055658989 
  354000    300.06652    8271.6142    23887.872    29.857646  0.014185875 -0.0060474723 0.0055033605 
  355000    299.89208     3455.087    23887.872    29.070152  0.017574197 -0.009886089 0.00014248954 
  356000     302.9297    4404.2049    23887.872    28.040364 -0.0067727377  0.005100141  0.013927505 
  357000    304.68339    6144.0984    23887.872    27.013675 0.0011294435 0.0082306461  0.011640695 
  358000    302.94641     5886.865    23887.872    26.660518 0.0033430217 -0.0061893584 -0.0025304302 
  359000    305.54722    5365.6706    23887.872    27.039338 0.0045829669 -0.002837274 0.0096285151 
  360000    305.76088    5953.6098    23887.872    27.005625 -0.005198152 -0.0049737917 0.0037843138 
  361000    306.05197     8372.516    23887.872    26.724606 0.0078065161 0.0086769708 0.0078765761 
  362000    299.51154    6251.2869    23887.872    27.119355 -0.0051845615 -0.0082243273 0.0051697665 
  363000    303.64142     6759.231    23887.872    28.232513 0.0038464082 -0.0089205335 -0.0094563278 
  364000    301.59722    2213.5553    23887.872    28.952271  0.016752226 -0.0052751849 -0.026271206 
  365000    314.74964    7391.4828    23887.872    29.321171 0.0063535777 -0.016908111 0.0022471891 
  366000    303.82333    9388.2889    23887.872    29.088903  0.015624321 -0.0037197994  -0.01045437 
  367000    307.48648    2588.3214    23887.872    28.606923    0.0118674 0.0028877014 0.0040640496 
  368000    301.42291    5185.0776    23887.872    28.064909 0.0022868005  0.003140518 0.0049922589 
  369000    303.82705    9068.4843    23887.872     27.88564 -0.0083806226 -0.0055527029 -0.013070482 
  370000    306.42093    4307.3693    23887.872     27.08377 -0.0030995716 -0.0011618678 -0.0058855054 
  371000    296.58438    4766.4401    23887.872    25.763127 -0.0042134774 -0.00068594484 -0.0089739334 
  372000    299.95491    7528.2816    23887.872    24.797333 4.0629936e-05 -0.013214692 -0.014704515 
  373000    309.09751    4712.3021    23887.872    24.518008 -0.0084828022 -0.001194362 0.00052550293 
  374000    295.23626    6702.3714    23887.872    25.465359 -0.0018861908 -0.0055870612 -0.015952084 
  375000    304.34415    5076.3473    23887.872    26.100804  0.001609602 -0.0015756254  0.007551797 
  376000    305.00674    3713.6526    23887.872    26.763882 0.00056867697 -0.0017408745 0.0050381072 
  377000    301.79989    5881.9993    23887.872    26.983171 0.0065945039 -0.0089662781 -0.0022218045 
  378000    308.33942    9110.4396    23887.872    26.737422 0.0052233831  0.010709404 0.0055969475 
  379000    303.90452    6161.2642    23887.872    26.441175 0.00091074745 0.0071196694 -0.011435686 
  380000    301.70989    1266.7441    23887.872    26.138989 0.0097531698 -0.014390035 0.0045152994 
  381000     302.3655    4786.5358    23887.872    26.670167 0.0035827893  0.006231094 -0.001662131 
  382000    305.14323    9082.7773    23887.872    27.389152 0.0043932663 0.00039005107 0.0037118967 
  383000    302.99855    5431.1303    23887.872    28.255115 -0.0065153731  0.004186222 -0.0094248018 
  384000    305.53287    2521.5381    23887.872    28.655051 0.0027270791 0.0019072158 0.0058142065 
  385000    299.58541    10142.205    23887.872    28.503813 -0.012300319 0.0067460645 -0.0011722059 
  386000    298.83384    10330.084    23887.872    28.304702 -0.0011355082  0.011932892 -0.012795955 
  387000    302.10771    2272.7619    23887.872     28.34795 -0.027455982 -0.0010899725 0.0028524515 
  388000    296.62813    4978.5298    23887.872    29.076602 -0.0023316868 -0.0042253865 -0.011214553 
  389000    301.52595    7248.1651    23887.872    29.179322 0.00068640268 -0.0003055667 0.0077665419 
  390000    296.35625     4623.013    23887.872    28.611668 -0.00099667268 -0.015267896 -0.010742001 
  391000    299.98854    3709.2813    23887.872    28.337884 -0.0090788349 -0.0037536785 -0.016129673 
  392000    300.81691    6097.8318    23887.872    28.324172  0.012117945 -0.0085699243   -0.0130204 
  393000    303.85123    7306.9514    23887.872    28.269819  0.003116263 -0.0081921121 -0.0052242859 
  394000    302.90332    6400.9712    23887.872    27.795225 -0.010710598 0.0044670159 -0.0020850366 
  395000    303.44071    3370.0797    23887.872    27.874894 -0.018206087 0.00079916208 0.0080790175 
  396000     307.4596    8450.8063    23887.872    28.142581  0.015851149 0.0086670392 0.0084261183 
  397000    295.39764    4976.0162    23887.872    28.353159 -0.0089493512 -0.0074982605 -0.0073547708 
  398000    308.61477    4626.6587    23887.872    28.398779 0.0082104451  0.016406262 -0.0055408656 
  399000     300.8732    4773.4013    23887.872    28.076289 0.0054557954 -0.0009503901 -0.0037790188 
  400000    295.97134    8646.7257    23887.872    27.739651 -0.0010473798 -0.014569143 -0.0042199984 
  401000     297.3102    6174.5779    23887.872    27.383053 -0.00082011466  0.024941427  0.003690699 
  402000    303.27904    3189.0768    23887.872    27.399075 -0.0072538729 -0.0032002909 -0.0046197302 
  403000    296.91417    5245.6382    23887.872    27.756342 -0.013766691  0.015609944 -0.0062812233 
  404000    303.02337    7633.5092    23887.872     28.39042 -0.0003415913 -0.0035235832 0.0012392096 
  405000    308.09902     6209.285    23887.872     28.57784 3.7254402e-05 0.0028646959 0.0073751546 
  406000    301.63132    3226.8775    23887.872    27.880245 -0.011160678 0.0057066535 -0.0022606676 
  407000    304.37526     5669.945    23887.872    26.878966 -0.0092458509  0.010652633 0.0046149781 
  408000    301.91143    8113.4356    23887.872    26.220226 -0.0084478115 -0.0064632889   0.00150331 
  409000    309.44349    5627.9587    23887.872    25.961783 0.0011679087 -0.003823328 -0.0059312002 
  410000    303.34639    5693.5971    23887.872    27.139045  0.017282703 0.0048164455 0.0059974249 
  411000    307.67306    6686.2213    23887.872     28.38776 -0.0094475553 0.0019440858  0.014782237 
  412000    312.75381    5681.6886    23887.872    29.233359 0.0057981614 0.0025675802  -0.01675489 
  413000    300.77331     5084.099    23887.872    29.931432  0.016289218 0.0085271632  0.014996149 
  414000    299.34572    9009.9398    23887.872    29.669394  0.014474912 0.0062222271  0.011937542 
  415000    300.97575    6791.9483    23887.872    28.805072 0.0030139594 -0.0098919703 0.00057801598 
  416000    300.72034    7695.6599    23887.872    28.263497  0.009028385 0.00066434174  0.013979258 
  417000    300.86168    5042.1701    23887.872    28.272938 0.00011795269 -0.0022086214  0.017823507 
  418000     302.3002    4759.9887    23887.872     28.60661 -0.0032494901 0.0019227147 0.0044334701 
  419000    306.79307    7639.3047    23887.872    28.339712 -0.003785755 0.0081854035 -0.0017498478 
  420000    302.39087    3437.6171    23887.872    27.532116 0.00067254072  0.011161508  -0.00124425 
  421000    309.26035    4137.8884    23887.872    26.992791  0.004854068 0.0050768275 0.0013031573 
  422000    305.99577    7484.0144    23887.872    27.155204 -0.0023005683 -0.0068420895  0.002190267 
  423000    295.32295    5729.9899    23887.872    26.817739  0.002437344 -0.017005677 -0.0040629822 
  424000    307.96313    5741.4383    23887.872    26.706048 -0.0094518915 -0.00069144927 -0.010753858 
  425000    298.66703    4311.2063    23887.872     26.28825 -0.0045615358 -0.001082569 -0.0024598268 
  426000    309.14579    5324.3286    23887.872     25.95705 0.0037941466  0.019445912 0.0016886153 
  427000     305.4545    6394.6039    23887.872    25.957693 0.0088326831 0.0037706757 0.0070515887 
  428000    302.94833    6409.5232    23887.872    25.844538  0.018131067 -0.0018277055 -0.0041688823 
  429000    310.84152    4561.7082    23887.872    25.768767 0.0094665823 -0.0014586543 -0.000169918 
  430000    298.30338    4805.6593    23887.872    25.477304 0.0015107219 0.0054766507 -0.0033330241 
  431000    306.85391    7069.9579    23887.872    24.956278 0.0092640386 0.0040546301 -0.012951858 
  432000    300.16498    4850.1704    23887.872    24.214627 -0.0022171873 0.0029076516 -0.0072766835 
  433000    306.61554    5801.8561    23887.872    23.799047 0.0041016186  0.017056186 -0.011779111 
  434000    302.36849     4690.634    23887.872    24.091806 -0.0069852198 0.0039908879 -0.0038055954 
  435000    301.78658    6367.0631    23887.872    24.723831 -0.010324875 -0.016503223 -0.0054744282 
  436000    304.93362     7104.453    23887.872    25.002052 -0.017150394 0.0053778055  0.020759051 
  437000    307.51682    5686.1519    23887.872    25.313111 -0.0080101149 -0.013253753  0.017655061 
  438000    304.28048    5807.9674    23887.872    26.030056 -0.0062823886   0.01088434 0.0072657354 
  439000    303.18745    7502.0201    23887.872    26.645662 0.0065503644 -0.010450329 0.0040918617 
  440000    298.19411     6376.426    23887.872    27.674371 -0.0052034673 -0.016224608 -0.011134666 
  441000    304.04703    6580.2161    23887.872    28.444996 -0.0067828734  0.012297788 -0.0016138077 
  442000    304.48863    3314.1872    23887.872    28.039525  0.002957736 -0.0058612722 0.0042747906 
  443000    307.15667    7649.2287    23887.872    26.523516  0.004598253  0.013515014 0.0064877272 
  444000    310.84015    7191.8834    23887.872     24.53578 -0.0014686761 0.0010576167 0.0046393341 
  445000    304.17003    3498.9074    23887.872    23.712302 -0.0017913986 -0.0042820667 -0.0082534916 
  446000    307.03809    2752.1377    23887.872     24.57956 0.0048950329 -0.0099674485  0.010269758 
  447000    303.40092    7207.2678    23887.872    26.249835 0.0035615602 -0.0018212004 -0.0022671679 
  448000    311.67297    4866.6022    23887.872    27.315412  -0.01590911 -0.0019790822 -0.013031015 
  449000    303.91178      5340.24    23887.872    28.161198 -0.014708046  0.004682979 -0.00092726333 
  450000    305.76474    5396.6032    23887.872    28.676032 0.00094675047  0.019518401 0.0035810514 
  451000    308.88935    5348.4589    23887.872    28.778968 -0.0045530226 -0.013214366 -0.0034007657 
  452000    303.32758    5341.2906    23887.872    28.858423 -0.0069158451  -0.01531754 0.0045756171 
  453000    304.00227    5172.5747    23887.872    28.838886 0.0023251812 -0.018086358 -0.0020469876 
  454000    302.80488    5902.8747    23887.872    29.213067 -0.016201706 -0.010868132 0.0064394177 
  455000    299.58911    7651.3997    23887.872    29.449561 -0.0009350098 -0.0070068851 -0.0029217635 
  456000    307.20646    2595.3747    23887.872    29.820641 -0.011500053 0.0071655354 0.0029913616 
  457000    307.42803    5726.5239    23887.872     30.25787 0.0016696967 0.0060801102 0.0069851943 
  458000    300.59602    5473.4453    23887.872    30.436899 0.0039298519 0.0076285278 -0.012235816 
  459000    299.53881    4334.6517    23887.872    30.335801 0.0062012877 0.0062989316 0.0049593752 
  460000    302.74216    6323.2121    23887.872    30.143726 0.0044616624 -0.0052624613 -0.005677054 
  461000    309.31538     4213.963    23887.872    29.801885 -0.0059135253 -0.0092991772 0.0088349254 
  462000    306.27626    3881.9046    23887.872    29.092477  0.012844391 -0.0080129775 0.0065029574 
  463000    299.54613    5861.8502    23887.872    28.192968 -0.002197007 -0.0053382759 -0.0061664319 
  464000    307.80139    7359.5003    23887.872    27.438794  0.015979915 0.0023375261 -0.012301365 
  465000    310.81467     5881.732    23887.872    26.989403 0.0043152909 0.0021637648 0.0056163815 
  466000    307.10107    4419.4626    23887.872    27.218012 0.0037031266 -0.0030127499 -0.016706245 
  467000    312.31379    9098.8645    23887.872     27.84355 -0.010142371 -0.0063682498 -0.0077657628 
  468000    306.12952    6574.6136    23887.872    27.973394   0.01058347 -0.007197964 0.0047681694 
  469000    304.93804    2458.6496    23887.872    27.908602 0.0015285272 -0.0029191562 -0.007109439 
  470000    306.47484    4950.2636    23887.872    28.102804  0.019712553 0.00091920085  0.007189098 
  471000    316.90903    7477.0575    23887.872     28.59108 -0.00086645417 -0.015221191 0.00066117982 
  472000    305.73334    5875.3351    23887.872    28.834517 -0.012649296 -0.0084280499 -0.00090124429 
  473000    310.38288    4213.6796    23887.872    29.003796  -0.01207569  -0.02083994 -0.019246042 
  474000    309.33822    9903.7677    23887.872    29.216958 -0.0044366342 0.00057268638 -0.0029166765 
  475000    306.48789    3874.9763    23887.872    29.746873 -0.0060129049 -0.0046333121 -0.011953401 
  476000    299.34202    3241.2443    23887.872    29.972291 -0.0023862543 0.0029998008 -0.0026347552 
  477000    301.62475    7134.6231    23887.872    29.769324 -0.002217478 -0.0071169951 -0.012691697 
  478000    306.63231    6802.2682    23887.872    29.125057 0.0027918337 0.0014101333 0.0014116965 
  479000     304.8491    4920.4268    23887.872    27.949329 0.00097743255 -0.00065976708  0.020047265 
  480000    305.48809    3721.3952    23887.872    27.168446  0.012254787 0.0044089126 -0.0051359689 
  481000    298.22463    6434.7135    23887.872    26.779816 0.0050283647  0.010684193 -0.011438763 
  482000    299.93049    5890.7899    23887.872    26.842232 -0.00045765264 0.0011426854 -0.0071792365 
  483000    298.15935    5770.6871    23887.872    27.057295 0.0026119554  0.012671996 -0.0094881597 
  484000    305.03952    6026.1612    23887.872     27.40078 0.0022772646 -0.0087107942 0.0057593756 
  485000    301.36701    6532.8587    23887.872    27.562189  0.006521708 -0.0011863199 0.0091720458 
  486000    304.07244    6596.9534    23887.872    27.483924 -0.0093015878 0.0057994621 -0.007436776 
  487000    302.93817    6957.9695    23887.872    27.727107 -0.0091313232 -1.8974894e-05 -0.014375037 
  488000    304.46785    5732.2605    23887.872    27.836896 -0.0011519486 0.0017028473 -0.0024285192 
  489000     305.6472    3621.3107    23887.872    28.073914  0.013938174  0.011577534 0.0014557064 
  490000    308.63131     6352.031    23887.872    27.740816 0.0024511948 -0.012865639 0.0046092876 
  491000    303.99234    4945.7633    23887.872    27.828747 0.0098413593  0.017857314 -0.0034347947 
  492000    308.85745    5300.8909    23887.872    28.271943 -0.0011681663 -0.012116874  0.010382754 
  493000    310.45806    7594.0634    23887.872    29.049993 0.0029546317 -0.0019325242 -0.0046378868 
  494000    302.03506    2810.9547    23887.872    29.609262 0.0093745232 0.00020912652 -0.0072208791 
  495000    306.90029     4824.735    23887.872    29.770844 -0.0015952945 0.0007577567 -0.0083593157 
  496000    305.33869    8555.7305    23887.872    29.782116 -0.012776212 -0.0040614346 0.0045935782 
  497000    301.48056    5564.0278    23887.872    29.282951  0.010288095 -0.00099450758 -0.0075235103 
  498000    303.08153    2077.3224    23887.872    29.194352 -0.0019197255 0.00013159071 0.0075250749 
  499000    298.71245    4211.1478    23887.872    29.144531 0.0024194514 -0.0089328167 -0.0023065906 
  500000    299.08983    8451.3561    23887.872    29.410278 0.0023373692 -0.010044407 -0.0080977879 
  501000    299.86703    7459.8024    23887.872    29.797943 -0.010374018 -0.0034222459 -0.0092601545 
  502000    301.07435    5055.5139    23887.872    29.594754 -0.0024383951 0.0024445368  0.011993243 
  503000    297.91098      9027.24    23887.872    29.125071 -0.0040893787 -0.0064462719  0.014837581 
  504000    301.31849    5943.6709    23887.872     28.21439 -0.0096718273 -0.0037585068 -0.013225336 
  505000    298.96625    6373.8243    23887.872    27.514255 -0.0078355366 -0.0081684715 -0.0074080423 
  506000    300.13838    8708.7029    23887.872    27.558532 -0.007525945   0.01339633 0.0041809833 
  507000    305.26569    3679.0262    23887.872    27.694356 0.0023578765 -0.0016040658 -0.0062675671 
  508000    297.68167      5563.62    23887.872    28.199117 -0.00077687635 0.0017133073 0.0094681907 
  509000    302.69723    6252.3327    23887.872    29.189721 0.0052366152 -0.0070612847  0.011083743 
  510000    308.42026    5075.1258    23887.872    30.013013  0.011297835 -0.0082280545  -0.01089563 
  511000    309.85526    5442.1168    23887.872    30.474168 -0.0039929164 0.0095861382 0.0034338851 
  512000     299.2655    5414.9246    23887.872    30.555256 -0.0023042561 -0.0039694146 -0.0096247016 
  513000    314.06028    6650.6254    23887.872    30.161761  0.018049584 0.0020559852 -0.0025640195 
  514000     307.1531    5132.7704    23887.872      28.9751  0.011328683 0.0010112725 0.0083356957 
  515000     304.5667     4991.672    23887.872    28.084594 0.0021692147 0.0021882068  0.016858587 
  516000    303.81292    5922.0282    23887.872    27.439128 -0.0049898659 0.0035640052 0.0088979719 
  517000    302.54835    8958.5518    23887.872     27.14763 -0.0011465775 -0.0041022489 0.0042027844 
  518000    302.19287    5925.2852    23887.872    26.709105 0.0053610638 0.0052496731  0.018028536 
  519000    302.06217    4863.1411    23887.872    26.483189 -0.0035933608 -0.0071156535 0.0031935933 
  520000    308.78985    6131.0761    23887.872    26.833227  0.001683232 -0.0045142315 -0.0042682875 
  521000    305.25501    4028.6596    23887.872    26.916387 0.0037499183 0.0034186361 0.0025792983 
  522000     304.9599    4989.3274    23887.872    26.819138 -0.017284323  0.011437065 -0.002969877 
  523000    301.12383    4850.0134    23887.872    26.502864 0.0087019039 0.0020047632 -0.0095957696 
  524000    308.15516    7748.8522    23887.872    26.255256 -0.014899737 -0.012185669 0.00091347868 
  525000    311.07023    5296.4049    23887.872    26.168051 0.0015366831 -0.011378118 -0.0026770262 
  526000    299.14302    4135.9865    23887.872    25.998714 -0.0057294311 -8.6213447e-05 0.0045901521 
  527000    313.87434    5889.7379    23887.872    26.181438 -0.0096432306 0.0017767072 0.0019195147 
  528000    289.66138    6940.6988    23887.872     26.04322 -0.0059148055 -0.0075066254 -0.013707452 
  529000    301.26628    3320.4604    23887.872    26.468765 -0.0064647418 -0.0016636088  0.011324933 
  530000    312.18464    7324.7782    23887.872     27.14405 -0.016179426 3.1069548e-05 -0.016286656 
  531000    304.87511    4692.7318    23887.872    27.544165 -0.0074110353 0.0076803288 0.0074740871 
  532000     306.3003    4405.8786    23887.872    27.214517 -0.0075661739 0.0021219919 -0.0016687649 
  533000    308.92216    2838.3243    23887.872    26.072715 0.00075372885 -0.0010745809 -8.2942537e-05 
  534000    297.83438    6394.8514    23887.872    25.254806 0.0054585948 -0.0063625972 0.0059262282 
  535000     303.8034    7885.7135    23887.872    25.337105 0.0022932671 -0.0025063009  -0.01035396 
  536000    302.89543    4297.4841    23887.872    25.954007 0.00093786125 -0.0012580177  0.016762795 
  537000    294.19672    2866.1063    23887.872    26.738423 0.0010689579 -0.013950927 -0.0081778104 
  538000    304.73387    6168.4806    23887.872    27.590133 -0.0081981819 0.0035154541 -0.0042944901 
  539000    304.00329    9061.3914    23887.872    28.412083   0.01338395 0.00098431048 -0.0080395719 
  540000    305.42036    5120.7918    23887.872    28.857038 -0.0082900887 -0.010163892 -0.0055012156 
  541000    300.98744     3320.157    23887.872    28.604229  0.008316779 -0.0039976322 0.0012258587 
  542000     310.5564    7389.8915    23887.872    28.305517 0.0019202655 -0.001389246 -0.0059400969 
  543000    303.26135    6484.8734    23887.872     28.05586 -0.0039711301 -0.0015105501 -0.0099796485 
  544000     302.8969    4402.7286    23887.872    27.939424 -0.005156857 0.0073734369 0.0017905341 
  545000     293.7697    4660.4534    23887.872    27.261788 -0.0020908188 -0.010247072 -0.004735113 
  546000    307.61871    6138.5055    23887.872    26.380137 -0.00012312694 -0.0089046413  0.010433865 
  547000    299.44816    7204.1251    23887.872    25.910993 0.0082750101 0.0069073487 -0.0019447273 
  548000    302.48547    6271.3927    23887.872    26.028365 0.00047867251 -0.0043191465 -0.0015817648 
  549000    300.68789    2348.6393    23887.872    26.233998 0.0048777745 0.0085814681   0.00539919 
  550000    308.74884    7284.0652    23887.872    26.685209 0.0018383134 -0.00034931796 -0.0068668919 
  551000    298.99114     5052.351    23887.872    27.319657 -0.0029789783 -0.0016390512 0.0086741907 
  552000    306.78451      4972.72    23887.872    28.155184 0.0091290782 -0.0057718214 -0.004148416 
  553000    305.43518    5644.5459    23887.872    28.516492  0.010747501    0.0076832 -0.0018756776 
  554000     299.3724     5149.816    23887.872    28.375221 -0.0054727075 2.5977435e-05 -0.012592815 
  555000    295.44809    5240.9856    23887.872    28.141428 -0.0035606506  0.016462763 -0.0081392576 
  556000    307.86657    8101.6734    23887.872    28.332709 -0.00050675841  0.005256725  0.016366678 
  557000     301.8965     3079.774    23887.872    29.138938 -0.0075642029 0.0013092062  0.003514873 
  558000    308.29047    5521.3365    23887.872    29.804228 1.9147205e-05 -0.0089532414 0.0013792838 
  559000    303.18213    7519.7247    23887.872    29.616625 -0.012757829 -0.0016973284 -0.0076570087 
  560000    307.84082    4595.0145    23887.872    29.775787 -0.011515547 0.0079260386 -0.0060342905 
  561000    301.19595     6458.385    23887.872    29.695506 -0.0041989792 -0.0014380803 -0.021879747 
  562000    302.19484    4851.8425    23887.872     28.98222 0.0087675568  0.016462989 -0.00086379414 
  563000    300.64549    5371.8476    23887.872    28.135431 -0.016042181 0.00020945688 0.0075331826 
  564000    306.26231    3604.8969    23887.872    27.512776  0.012166083 -0.015950377 -0.0045072444 
  565000     307.4052     7615.765    23887.872    27.334317 -0.0098701428  0.003816067 -0.0019104804 
  566000    305.28348    6138.0688    23887.872    27.471574 -0.00063938645 -0.0017999948 0.0067095203 
  567000    304.03953     6666.641    23887.872    27.326422  0.005313507 -0.0011793326 0.0060855664 
  568000    298.83868    5130.6705    23887.872    27.056994 -0.003495483 0.0036323063 -0.006993621 
  569000     298.7849    7001.6783    23887.872    27.242538  0.010169128 -0.0034209715 -0.004917766 
  570000    299.67103    5591.9231    23887.872    27.651149 0.0057399185 0.0042549125 0.0033478305 
  571000    295.27745    6940.5052    23887.872    27.872986 -0.0020704596  0.011427441  0.018722113 
  572000     303.5394    5244.4618    23887.872    27.685188 -0.0049548468 0.0068854638 -0.0038864202 
  573000    306.39019    6428.4113    23887.872    27.508049 0.0037551596 0.0033355488 0.0032108588 
  574000    304.60619    4207.7115    23887.872    26.937332 -0.0065585302 0.0091026538 -0.0058980532 
  575000    300.11049    7469.6833    23887.872    26.663029 -0.0075935235 -0.0052467541 0.0051417078 
  576000    305.56573    6197.2752    23887.872    26.874966 0.0087845648  0.017413034 0.0022892712 
  577000    301.84998    4855.3271    23887.872    26.847581 0.0073621338 -0.0012156889  0.012701077 
  578000    303.89243    2562.5781    23887.872     26.60683 -0.0023812678 -0.008240691 0.0084177785 
  579000    300.79408    7433.6318    23887.872    26.836586 0.00075884356  0.004163684 -0.0012139688 
  580000     296.8841    7909.3572    23887.872    27.287047 0.0060292964 0.0043142625   0.00287277 
  581000    307.46113    4050.7219    23887.872    27.578381 0.0053685215 0.0051264433 -0.00059023554 
  582000    303.15404     5074.942    23887.872    27.005022 0.0030851471 -0.013608222  0.015269043 
  583000    309.39468    4549.7363    23887.872    26.019883 -0.0030732663 -0.0085855725 0.0081239883 
  584000    306.58586    5583.3016    23887.872    24.804928  0.010102651  0.011525229   0.01128932 
  585000    309.34795    6097.5397    23887.872    23.855888 -8.7990138e-05 -0.0065305185 -0.0033778661 
  586000    302.76779    4787.2761    23887.872    23.071409 -0.017166687  0.013883515 0.0056438516 
  587000     304.5047    3115.1203    23887.872    23.207751 -0.014918929 -0.005962984 -0.020871088 
  588000    300.37213     6097.369    23887.872    24.193912 0.0040418846 -0.0014666727  0.010872182 
  589000    306.38579    6772.0767    23887.872    24.901206 -0.0077823048 -0.001026033 0.0059764816 
  590000    297.68862    6160.6511    23887.872    24.704192 0.0069916683 -0.0013589054 -0.0074166855 
  591000    304.53373    4695.7004    23887.872    24.355071 0.0048756608 0.0065279173  0.010331179 
  592000    299.86222    7502.2464    23887.872    24.386084 -0.0018351793 -0.010687184 0.0055930786 
  593000    300.61033    4554.2773    23887.872    24.981986  0.003305083 -0.0038636324 -0.0077435421 
  594000     301.5235    7756.9876    23887.872    25.871407 -0.00038502641 -0.0043147432  0.011831132 
  595000    303.88945    5652.9853    23887.872    26.574058 0.0077398695 0.0092655508 0.0051728988 
  596000    300.58945    4056.3439    23887.872    27.267338  -0.01446629 -0.0025738714 0.0018825426 
  597000     299.9572    4091.5114    23887.872    28.202436 -0.0096846644 -0.0094841453 0.0062715116 
  598000    301.05769    7774.2582    23887.872    28.792421 -0.012411651 0.0035386812  0.010626157 
  599000    301.92863    7180.9087    23887.872    28.493852 -0.0037042226 0.0028483326 -0.0035241953 
  600000    295.46675    715.33592    23887.872    27.404937 -0.0031831219 -0.00066166357 0.0032752213 
  601000    305.58067     4995.956    23887.872    27.079421 -0.0086670417 -0.0052871512 0.0060887366 
  602000    306.52007    6914.3279    23887.872    26.703333 -0.0060491227 -0.0037621833 -0.012144419 
  603000    306.11271    7664.5468    23887.872    26.278977 -0.0023199758 0.0014127664 -0.0037839728 
  604000     302.7211    5097.7787    23887.872    25.134942 -0.011061225 0.0066002842 -0.011306744 
  605000    300.11052    2985.7468    23887.872    24.050879 -0.023076122 0.00084946532 -0.0028122806 
  606000    303.73887    8153.7172    23887.872     24.22777 -0.0061050748  0.013940281 -0.010691598 
  607000    310.11258    6194.6599    23887.872     25.13571 0.0051227168  0.013566829 -0.012409879 
  608000     304.3755     2066.312    23887.872    26.058352 -0.010652308 -0.0062045896  0.013286996 
  609000    304.42163    6104.5757    23887.872    26.698363 0.0010230259 -0.015579804 0.0063563287 
  610000    296.62068    6867.8585    23887.872    27.002366 -0.001199292  0.012760514 0.0042490179 
  611000    297.75329    4217.2159    23887.872     27.26072 0.0091187054 0.0046205521  -0.01793799 
  612000    301.72997    3578.5993    23887.872    27.330501 0.0068657578  0.003716091 -0.016528477 
  613000    295.17359    6582.6907    23887.872    27.332535  0.012334903 -0.0064426583 0.0041450467 
  614000    303.92706    7879.4105    23887.872    27.610878  0.008303079 -0.00028552793 -0.00012868657 
  615000    299.75714    2296.9755    23887.872    28.307307 0.00020394853 0.0083812463 0.0019878697 
  616000    305.58632    4961.3455    23887.872    28.918147 0.00090701456 -0.012175004 0.0012903695 
  617000     303.1279    8464.5822    23887.872    29.209464 -0.0082554113 -0.0085803618 0.0021566155 
  618000    308.24515    5980.8726    23887.872    28.737765 -0.0013010559 -0.0037136662 -0.021233996 
  619000    304.55097    3908.2938    23887.872     27.87317  0.010338974 0.0034328503 0.0026065957 
  620000    297.45516    3736.0076    23887.872    26.016685 -0.00067161035 -0.006113451 -0.013813969 
  621000    297.88093    6846.1444    23887.872    24.576858 -0.0010795515 0.0026634393 -0.003270641 
  622000    300.28266    6707.4632    23887.872    24.335541 -0.0068711841 -0.0080990208 -0.0031437767 
  623000    302.21117    2771.0416    23887.872    24.463144 -0.0017227055 0.00017805254 -0.0080708441 
  624000    300.92867    3795.4047    23887.872    24.627779 0.0047952528 -0.0033987193 -0.016295526 
  625000    302.58651    7690.0808    23887.872    24.263808 0.0015983714 0.0059066819 -0.014623861 
  626000     300.8788    9531.5533    23887.872    24.346362 0.0023887425 -0.0069982389 0.0024130906 
  627000     299.9293     1815.152    23887.872    24.990609 -0.0047693359  0.022118273  0.012021658 
  628000    306.54614    4011.3454    23887.872    25.866067 -0.0077023749 -0.0034896607 -0.003765434 
  629000    303.72292    10218.372    23887.872    26.438861 0.0010329686 -0.0037174997 -0.0098429967 
  630000    310.01088    5659.0806    23887.872    26.505718 -0.0051376075 0.0057238399 -0.0020687074 
  631000    309.26837    3579.2209    23887.872      26.4188 -0.0032072478 -0.0020594524 -0.0047635047 
  632000    303.51206    2546.5598    23887.872    26.298724 0.0098040606 -0.0086141471 -0.0087310071 
  633000     294.1625    7498.5975    23887.872    26.611581 0.0015209562 -0.0057245999 -0.016580137 
  634000    299.45293    6815.9133    23887.872    27.580298 -0.012178968 0.0023702518 -8.0273489e-05 
  635000    298.53068    4776.0917    23887.872    28.397165 -0.011652061  0.013934346 -0.021011139 
  636000    301.47923    2058.1286    23887.872    28.620572 -0.0060234517   0.01706091 -0.015716528 
  637000    310.12373    4071.2552    23887.872    28.434467 -0.00096068798 0.0065892332 -0.014220448 
  638000    306.09634    6215.9839    23887.872    28.301974  0.013153383 -0.0091610659 0.0063170461 
  639000    299.07834    6513.2796    23887.872    27.951852 -0.0069331394 0.0020610426 -0.0028926087 
  640000    299.48069    4592.0828    23887.872    26.954704 -0.008383965 -0.0087974226 0.0048078503 
  641000    304.92721    3639.1135    23887.872    26.254165 0.0068238732 0.0019546092 0.0024711956 
  642000    308.34151    8048.0979    23887.872    25.872058 -0.0015931398 -4.937276e-05 0.00054323996 
  643000    304.12199    5759.9882    23887.872    26.383177 -0.0096368185 -0.0064084887 0.0047694897 
  644000    298.94268    2801.0663    23887.872    27.103231 0.0077151858   0.01208243 -0.00097307121 
  645000    304.67135    7388.2323    23887.872    26.913349 0.0082148118 0.0040113377 -0.005501066 
  646000    304.63846    7126.8014    23887.872    26.711239 -0.001142942 0.0023659668 -0.010356358 
  647000    306.85149     2634.844    23887.872    26.183264  0.018815544 -0.0054365881 -0.016261103 
  648000    298.14412    6598.4281    23887.872    26.044647 -0.0039507791 -4.9406769e-06 -0.0049350947 
  649000    304.62996    6935.3635    23887.872    26.575185 -0.0099898892 0.0038448976 -0.0047144032 
  650000    298.29235    6016.4684    23887.872    26.938166 -0.013767137 -0.0023097452 0.0040364158 
  651000    299.25941    3389.3502    23887.872    27.015151 0.0041546697 -0.0025632192 -0.00064847208 
  652000     300.9776    3863.3691    23887.872    26.685138 -0.010546033  0.016970875 -0.0012424311 
  653000    298.70953    4653.9719    23887.872    26.513523 0.0059265654 0.0026437782 -0.0054688197 
  654000    295.93069    7980.7347    23887.872    26.340741 0.0041521437 0.0085321034 0.0017015683 
  655000    300.67685    2462.6253    23887.872    26.721588 5.3209999e-05 0.0077080641 -0.0014502588 
  656000     306.0522    4642.5308    23887.872    27.069982  0.011240109   0.01690482 -0.0081167299 
  657000     302.2529    6325.2656    23887.872    27.183486 -0.0094736608 -0.0048461103 -0.0053510731 
  658000     304.7137    6133.6188    23887.872    27.109525 -0.0080664386 0.0013139397 0.00054543342 
  659000    303.59967    3487.0283    23887.872    26.795661 0.0025344067 -0.005613839 0.0034141539 
  660000    301.42794    5653.0447    23887.872    26.112254 -0.0003115866 -0.0030826882 0.0020509321 
  661000    297.86149    6523.5957    23887.872    25.356901 -0.014157612 -0.00034096876 0.0049764238 
  662000    297.12338    7210.9451    23887.872    24.510809 -0.0064901399  0.012007552 0.00048368993 
  663000    302.28833    5140.5491    23887.872    23.917336 -0.00079266741 -0.011934297 -0.0040028248 
  664000    300.66253    4529.1742    23887.872    23.930915 0.0041714919 -0.005920474 0.00097622694 
  665000    308.68762    6176.3418    23887.872    24.191652 -0.0024247594  0.012643122 -0.00027108093 
  666000    301.60188    8049.4276    23887.872    24.141555 -0.0019585158 -0.0087016937 -0.0070232889 
  667000    301.33165    4322.0046    23887.872    23.789808 -0.022975899  0.010923791 0.00073246767 
  668000    306.71768    3533.6752    23887.872    23.366543 0.0037717937 -0.0028486129 0.00024881975 
  669000    303.66701    5717.7869    23887.872    22.934647 -0.0035312703 -0.0087371346 -0.0072440227 
  670000     304.7592    7771.0397    23887.872    22.661588 0.0062409052 0.0071325814 -0.015996005 
  671000    306.68806    5642.4539    23887.872    22.857213 0.0053501988 -0.0074862997 -0.0076293417 
  672000    301.41619     3127.257    23887.872    23.263458  0.010273714 -0.0038944045 0.0014014117 
  673000    306.45207    6298.9367    23887.872    23.844113 -0.004571602 -0.00049967731   0.00477901 
  674000    299.99776    5133.4553    23887.872    24.839291 -0.0050812374 0.0042775576 0.0090740989 
  675000    300.45268     5871.578    23887.872     25.24786 -0.0071812652 0.00039620871  0.007470214 
  676000    303.77776     5466.655    23887.872    24.555838 0.0053317072 0.0020159816 -0.0092940641 
  677000    304.74301    5202.6705    23887.872    23.485958 -0.0033450204  0.012451028 -0.012572991 
  678000    297.44784    3971.4885    23887.872    22.780465 0.0030912843 0.0067554209 0.0033733099 
  679000    304.56613    3949.7319    23887.872    22.517865 -0.0053953178 -0.0045087218 -0.0055275347 
  680000    305.33588    6796.7145    23887.872    22.538375   0.01126808 -0.011057457 0.0015848652 
  681000    298.87893    5771.2654    23887.872    22.571371 0.0075291422  0.015688853 -0.0097809503 
  682000    297.08257    4739.0835    23887.872    23.092807 0.0088144338 -0.0091606004 0.00052864112 
  683000    299.98447    3855.1391    23887.872     23.86789  0.012197696 -0.0010481055 -0.013891096 
  684000    300.92824    7149.8765    23887.872    24.766803 0.0052884738 0.0036030317 -0.017108526 
  685000    303.96302    7355.0184    23887.872    25.576821 -0.0014802517  0.012768867 0.0024720075 
  686000    298.93093    2705.3173    23887.872    26.296676 -0.0091482161 -0.0033351843 -0.00073549592 
  687000    306.21368    3366.5185    23887.872    26.931556 -0.005247029 -0.0064676125 -0.0032366542 
  688000    305.99599    4980.2979    23887.872    27.442344 0.0016306852   0.01037061 0.0096100576 
  689000    304.20769    6068.6226    23887.872    27.587769 -0.0080339627 -0.0089623416 0.00064590239 
  690000    295.74614    5520.0603    23887.872    27.684115 -0.0063248042 -0.013196718 0.00097820862 
  691000    308.52643     5483.283    23887.872    27.671519 0.0092263086 -0.013713464 0.0057211865 
  692000    307.71412    4565.7588    23887.872    27.188672 -0.015609692 0.0033681659 0.0068035609 
  693000    301.66261    4831.9318    23887.872     26.78712 -0.0090388911   0.01497357 -0.0011589502 
  694000    302.68209    3756.5112    23887.872     26.59891 -0.0009300311  0.013387295 -0.014663285 
  695000    303.75206    7035.9701    23887.872    26.445285 0.0047906737 -0.0012778401 -0.020853815 
  696000    299.34512    6452.5054    23887.872    26.938251 -0.0015245378 -0.0058015872 0.0033825561 
  697000    307.65842    6552.1344    23887.872    27.529518 0.0051380809 -0.0035472906 -0.0074585671 
  698000     307.0349    4324.4727    23887.872    28.016487 -0.010948863 -0.015409634 -0.0056981458 
  699000    302.22974    4070.7398    23887.872     28.58636 -0.0015989156 -0.0022182853  0.014559211 
  700000    298.41885     5765.195    23887.872    28.511542 -0.00020365158 0.0057782085 -0.0026925606 
  701000    305.45502    6898.0219    23887.872    27.648039 0.0061520064  0.010280136   0.01042744 
  702000    307.06715    6469.0412    23887.872    26.777599 0.00077799687 -0.0066118513 -0.0084361566 
  703000    305.32223    5951.2478    23887.872    26.489677 0.00068595673 -0.0017681583 0.0013298278 
  704000    298.07406    6436.1087    23887.872    26.252657 -0.0015972561 0.0028560132  0.013243727 
  705000    305.04969     5208.561    23887.872    26.710002  0.010138556  0.017890732 0.0060448268 
  706000    299.62639    3538.6838    23887.872    26.560122 -0.010650618 0.0060647317  0.013875832 
  707000    308.00371    3919.2709    23887.872    26.281405 -0.0039940969  -0.01988727  -0.01118579 
  708000    300.90628    7247.6301    23887.872    26.425879 -0.0031441852 0.00041469516  0.015701543 
  709000    303.34001     4713.079    23887.872    27.058049 0.0012774364 -0.0028063117 0.0095884103 
  710000    303.51684    3669.9162    23887.872    27.831985 -0.0016030361 0.0099084753 0.0031740711 
  711000    292.77561    4931.8018    23887.872    28.585419 0.00028098418  0.013437027  0.019797019 
  712000    306.07411    6127.6979    23887.872    28.738328 0.0060326407 -0.0059099207 0.0019176194 
  713000    301.78334    5162.3678    23887.872    28.656223 0.0052610284 -0.0078937002 0.0021194708 
  714000    311.99703    4310.3195    23887.872    28.634382 -0.004911366 -0.0053069808 0.00091511528 
  715000    303.47091    7671.2773    23887.872    28.263201 0.0070992117 0.0025346908 0.0025622635 
  716000    297.89517    6636.2062    23887.872    28.294467 -0.010866376 -0.001737167 -0.006383586 
  717000    301.48923    3425.5299    23887.872    28.863473 -0.0021328007 0.0060800522 0.0060607321 
  718000    307.03906    4972.2818    23887.872    29.422071 4.9568628e-05  0.002581049 0.0039509281 
  719000    304.49892    5374.2919    23887.872    29.320198 0.0093219391  0.011635869 -0.010948618 
  720000    302.71716    5211.8586    23887.872    28.566414 -0.008760677 0.00070316411 -0.0059763462 
  721000     307.3112     7959.635    23887.872    27.967105 -0.0023138789 -0.00073340343  0.013930266 
  722000    298.82546    4566.5586    23887.872    27.423352  0.011170881 -0.0083918934 -0.0039559988 
  723000    300.42122    3659.6773    23887.872     27.24176 -0.0071942234 0.0038098676  0.012613638 
  724000    303.93963    4129.6722    23887.872    26.773136 -0.017377987 -0.0049102977 -0.0012214587 
  725000    303.23572     6986.078    23887.872    26.821305 0.00086446414 0.0042710511 -0.023349956 
  726000    296.30736    6277.6775    23887.872      27.2244 -0.0056431651 -0.0035883775 -0.0037515422 
  727000    300.24469    3623.6822    23887.872    28.007042 -0.0037061935 -0.0045348084 0.00091048729 
  728000    303.92035    4483.0318    23887.872    29.273492 -0.0064547014 0.0012330268  0.011283023 
  729000    303.21527    6649.8489    23887.872    29.721217 0.0059940916  0.012923779 0.0080375689 
  730000    304.40746    5665.2489    23887.872    29.581018 0.0090905418 -0.0059708963 -0.00032477496 
  731000    305.97849     3530.849    23887.872    29.157801 -0.0010691163 -0.015611287   -0.0138758 
  732000    298.65037    4411.3268    23887.872    28.087795 -0.0021306761 0.0096973853  0.016258642 
  733000    302.55826    4497.3199    23887.872    27.045675 -0.011353602 0.0017154098 0.0012943185 
  734000    301.91307    7551.5911    23887.872    26.380636 -0.011820456 -0.0016053093 0.0047210739 
  735000    302.44081     5966.196    23887.872    26.483103 -0.0066997252  0.015181734 -0.0067862186 
  736000    298.83351    4244.8774    23887.872    26.947915 0.00029061259 0.0012207546 0.00038426922 
  737000    301.68147    5419.0696    23887.872    26.781272 -0.0092044783 -0.005892868 -0.0091183875 
  738000    305.66816    7511.1124    23887.872    26.342926 0.00032966085 0.0041027399 -0.0018281542 
  739000    298.05529    5127.1032    23887.872    25.770934 0.0069788296   0.02028245 0.0035493664 
  740000    297.80046    6573.1082    23887.872    25.495083 0.0041106704 0.0078873933 0.0011956126 
  741000    302.12775    4183.1852    23887.872    25.447766  0.010004145 -0.0072380458 -0.0043494331 
  742000    303.50228    4608.7807    23887.872    25.641515 -0.0046327649 -0.0099197439 0.0040427151 
  743000      301.261      4633.88    23887.872    26.400526 -0.0022504666 -6.202308e-05 0.0015074767 
  744000    302.79975    5689.0995    23887.872     26.97306 -0.009328798  0.013986033 0.0045969646 
  745000    307.40022    5023.7166    23887.872    26.875044  0.000565792 0.0021691742 0.0029913517 
  746000    301.50965    5822.0039    23887.872     26.43623 -0.0041474272 0.0060232654 -0.011893684 
  747000    296.33394    8846.7606    23887.872    26.229223  0.003343065 -0.0033234863 -0.0047269091 
  748000    304.26202    6189.0068    23887.872    26.148324 -0.00028295056 0.0080673841 0.0067943037 
  749000    303.41037    1576.8974    23887.872    26.840742 -0.010013401 0.0016982398 -0.0019298389 
  750000    307.33795    3008.7047    23887.872    27.974196 0.0057436994 0.0026066956 -0.009785544 
  751000    301.80942    7777.5792    23887.872    28.638118 -0.0031159062 -0.0052959834 0.0046112914 
  752000    310.07911     6697.807    23887.872    28.847854 -0.0033512669  -0.02446799 0.0058236698 
  753000    298.02274    2071.5184    23887.872    28.829358 -0.0032125082 -0.0032916681 0.0027380286 
  754000    303.49282    5767.2399    23887.872    28.725575 -0.0045387792 -0.0070461705 0.0063409317 
  755000    307.60446    6584.0895    23887.872    28.788838 0.0033581824 -0.00079320104 -0.0091311242 
  756000    302.85881    5034.9591    23887.872    28.566886 0.00092568303 0.00028559802 0.0084364052 
  757000    303.79638    4048.3119    23887.872    27.940551 -0.0012806579 0.0028608642 -0.0047273512 
  758000    305.05818    6397.5505    23887.872    27.328823 0.0010376737 -0.0073817909 0.0069819402 
  759000     304.5231     7839.449    23887.872    26.770015 -0.017186202  0.008474213 -0.0024877463 
  760000    304.04444    4647.2953    23887.872    26.266922 -0.011762105 0.0011550142 -0.0005018579 
  761000    302.52611    4032.5256    23887.872    26.001859 -0.0070686704 0.0087357203 -0.0082175967 
  762000    300.27871    4483.1217    23887.872    26.315623 0.0092177893 -0.0054201837 0.0096795481 
  763000     297.7387     7924.954    23887.872    26.072542 0.0024275349 0.0036780392 -0.0099075853 
  764000    302.93019    4373.3184    23887.872    25.261499 -0.0009054066 0.00088707594  0.003641318 
  765000    302.97011     4687.123    23887.872    25.282729  0.010492689 0.0046181434 -0.0044526456 
  766000    307.10944    5747.6219    23887.872     25.68259 0.0077503696 0.0081626811 -0.001986587 
  767000    303.51748    5167.0366    23887.872    26.077806 -0.0046604697 -0.0035100086 0.0028258063 
  768000    308.50687    4783.7566    23887.872    26.061096 -0.010045857 0.0043464726 -0.0058017342 
  769000    300.67797    4637.6273    23887.872     25.72138 0.00085299758 -0.0028582183 0.0055502519 
  770000    298.50548    3925.3157    23887.872    25.619004 -0.0045973892 0.0042912707 -0.0042270771 
  771000    298.74233    6586.5801    23887.872    26.376096 -0.015383037 0.0058524358 -0.0011340513 
  772000    298.60096    5381.7309    23887.872    27.766729 -0.0089526964 -0.00087943554 1.6790971e-05 
  773000     301.4614    4788.0861    23887.872    28.720265 0.0061554044 -0.0069136232 -0.0084263806 
  774000    297.48589    5198.7203    23887.872    29.824242 0.0012878632 -0.0049888659 -0.0064212251 
  775000    298.43407    6338.1352    23887.872    30.614167 -0.0046240565 0.0079358006 0.0014744557 
  776000     299.4644    4411.6631    23887.872    31.035329 0.0096335302  0.015227167  0.011268503 
  777000    298.84242    6198.0622    23887.872    31.325162 -0.00052873967 0.0072678772 0.0080287991 
  778000     299.6555    5251.5555    23887.872    31.720587 -0.0031334254 0.0056997319 0.0013863206 
  779000    300.01643    7796.1521    23887.872     31.43857 -0.00069276463 -0.012661464  0.010437911 
  780000    303.11883    4277.1017    23887.872    30.910807 -0.00077902009 -0.0022108151 0.0081734567 
  781000    295.95973    3877.1199    23887.872    30.107051 0.0023659603 -0.0016184813 -0.001588346 
  782000    305.49616    5945.4845    23887.872    29.187334 -0.004575972 0.0062094635 0.0064896671 
  783000    305.74751    3720.1539    23887.872    29.037804 -0.0036256259  0.023149806 0.0092003359 
  784000    299.80276    4629.8826    23887.872    29.318439 0.0094574417 0.0037901677  0.002949613 
  785000    301.46811    6092.4208    23887.872    29.338235  0.012429297  0.007742222 0.0020138459 
  786000    296.57096    5648.2049    23887.872      29.3409 -0.0059566356 0.00085047476 0.0043350951 
  787000    302.21111    5038.8404    23887.872    29.076755 -0.012188055  0.014559645  0.011364032 
  788000    304.93711    2392.4302    23887.872    29.047883 -0.0095517849 0.0059016505  0.014975002 
  789000    298.01414    8696.0935    23887.872    29.343665 -0.0075927992  0.001549067 -0.0020366565 
  790000    300.80811    7540.0342    23887.872      29.7621 -0.011719255  0.011708422 -0.0093008765 
  791000    306.15681    1696.6805    23887.872    29.830532 -0.010713914 -0.0035833802 -0.0026806164 
  792000    298.13759    5722.7693    23887.872    29.820731 0.0044259019  0.017505676 0.0029665611 
  793000    311.97242    7202.3154    23887.872    29.464722 0.0057106126 -0.0083762932  0.001039579 
  794000     307.2016    5323.2128    23887.872    29.429398 -0.00012824812 0.0095990027 -0.0017406308 
  795000    305.87941    4535.2076    23887.872    29.268457 -0.0088148389 -0.00063698819 0.0082880433 
  796000    309.52867    3268.2103    23887.872    28.706064 0.00075523716 0.00098267513 -0.0063706121 
  797000    307.22038    6983.7382    23887.872    27.997331 -0.0044207814  0.009648801 0.0035915318 
  798000    308.44285    5985.5401    23887.872    28.142459 -0.015476503 0.0062977238 -0.024982216 
  799000    299.95651    4881.1808    23887.872    28.716964 -0.0036514245 0.0020415801 -0.005055053 
  800000    302.90058    2630.7074    23887.872     29.32965 -0.0067460868  -0.01119458 -0.0035540762 
  801000    300.71627     9399.019    23887.872    29.820113 -0.015917508 -0.0059910227   0.01380738 
  802000    307.62782    5723.1745    23887.872    30.134152 0.0094269595 0.0086753361 -0.0058331591 
  803000    303.31287     3095.414    23887.872    30.517627 -0.0046725215 -0.0029559199 -0.0042251598 
  804000    303.48222     2048.906    23887.872    30.540248 0.0022677384 -0.010326631 -0.0060180523 
  805000    302.11299    8648.8187    23887.872    29.954803 -0.0052701296 0.00086374729 0.0045062315 
  806000    307.16666    8082.0544    23887.872    29.035374 -0.0045889796 -0.0075468948 0.0059197863 
  807000    302.35465    2250.7251    23887.872    28.414153 -0.0022713034  0.008154133  0.012531767 
  808000    303.58247     2342.577    23887.872    27.577897 -0.00032890307  0.020520899 0.0019126497 
  809000     304.8469    8164.7149    23887.872    26.989099 0.0033862308 -0.005734572 0.0084803764 
  810000    294.96817     6657.822    23887.872    26.319337 0.0050030948 -0.0061628095 -0.0022835482 
  811000    306.76379    2859.3102    23887.872    26.003203 0.00054403637  0.010824856  0.012395362 
  812000    299.70065    4466.1471    23887.872    25.013864 -0.0015495103  0.014117774 0.0052393497 
  813000    300.45043    5122.1665    23887.872    24.170147 -0.0065285754 -0.0062281172 -0.011711336 
  814000    299.55403    5543.7548    23887.872    24.205748 -0.0024902415 0.0059794568 0.0048064378 
  815000     303.0562    6572.6136    23887.872    24.658668 -0.0009617001 0.0054041608 -0.016199274 
  816000    299.52881    4305.3071    23887.872    25.193127 0.0025338248 -0.00033373916 -0.0022241114 
  817000    302.41089     5525.643    23887.872    25.752931 -0.0041082868 0.0033155382 -0.0093785677 
  818000    298.32064    6047.0566    23887.872    25.839542  0.010988955 -0.001014871 -0.010619539 
  819000    299.01272    5415.9674    23887.872    25.170073 0.00022775246 -0.00062271755   0.01076894 
  820000    301.90657    6358.8547    23887.872    24.643066 0.0035452035 0.0033485363 -0.0039724199 
  821000    303.80532    3441.8733    23887.872    24.144316 -0.0057731115  0.015450074 -0.012966181 
  822000    301.13057    6655.4864    23887.872    23.765236 0.0018750991 -0.0037934588 0.0072040005 
  823000    301.74893    7108.3713    23887.872    23.953464 -0.0029959854 -0.0023550163 0.0013439135 
  824000    302.67374    4753.3469    23887.872    24.194145 0.0042301454 -1.3546617e-05   0.01019804 
  825000    306.23408    2965.8419    23887.872    24.277254 -0.008263602 0.0085116923 -3.4876414e-05 
  826000    303.55976    5675.2632    23887.872    24.376885 0.0027118769 0.0086543716 -0.0045912162 
  827000    307.05871    5498.0968    23887.872    24.832716   0.01080016  0.011547934 0.0071836335 
  828000    305.91681     4688.733    23887.872    25.050912 0.0079196751 0.0066206753 -0.008772202 
  829000    305.25383    3544.0553    23887.872    25.357227  0.018222154 -0.0077014925 0.0025974315 
  830000    300.06727    4576.4326    23887.872    25.868866 0.0024926578 0.0099357556 -0.010305542 
  831000    303.88392    5884.0729    23887.872    26.389467 -0.0077918422 0.0067226578 -0.0013745119 
  832000    302.03682    5008.4532    23887.872    27.054026   0.01105617 0.0012097285 -0.0074251696 
  833000    298.94126    4531.9262    23887.872    28.123732 -0.011126242 -0.0015848918 -0.014612544 
  834000    301.92252    6388.4526    23887.872     29.02438 0.00055570793 0.0010353461 -0.0098102612 
  835000    305.72573     5086.196    23887.872    29.321151 -0.0066181997 -0.0023415148 0.0026170126 
  836000     300.9399    4673.9274    23887.872    29.430189  0.006517305 -0.0020472955 -0.0023736273 
  837000    310.33768    5742.9266    23887.872    29.225747 -0.0093179023  0.012332916 0.00083238661 
  838000    303.10873    3876.6472    23887.872    28.690415 -0.0015219769 0.0024508821 0.00021955176 
  839000    303.28183    5166.3685    23887.872    28.194505 -0.003060677 0.0027900418  0.018131222 
  840000    307.92126    7704.5635    23887.872    27.363493 -0.011304766 0.0041149851 0.0023336956 
  841000    303.47054    3249.4097    23887.872    26.555755 -0.0043378845 0.0028845915 0.0028985432 
  842000    295.80814    5001.0798    23887.872    26.295651 -0.002592837 -0.012559076 -0.0014146283 
  843000    301.74087    4250.2997    23887.872    26.332102 -0.0026149544  0.005430556 -0.009212011 
  844000    294.12884    5357.9002    23887.872    25.914119 -0.0013570742 0.0080496416  0.008878083 
  845000    296.74835    4513.4652    23887.872    25.270696 -0.00017511354 -0.0003253942 0.0004530884 
  846000    301.24808    2684.0572    23887.872    24.930423 -0.011103424 -0.0076961471 -0.00022777056 
  847000    298.30111    6979.4463    23887.872     24.76353 -0.0014524856 -0.021662208 0.0066327909 
  848000    301.93826    6734.2956    23887.872    24.926907 -0.014204904 0.0082509874 0.0082509086 
  849000    307.72702    5681.1144    23887.872    25.296692  0.004990186 -0.0097981604 0.0010154962 
  850000    298.26931    3749.6608    23887.872    25.973874 -0.0033606551 0.0016021808 -0.0044009929 
  851000    300.66674     4247.614    23887.872    26.190011 -0.0015991698 0.0097984684 -0.0024666733 
  852000    304.99688    4753.5654    23887.872    26.069071 0.0069337373 0.0099384485 -0.0049723286 
  853000    304.02884    4974.4517    23887.872     25.92742 0.0051408364 -0.00014846258 -0.0053407422 
  854000    304.09811    3844.8211    23887.872    26.443135 0.0023680217  0.011869672  0.012233198 
  855000    302.90349    5969.9508    23887.872     27.47532 0.0042500835 0.0043938205 0.00074905994 
  856000    299.16975    5992.4694    23887.872    27.781937 0.0078244678  0.013673771 0.0038592995 
  857000    295.23748    4320.3581    23887.872    27.742604 -0.012677698 -0.0075670232 -0.0029455374 
  858000    302.09389    4096.9617    23887.872    27.753279 0.0091126808 -0.0021572026 0.0045354835 
  859000    303.52847    5431.4543    23887.872    27.280214 -0.012063073 0.0068735703 -0.00030501132 
  860000    296.36859    6330.1561    23887.872    26.421226 -0.017109359 0.0005515168 0.0028418051 
  861000    301.76788    6741.3993    23887.872     26.29441   0.01133736 0.0070747869 -0.0075614347 
  862000    300.74641    5523.1786    23887.872    26.736797 0.0038776133 -0.0023555845 -0.012370966 
  863000    301.60568    3988.4225    23887.872    26.943711 0.0078406888 0.0088391169 -0.0058219406 
  864000     305.8634    7012.9639    23887.872    27.161037 -0.0079883435 0.0062304658 0.0026667803 
  865000    297.48534    6123.7124    23887.872    27.268291 -0.0085464303 -0.00039278318 -0.010977187 
  866000    300.25606    2604.6108    23887.872    27.059619  0.011449032 -0.0021318453 -0.0018621103 
  867000    302.90628    5647.3567    23887.872    26.780485 -0.0042029304 -0.0084846195 -0.00032501613 
  868000    302.00182     6347.262    23887.872     26.93382 -0.013099806 -0.0034103249 -0.013153828 
  869000    308.71683    5431.6474    23887.872    26.666382 -0.012211537 -0.0023956692 -0.0043966526 
  870000     303.1264    2393.2695    23887.872    26.474683 -0.0020683687 -0.0053032877 0.0091877036 
  871000    305.21471    4819.2396    23887.872    26.548716 -0.010223464 0.00036171733 -0.013608838 
  872000    307.03184    7011.2073    23887.872    26.623981 0.0062273599 -0.0012200456 0.0064035974 
  873000    307.52566    7371.3317    23887.872    27.081444 -0.0079354085 -0.0050982433 0.0021236318 
  874000    304.62279    3985.3573    23887.872    27.885072 0.0022246425 -0.010066771 0.0073071352 
  875000    302.73268    2900.6409    23887.872    28.230881 -0.0056375998 -0.0035147764  0.012514639 
  876000    302.04765    6890.0214    23887.872    27.889057 -0.011473797 0.0083126845 -0.0050808858 
  877000     307.1888    7142.8929    23887.872    26.682278 -0.0074392443 0.00099484089 -0.0052192472 
  878000    299.79558    2646.7232    23887.872    25.450359 0.0050359204 0.0024354036 -0.00026791376 
  879000    305.55067    3056.5195    23887.872    24.709713  0.010311672  0.010588773 0.0035264048 
  880000    303.82202    9230.6576    23887.872    24.870607 -0.0086372408  0.015459406 -0.0020379234 
  881000    296.67397    6867.0678    23887.872    26.274947  0.011319283    0.0184554  0.009040505 
  882000    306.46691    4016.3229    23887.872    27.871544 -0.0031886574 0.0043410839 0.0015087472 
  883000    299.64921    3659.3056    23887.872    28.674427 -0.011856471 -0.00033014367 -0.0018500687 
  884000    301.99685    6722.2325    23887.872    28.598392 -0.0040045589 -0.008450295 0.00073822017 
  885000    303.58773    6287.4687    23887.872    28.622012 -0.004627578 0.0060853384 -0.0076308607 
  886000    303.87751    3899.6408    23887.872    28.478838 -0.004385242 -0.011617127 0.00081039209 
  887000    306.56145    5989.6663    23887.872    28.011713 0.0003713985 0.0058686055 -0.0077015119 
  888000    302.24427    6867.3156    23887.872    27.945258 0.0013138514 0.0032129205 -0.0090584544 
  889000    304.56617    6653.0886    23887.872    27.910336 -0.0033271529 0.0076346175 -0.0092865547 
  890000    303.38608    4230.7725    23887.872    27.724881 -0.0019503177 0.00034694278 -0.0043308251 
  891000    299.54989     6852.226    23887.872    27.280199 -0.010166282 0.0019228054 -0.0083282841 
  892000    299.76218    5726.3047    23887.872    26.732809 -0.0078375227 -0.00037940847 0.0026485769 
  893000     302.9934    5788.3269    23887.872     26.62375  0.016668766 0.0075681104 0.0030823735 
  894000     294.5028    4336.4648    23887.872    26.653043 -0.0044729656 -0.0033914818 0.0077372082 
  895000    304.87439    4589.7958    23887.872    26.152941 -0.002357575 -0.00050574911 0.0075928518 
  896000    300.39604    4562.6235    23887.872    26.022002 -0.0054602177 0.0012543182  0.013914447 
  897000    299.87483    7664.9315    23887.872    26.671936 -0.00065873931  0.014986155 -0.0012136604 
  898000    300.39299    5495.3566    23887.872    27.197463 -0.0090887206 -0.0013745934 -0.0054162909 
  899000    298.92206    1831.9638    23887.872    27.214753 -0.0032670518 0.00095501564  0.011297334 
  900000    304.00714    5004.9989    23887.872    26.578208 0.0051719291 -0.0044759604 0.0024827978 
  901000    303.90659    7818.9584    23887.872    26.194852  0.001106909  0.013582837 0.0085110638 
  902000    306.32015    3508.6021    23887.872    25.984786  0.014593707 -0.0012189786 0.0015600342 
  903000    302.82094    4103.5171    23887.872    25.546924 0.0063876235  0.014385008 -0.0017391514 
  904000    300.66178     3765.885    23887.872    25.806229 -0.0092498248   0.01609425 -0.0023973037 
  905000    298.81714    10119.183    23887.872    26.553037 -0.0095961441 -0.0013439708 -0.0097140673 
  906000    300.88499     5156.992    23887.872    27.094454 -0.0018304493 0.0026085354  0.010265496 
  907000    308.32557    2381.9883    23887.872    26.742951 0.0047484352 -0.0089740186     0.010216 
  908000     302.7787    5636.9601    23887.872    26.347433 -0.0047711898 -0.014689628 -0.0025017058 
  909000    306.47995    5833.9726    23887.872    26.222795  0.017532452 -0.013638025 0.0068833599 
  910000    310.35726    7278.3041    23887.872    26.747264 -0.0012986041 0.0028875065 -0.004631565 
  911000    299.06553    4976.3945    23887.872    27.041193 -0.0020402659 0.0068040612 0.0083580738 
  912000    299.05253    3077.7854    23887.872    26.777251 -0.007257917 -0.0091540577 0.0028376418 
  913000    304.29377    7788.3409    23887.872    26.877817 0.0093302861 -0.0071932956 -0.0025697165 
  914000    302.08246    6584.1989    23887.872    27.125859 -0.0040435914 0.0041155733 -0.0056368325 
  915000     299.8181    1916.5145    23887.872    27.062544 0.00023536679 0.0039831857 0.0023945475 
  916000    302.45181    5712.3324    23887.872    26.794779 -0.0086553856 0.0041520218 0.0022525723 
  917000    304.89354    7908.0479    23887.872    26.683111  0.008064924 -0.00015664973 -0.0084757976 
  918000    301.54633    7469.2898    23887.872    26.744551 -0.0036918437 -0.017144391 0.0033873918 
  919000    302.21458    2772.5758    23887.872    27.426698 -0.0077453213 0.0020487696 0.00027717919 
  920000    302.51619    5077.0283    23887.872    27.934721 0.0041007549  -0.01276849 0.0056433321 
  921000    303.81414    5141.8103    23887.872    27.861293   0.01716179  -0.00958109 0.0058591142 
  922000    305.15145    4881.4413    23887.872    27.648485 -0.0010305504 0.0026563382 -0.013734344 
  923000    296.26295    5805.0783    23887.872    27.403419  0.011233598 0.0053781659 -0.019232348 
  924000    309.86855    6043.6845    23887.872    26.574565  0.016281545   0.01097557 -0.017870653 
  925000    296.40938    5055.8442    23887.872    26.072567 -0.013329689 0.0020726557 -0.00097263394 
  926000    303.37401    1002.7614    23887.872    26.469354 -0.012454129 0.0053434569 -0.010142423 
  927000    305.34988    6084.1521    23887.872    26.761927 -0.013007931 0.0030711333 0.0016395722 
  928000    303.18962    6923.2921    23887.872    26.415794 0.0052590295 -0.023402983 -0.012709738 
  929000    298.39307     3729.896    23887.872    26.309571 0.0016027929 0.0063561945 -0.0078692774 
  930000     302.5344    2371.6729    23887.872     26.53099 -0.008625554  0.015101884 -0.0087918074 
  931000    300.95189    5069.9363    23887.872    26.680563  0.001912717 -0.014401976 -0.008004253 
  932000    298.47424    6688.6281    23887.872    26.679879 -0.011137853 -0.0068108428  0.020062832 
  933000     300.7212    4582.7936    23887.872    27.024435 0.0048699394 -0.0020535047 -0.0013905468 
  934000    295.27756    3307.1459    23887.872    27.413198 0.0051975352 0.0053372485  0.004291308 
  935000    301.10479    5270.0027    23887.872    28.140446 -0.013684104 -0.0081945384 -0.0052716356 
  936000    297.62921    6604.7774    23887.872    29.000083 -0.0078690281 -0.010511227 -0.0020340199 
  937000    310.17263    5190.6079    23887.872    29.172033 -0.0023799176 0.0034579708 -0.00031266505 
  938000    307.65241     4117.736    23887.872    28.491557 -0.0047181394 -0.013619571 0.0074630677 
  939000    308.06372    3092.4558    23887.872    28.060309 0.0085117201 -0.0072728529 0.00040167153 
  940000    296.97572    7493.0603    23887.872    28.236762 -0.0010938872 -0.0051383125 0.0096360336 
  941000    298.66127    6094.4628    23887.872    28.280369 -0.0063594008 -0.0097424636 0.0052875066 
  942000    296.25408    5214.7181    23887.872    28.029404 -0.010313046 0.0026634904 0.0062473209 
  943000    300.65471    4221.2942    23887.872    27.567685 0.0083855761 0.0055599049 0.0064577686 
  944000    306.41897     3890.687    23887.872    27.314576 0.0083570618 0.0053798834 0.0025464223 
  945000    309.41878    6579.9358    23887.872    26.993748 0.0020606505 7.4978169e-05 0.0052944696 
  946000    297.39431    3671.8786    23887.872     27.02619   0.00801045 0.0094117199 -0.00023786902 
  947000    294.07537    5910.8332    23887.872    27.144786 0.0054923794 0.0044374237 0.0041026682 
  948000    303.14995    6484.4632    23887.872     28.00429 0.0023427571 0.0015897013 0.0093825818 
  949000    310.58181    3607.4022    23887.872    29.196759  0.016520464 -0.0047284036 0.0034157594 
  950000    300.08782    3286.8298    23887.872    29.808947 0.0076124397 -0.0069891753 -0.0027806111 
  951000    299.43223    5827.8375    23887.872    30.027153 -0.014185678 0.0062067333 0.0041771474 
  952000    302.24102      6604.94    23887.872     29.81456 0.0013958151 0.0081396021 -0.00034418383 
  953000    305.94972    4195.8076    23887.872    29.272771 0.0031191293  0.021707102 0.0064683153 
  954000    295.51316    3877.9308    23887.872    28.441152 0.0018469768 -0.0042425066 -0.0062360454 
  955000      295.242    7163.3044    23887.872    27.428134 0.0051715559 0.00015069669  0.010231222 
  956000    304.51271    8080.5027    23887.872    26.975149 -0.011979583  0.003019789  -0.01102152 
  957000    302.01467    4497.5265    23887.872    27.068238 -0.020653657  0.005017098 -0.0048150753 
  958000    304.74191    3039.1642    23887.872    27.029009  0.004104453 -0.002533916 -0.010134004 
  959000    304.85706    5900.9857    23887.872    26.583836 0.0037565479  0.015015508 -0.014541714 
  960000    298.87567    7306.8198    23887.872    26.360124 -0.0099809688 -0.011399245 -0.0074798431 
  961000    309.94645    4405.5991    23887.872    26.177045 3.6679317e-05 -0.011198266 -0.0012649898 
  962000    301.38692    2236.7378    23887.872    26.231881 -0.0084093505 -0.010415083 -0.0047712776 
  963000    297.00939    6613.1052    23887.872    26.245414 0.0063452383 -0.0022359443  0.012331811 
  964000    301.41019    7915.1104    23887.872    26.640828 0.0031394478 -0.015369493  0.008826664 
  965000    297.48967    4918.3842    23887.872     27.13282 0.0044571525 0.0055495622 0.0061161642 
  966000    305.28982    2268.1298    23887.872     27.22183  -0.01130107  -0.01080446 -0.010693481 
  967000    298.96787    3009.0944    23887.872    27.798649 0.0046660775 0.0051512128 0.0080046709 
  968000    299.30966    7966.5306    23887.872    28.912119 0.00061538891 -0.0027795828 -0.0087273276 
  969000    308.19997    7425.3397    23887.872    29.869331 -0.0015507455 0.0017985332  0.013209548 
  970000    305.28729    3508.8863    23887.872    30.327085 0.0036935348  0.007327786 0.0075531296 
  971000    298.69585    4686.7637    23887.872    29.602956  0.012508379  0.011486188  0.011119265 
  972000    300.00024    4859.5043    23887.872    28.979171 -0.003405727 -0.0037813423 0.0032269506 
  973000    302.86817    6391.3961    23887.872    28.625002   0.01943385 0.0022828015  0.020443616 
  974000    303.29015    8652.7381    23887.872    28.462126 0.00037953434  0.017694133 -0.023311649 
  975000    299.67751    2797.6262    23887.872    28.653686 0.0037741934 -0.0043062221 0.00066878932 
  976000    308.94402    4849.1383    23887.872    28.989944  0.013539056  0.012060384 0.0038839683 
  977000    295.70478     5034.063    23887.872    29.376301  0.011584429  -0.01237538  0.012295729 
  978000    296.73909     7310.453    23887.872    28.961709 0.0081946632 0.0044382578 -0.0074089621 
  979000    297.61698    6955.1783    23887.872    28.005232 -0.019833358 0.0079035661 0.0058603595 
  980000    301.41733    3192.1433    23887.872    27.194304 -0.0042857334 0.0077406116 -0.0060462894 
  981000    299.86691    5724.3032    23887.872    26.990329 0.0023481924   0.01672624 -0.0074760705 
  982000    296.73805    3904.2002    23887.872    26.794057 -2.8355776e-05 0.00059948279 -0.004532137 
  983000    299.17494    5193.2984    23887.872    26.201464 0.0026050294 -0.0036080826 0.0024784739 
  984000    300.48193    6464.3296    23887.872    26.067424 0.0066290448 0.0086976674  -0.01041833 
  985000    301.46091    5342.7987    23887.872    26.398223 0.00017673767 -0.0054952689  -0.01062726 
  986000    301.83161    7494.4996    23887.872    27.226843 -0.0047032053 0.0032178073 -0.0097790866 
  987000    303.81448    5594.2413    23887.872    27.892656 -0.0047496141 0.0070058324 -0.0050660606 
  988000    304.79432    3022.7052    23887.872    27.679729 0.0062946301  0.017838009 5.9869279e-05 
  989000    294.44944    4580.7537    23887.872    27.503709 -0.0068406247 -0.0023906945 -0.0032889274 
  990000    303.52768    4230.7042    23887.872    27.358195 -0.0069185014 0.0010311702  0.018130914 
  991000    298.06217    7171.4482    23887.872     27.52053 -0.014322241 0.0099259464 0.0002311263 
  992000     305.5372    6827.4607    23887.872     28.14707 -0.0011462144 -0.012087382  0.002162197 
  993000    303.00672    2752.6698    23887.872    28.913813  0.017035383 0.0074976625 -0.012709543 
  994000    295.08065    5124.2664    23887.872    29.017476 -0.0011369011 -0.010265724 -0.0053213491 
  995000    302.21887    5771.8569    23887.872    28.764769  0.012665788 2.205354e-05  0.016454088 
  996000    300.20458    3686.1139    23887.872    28.432588 -0.017586467 0.0079205148 0.0022738585 
  997000    304.57128    3006.6573    23887.872    28.027165  0.018543713 -0.0034632007 0.0058209053 
  998000    295.45482    5824.5337    23887.872    27.729963 -0.0081542534 -0.0036289195 -0.003643746 
  999000    300.20996    6261.8855    23887.872    26.994536 -0.00024521694 -0.00069914188 -0.00029277133 
 1000000     299.6677    4334.9163    23887.872    26.803444 0.0054009618 -0.0066936368 0.00048449992 
Loop time of 22141.5 on 16 procs for 1000000 steps with 1920 atoms

Pair  time (%) = 19200.4 (86.717)
Bond  time (%) = 0.506877 (0.00228927)
Neigh time (%) = 40.281 (0.181926)
Comm  time (%) = 2432.58 (10.9866)
Outpt time (%) = 2.82276 (0.0127487)
Other time (%) = 464.849 (2.09945)

Nlocal:    120 ave 127 max 114 min
Histogram: 4 1 0 3 1 1 1 1 2 2
Nghost:    4979.12 ave 5002 max 4957 min
Histogram: 2 2 1 1 0 2 4 2 1 1
Neighs:    52879.7 ave 55983 max 49937 min
Histogram: 3 2 0 3 1 0 2 1 0 4
FullNghs: 105759 ave 112323 max 99939 min
Histogram: 2 3 1 2 1 1 1 1 2 2

Total # of neighbors = 1692150
Ave neighs/atom = 881.328
Ave special neighs/atom = 0
Neighbor list builds = 4724
Dangerous builds = 0
#	run			10000
	unfix			1
	uncompute		myKE
	uncompute		myPE
	uncompute		myStress
	uncompute		flux
	uncompute		myDis
	unfix			JJ

	next seed
	next iseed
jump lmp.in.gk loop_seed
variable iseed loop 10
variable seed index 11111 22222 33333 44444 55555 66666 77777 88888 99999 11110
clear
###########################################################################
#x0
###########################################################################
units 			metal
atom_style		full
read_data		fort.26
  0 = max bonds/atom
  0 = max angles/atom
  0 = max dihedrals/atom
  triclinic box = (0 0 0) to (28.8 28.8 28.8) with tilt (0 0 0)
  2 by 2 by 4 processor grid
  1920 atoms
  0 bonds
  0 angles
  0 dihedrals
  0 = max # of 1-2 neighbors
  0 = max # of 1-3 neighbors
  0 = max # of 1-4 neighbors
  1 = max # of special neighbors
group         		C type = 1
60 atoms in group C
###########################################################################
#OLPS
###########################################################################

################################################################################
#### Pair potentials
################################################################################
pair_style hybrid/overlay tersoff lj/cut 12.0
pair_coeff * * tersoff C.temp.tersoff 1 2 3 4 5 6 7 8 9 10 11 12 13 14 15 16 17 18 19 20 21 22 23 24 25 26 27 28 29 30 31 32
pair_coeff 1 2 lj/cut 0.00070000000 3.5500000000
pair_coeff 1 3 lj/cut 0.00070000000 3.5500000000
pair_coeff 1 4 lj/cut 0.00070000000 3.5500000000
pair_coeff 1 5 lj/cut 0.00070000000 3.5500000000
pair_coeff 1 6 lj/cut 0.00070000000 3.5500000000
pair_coeff 1 7 lj/cut 0.00070000000 3.5500000000
pair_coeff 1 8 lj/cut 0.00070000000 3.5500000000
pair_coeff 1 9 lj/cut 0.00070000000 3.5500000000
pair_coeff 1 10 lj/cut 0.00070000000 3.5500000000
pair_coeff 1 11 lj/cut 0.00070000000 3.5500000000
pair_coeff 1 12 lj/cut 0.00070000000 3.5500000000
pair_coeff 1 13 lj/cut 0.00070000000 3.5500000000
pair_coeff 1 14 lj/cut 0.00070000000 3.5500000000
pair_coeff 1 15 lj/cut 0.00070000000 3.5500000000
pair_coeff 1 16 lj/cut 0.00070000000 3.5500000000
pair_coeff 1 17 lj/cut 0.00070000000 3.5500000000
pair_coeff 1 18 lj/cut 0.00070000000 3.5500000000
pair_coeff 1 19 lj/cut 0.00070000000 3.5500000000
pair_coeff 1 20 lj/cut 0.00070000000 3.5500000000
pair_coeff 1 21 lj/cut 0.00070000000 3.5500000000
pair_coeff 1 22 lj/cut 0.00070000000 3.5500000000
pair_coeff 1 23 lj/cut 0.00070000000 3.5500000000
pair_coeff 1 24 lj/cut 0.00070000000 3.5500000000
pair_coeff 1 25 lj/cut 0.00070000000 3.5500000000
pair_coeff 1 26 lj/cut 0.00070000000 3.5500000000
pair_coeff 1 27 lj/cut 0.00070000000 3.5500000000
pair_coeff 1 28 lj/cut 0.00070000000 3.5500000000
pair_coeff 1 29 lj/cut 0.00070000000 3.5500000000
pair_coeff 1 30 lj/cut 0.00070000000 3.5500000000
pair_coeff 1 31 lj/cut 0.00070000000 3.5500000000
pair_coeff 1 32 lj/cut 0.00070000000 3.5500000000

pair_coeff 2 3 lj/cut 0.00070000000 3.5500000000
pair_coeff 2 4 lj/cut 0.00070000000 3.5500000000
pair_coeff 2 5 lj/cut 0.00070000000 3.5500000000
pair_coeff 2 6 lj/cut 0.00070000000 3.5500000000
pair_coeff 2 7 lj/cut 0.00070000000 3.5500000000
pair_coeff 2 8 lj/cut 0.00070000000 3.5500000000
pair_coeff 2 9 lj/cut 0.00070000000 3.5500000000
pair_coeff 2 10 lj/cut 0.00070000000 3.5500000000
pair_coeff 2 11 lj/cut 0.00070000000 3.5500000000
pair_coeff 2 12 lj/cut 0.00070000000 3.5500000000
pair_coeff 2 13 lj/cut 0.00070000000 3.5500000000
pair_coeff 2 14 lj/cut 0.00070000000 3.5500000000
pair_coeff 2 15 lj/cut 0.00070000000 3.5500000000
pair_coeff 2 16 lj/cut 0.00070000000 3.5500000000
pair_coeff 2 17 lj/cut 0.00070000000 3.5500000000
pair_coeff 2 18 lj/cut 0.00070000000 3.5500000000
pair_coeff 2 19 lj/cut 0.00070000000 3.5500000000
pair_coeff 2 20 lj/cut 0.00070000000 3.5500000000
pair_coeff 2 21 lj/cut 0.00070000000 3.5500000000
pair_coeff 2 22 lj/cut 0.00070000000 3.5500000000
pair_coeff 2 23 lj/cut 0.00070000000 3.5500000000
pair_coeff 2 24 lj/cut 0.00070000000 3.5500000000
pair_coeff 2 25 lj/cut 0.00070000000 3.5500000000
pair_coeff 2 26 lj/cut 0.00070000000 3.5500000000
pair_coeff 2 27 lj/cut 0.00070000000 3.5500000000
pair_coeff 2 28 lj/cut 0.00070000000 3.5500000000
pair_coeff 2 29 lj/cut 0.00070000000 3.5500000000
pair_coeff 2 30 lj/cut 0.00070000000 3.5500000000
pair_coeff 2 31 lj/cut 0.00070000000 3.5500000000
pair_coeff 2 32 lj/cut 0.00070000000 3.5500000000

pair_coeff 3 4 lj/cut 0.00070000000 3.5500000000
pair_coeff 3 5 lj/cut 0.00070000000 3.5500000000
pair_coeff 3 6 lj/cut 0.00070000000 3.5500000000
pair_coeff 3 7 lj/cut 0.00070000000 3.5500000000
pair_coeff 3 8 lj/cut 0.00070000000 3.5500000000
pair_coeff 3 9 lj/cut 0.00070000000 3.5500000000
pair_coeff 3 10 lj/cut 0.00070000000 3.5500000000
pair_coeff 3 11 lj/cut 0.00070000000 3.5500000000
pair_coeff 3 12 lj/cut 0.00070000000 3.5500000000
pair_coeff 3 13 lj/cut 0.00070000000 3.5500000000
pair_coeff 3 14 lj/cut 0.00070000000 3.5500000000
pair_coeff 3 15 lj/cut 0.00070000000 3.5500000000
pair_coeff 3 16 lj/cut 0.00070000000 3.5500000000
pair_coeff 3 17 lj/cut 0.00070000000 3.5500000000
pair_coeff 3 18 lj/cut 0.00070000000 3.5500000000
pair_coeff 3 19 lj/cut 0.00070000000 3.5500000000
pair_coeff 3 20 lj/cut 0.00070000000 3.5500000000
pair_coeff 3 21 lj/cut 0.00070000000 3.5500000000
pair_coeff 3 22 lj/cut 0.00070000000 3.5500000000
pair_coeff 3 23 lj/cut 0.00070000000 3.5500000000
pair_coeff 3 24 lj/cut 0.00070000000 3.5500000000
pair_coeff 3 25 lj/cut 0.00070000000 3.5500000000
pair_coeff 3 26 lj/cut 0.00070000000 3.5500000000
pair_coeff 3 27 lj/cut 0.00070000000 3.5500000000
pair_coeff 3 28 lj/cut 0.00070000000 3.5500000000
pair_coeff 3 29 lj/cut 0.00070000000 3.5500000000
pair_coeff 3 30 lj/cut 0.00070000000 3.5500000000
pair_coeff 3 31 lj/cut 0.00070000000 3.5500000000
pair_coeff 3 32 lj/cut 0.00070000000 3.5500000000

pair_coeff 4 5 lj/cut 0.00070000000 3.5500000000
pair_coeff 4 6 lj/cut 0.00070000000 3.5500000000
pair_coeff 4 7 lj/cut 0.00070000000 3.5500000000
pair_coeff 4 8 lj/cut 0.00070000000 3.5500000000
pair_coeff 4 9 lj/cut 0.00070000000 3.5500000000
pair_coeff 4 10 lj/cut 0.00070000000 3.5500000000
pair_coeff 4 11 lj/cut 0.00070000000 3.5500000000
pair_coeff 4 12 lj/cut 0.00070000000 3.5500000000
pair_coeff 4 13 lj/cut 0.00070000000 3.5500000000
pair_coeff 4 14 lj/cut 0.00070000000 3.5500000000
pair_coeff 4 15 lj/cut 0.00070000000 3.5500000000
pair_coeff 4 16 lj/cut 0.00070000000 3.5500000000
pair_coeff 4 17 lj/cut 0.00070000000 3.5500000000
pair_coeff 4 18 lj/cut 0.00070000000 3.5500000000
pair_coeff 4 19 lj/cut 0.00070000000 3.5500000000
pair_coeff 4 20 lj/cut 0.00070000000 3.5500000000
pair_coeff 4 21 lj/cut 0.00070000000 3.5500000000
pair_coeff 4 22 lj/cut 0.00070000000 3.5500000000
pair_coeff 4 23 lj/cut 0.00070000000 3.5500000000
pair_coeff 4 24 lj/cut 0.00070000000 3.5500000000
pair_coeff 4 25 lj/cut 0.00070000000 3.5500000000
pair_coeff 4 26 lj/cut 0.00070000000 3.5500000000
pair_coeff 4 27 lj/cut 0.00070000000 3.5500000000
pair_coeff 4 28 lj/cut 0.00070000000 3.5500000000
pair_coeff 4 29 lj/cut 0.00070000000 3.5500000000
pair_coeff 4 30 lj/cut 0.00070000000 3.5500000000
pair_coeff 4 31 lj/cut 0.00070000000 3.5500000000
pair_coeff 4 32 lj/cut 0.00070000000 3.5500000000

pair_coeff 5 6 lj/cut 0.00070000000 3.5500000000
pair_coeff 5 7 lj/cut 0.00070000000 3.5500000000
pair_coeff 5 8 lj/cut 0.00070000000 3.5500000000
pair_coeff 5 9 lj/cut 0.00070000000 3.5500000000
pair_coeff 5 10 lj/cut 0.00070000000 3.5500000000
pair_coeff 5 11 lj/cut 0.00070000000 3.5500000000
pair_coeff 5 12 lj/cut 0.00070000000 3.5500000000
pair_coeff 5 13 lj/cut 0.00070000000 3.5500000000
pair_coeff 5 14 lj/cut 0.00070000000 3.5500000000
pair_coeff 5 15 lj/cut 0.00070000000 3.5500000000
pair_coeff 5 16 lj/cut 0.00070000000 3.5500000000
pair_coeff 5 17 lj/cut 0.00070000000 3.5500000000
pair_coeff 5 18 lj/cut 0.00070000000 3.5500000000
pair_coeff 5 19 lj/cut 0.00070000000 3.5500000000
pair_coeff 5 20 lj/cut 0.00070000000 3.5500000000
pair_coeff 5 21 lj/cut 0.00070000000 3.5500000000
pair_coeff 5 22 lj/cut 0.00070000000 3.5500000000
pair_coeff 5 23 lj/cut 0.00070000000 3.5500000000
pair_coeff 5 24 lj/cut 0.00070000000 3.5500000000
pair_coeff 5 25 lj/cut 0.00070000000 3.5500000000
pair_coeff 5 26 lj/cut 0.00070000000 3.5500000000
pair_coeff 5 27 lj/cut 0.00070000000 3.5500000000
pair_coeff 5 28 lj/cut 0.00070000000 3.5500000000
pair_coeff 5 29 lj/cut 0.00070000000 3.5500000000
pair_coeff 5 30 lj/cut 0.00070000000 3.5500000000
pair_coeff 5 31 lj/cut 0.00070000000 3.5500000000
pair_coeff 5 32 lj/cut 0.00070000000 3.5500000000

pair_coeff 6 7 lj/cut 0.00070000000 3.5500000000
pair_coeff 6 8 lj/cut 0.00070000000 3.5500000000
pair_coeff 6 9 lj/cut 0.00070000000 3.5500000000
pair_coeff 6 10 lj/cut 0.00070000000 3.5500000000
pair_coeff 6 11 lj/cut 0.00070000000 3.5500000000
pair_coeff 6 12 lj/cut 0.00070000000 3.5500000000
pair_coeff 6 13 lj/cut 0.00070000000 3.5500000000
pair_coeff 6 14 lj/cut 0.00070000000 3.5500000000
pair_coeff 6 15 lj/cut 0.00070000000 3.5500000000
pair_coeff 6 16 lj/cut 0.00070000000 3.5500000000
pair_coeff 6 17 lj/cut 0.00070000000 3.5500000000
pair_coeff 6 18 lj/cut 0.00070000000 3.5500000000
pair_coeff 6 19 lj/cut 0.00070000000 3.5500000000
pair_coeff 6 20 lj/cut 0.00070000000 3.5500000000
pair_coeff 6 21 lj/cut 0.00070000000 3.5500000000
pair_coeff 6 22 lj/cut 0.00070000000 3.5500000000
pair_coeff 6 23 lj/cut 0.00070000000 3.5500000000
pair_coeff 6 24 lj/cut 0.00070000000 3.5500000000
pair_coeff 6 25 lj/cut 0.00070000000 3.5500000000
pair_coeff 6 26 lj/cut 0.00070000000 3.5500000000
pair_coeff 6 27 lj/cut 0.00070000000 3.5500000000
pair_coeff 6 28 lj/cut 0.00070000000 3.5500000000
pair_coeff 6 29 lj/cut 0.00070000000 3.5500000000
pair_coeff 6 30 lj/cut 0.00070000000 3.5500000000
pair_coeff 6 31 lj/cut 0.00070000000 3.5500000000
pair_coeff 6 32 lj/cut 0.00070000000 3.5500000000

pair_coeff 7 8 lj/cut 0.00070000000 3.5500000000
pair_coeff 7 9 lj/cut 0.00070000000 3.5500000000
pair_coeff 7 10 lj/cut 0.00070000000 3.5500000000
pair_coeff 7 11 lj/cut 0.00070000000 3.5500000000
pair_coeff 7 12 lj/cut 0.00070000000 3.5500000000
pair_coeff 7 13 lj/cut 0.00070000000 3.5500000000
pair_coeff 7 14 lj/cut 0.00070000000 3.5500000000
pair_coeff 7 15 lj/cut 0.00070000000 3.5500000000
pair_coeff 7 16 lj/cut 0.00070000000 3.5500000000
pair_coeff 7 17 lj/cut 0.00070000000 3.5500000000
pair_coeff 7 18 lj/cut 0.00070000000 3.5500000000
pair_coeff 7 19 lj/cut 0.00070000000 3.5500000000
pair_coeff 7 20 lj/cut 0.00070000000 3.5500000000
pair_coeff 7 21 lj/cut 0.00070000000 3.5500000000
pair_coeff 7 22 lj/cut 0.00070000000 3.5500000000
pair_coeff 7 23 lj/cut 0.00070000000 3.5500000000
pair_coeff 7 24 lj/cut 0.00070000000 3.5500000000
pair_coeff 7 25 lj/cut 0.00070000000 3.5500000000
pair_coeff 7 26 lj/cut 0.00070000000 3.5500000000
pair_coeff 7 27 lj/cut 0.00070000000 3.5500000000
pair_coeff 7 28 lj/cut 0.00070000000 3.5500000000
pair_coeff 7 29 lj/cut 0.00070000000 3.5500000000
pair_coeff 7 30 lj/cut 0.00070000000 3.5500000000
pair_coeff 7 31 lj/cut 0.00070000000 3.5500000000
pair_coeff 7 32 lj/cut 0.00070000000 3.5500000000

pair_coeff 8 9 lj/cut 0.00070000000 3.5500000000
pair_coeff 8 10 lj/cut 0.00070000000 3.5500000000
pair_coeff 8 11 lj/cut 0.00070000000 3.5500000000
pair_coeff 8 12 lj/cut 0.00070000000 3.5500000000
pair_coeff 8 13 lj/cut 0.00070000000 3.5500000000
pair_coeff 8 14 lj/cut 0.00070000000 3.5500000000
pair_coeff 8 15 lj/cut 0.00070000000 3.5500000000
pair_coeff 8 16 lj/cut 0.00070000000 3.5500000000
pair_coeff 8 17 lj/cut 0.00070000000 3.5500000000
pair_coeff 8 18 lj/cut 0.00070000000 3.5500000000
pair_coeff 8 19 lj/cut 0.00070000000 3.5500000000
pair_coeff 8 20 lj/cut 0.00070000000 3.5500000000
pair_coeff 8 21 lj/cut 0.00070000000 3.5500000000
pair_coeff 8 22 lj/cut 0.00070000000 3.5500000000
pair_coeff 8 23 lj/cut 0.00070000000 3.5500000000
pair_coeff 8 24 lj/cut 0.00070000000 3.5500000000
pair_coeff 8 25 lj/cut 0.00070000000 3.5500000000
pair_coeff 8 26 lj/cut 0.00070000000 3.5500000000
pair_coeff 8 27 lj/cut 0.00070000000 3.5500000000
pair_coeff 8 28 lj/cut 0.00070000000 3.5500000000
pair_coeff 8 29 lj/cut 0.00070000000 3.5500000000
pair_coeff 8 30 lj/cut 0.00070000000 3.5500000000
pair_coeff 8 31 lj/cut 0.00070000000 3.5500000000
pair_coeff 8 32 lj/cut 0.00070000000 3.5500000000

pair_coeff 9 10 lj/cut 0.00070000000 3.5500000000
pair_coeff 9 11 lj/cut 0.00070000000 3.5500000000
pair_coeff 9 12 lj/cut 0.00070000000 3.5500000000
pair_coeff 9 13 lj/cut 0.00070000000 3.5500000000
pair_coeff 9 14 lj/cut 0.00070000000 3.5500000000
pair_coeff 9 15 lj/cut 0.00070000000 3.5500000000
pair_coeff 9 16 lj/cut 0.00070000000 3.5500000000
pair_coeff 9 17 lj/cut 0.00070000000 3.5500000000
pair_coeff 9 18 lj/cut 0.00070000000 3.5500000000
pair_coeff 9 19 lj/cut 0.00070000000 3.5500000000
pair_coeff 9 20 lj/cut 0.00070000000 3.5500000000
pair_coeff 9 21 lj/cut 0.00070000000 3.5500000000
pair_coeff 9 22 lj/cut 0.00070000000 3.5500000000
pair_coeff 9 23 lj/cut 0.00070000000 3.5500000000
pair_coeff 9 24 lj/cut 0.00070000000 3.5500000000
pair_coeff 9 25 lj/cut 0.00070000000 3.5500000000
pair_coeff 9 26 lj/cut 0.00070000000 3.5500000000
pair_coeff 9 27 lj/cut 0.00070000000 3.5500000000
pair_coeff 9 28 lj/cut 0.00070000000 3.5500000000
pair_coeff 9 29 lj/cut 0.00070000000 3.5500000000
pair_coeff 9 30 lj/cut 0.00070000000 3.5500000000
pair_coeff 9 31 lj/cut 0.00070000000 3.5500000000
pair_coeff 9 32 lj/cut 0.00070000000 3.5500000000

pair_coeff 10 11 lj/cut 0.00070000000 3.5500000000
pair_coeff 10 12 lj/cut 0.00070000000 3.5500000000
pair_coeff 10 13 lj/cut 0.00070000000 3.5500000000
pair_coeff 10 14 lj/cut 0.00070000000 3.5500000000
pair_coeff 10 15 lj/cut 0.00070000000 3.5500000000
pair_coeff 10 16 lj/cut 0.00070000000 3.5500000000
pair_coeff 10 17 lj/cut 0.00070000000 3.5500000000
pair_coeff 10 18 lj/cut 0.00070000000 3.5500000000
pair_coeff 10 19 lj/cut 0.00070000000 3.5500000000
pair_coeff 10 20 lj/cut 0.00070000000 3.5500000000
pair_coeff 10 21 lj/cut 0.00070000000 3.5500000000
pair_coeff 10 22 lj/cut 0.00070000000 3.5500000000
pair_coeff 10 23 lj/cut 0.00070000000 3.5500000000
pair_coeff 10 24 lj/cut 0.00070000000 3.5500000000
pair_coeff 10 25 lj/cut 0.00070000000 3.5500000000
pair_coeff 10 26 lj/cut 0.00070000000 3.5500000000
pair_coeff 10 27 lj/cut 0.00070000000 3.5500000000
pair_coeff 10 28 lj/cut 0.00070000000 3.5500000000
pair_coeff 10 29 lj/cut 0.00070000000 3.5500000000
pair_coeff 10 30 lj/cut 0.00070000000 3.5500000000
pair_coeff 10 31 lj/cut 0.00070000000 3.5500000000
pair_coeff 10 32 lj/cut 0.00070000000 3.5500000000

pair_coeff 11 12 lj/cut 0.00070000000 3.5500000000
pair_coeff 11 13 lj/cut 0.00070000000 3.5500000000
pair_coeff 11 14 lj/cut 0.00070000000 3.5500000000
pair_coeff 11 15 lj/cut 0.00070000000 3.5500000000
pair_coeff 11 16 lj/cut 0.00070000000 3.5500000000
pair_coeff 11 17 lj/cut 0.00070000000 3.5500000000
pair_coeff 11 18 lj/cut 0.00070000000 3.5500000000
pair_coeff 11 19 lj/cut 0.00070000000 3.5500000000
pair_coeff 11 20 lj/cut 0.00070000000 3.5500000000
pair_coeff 11 21 lj/cut 0.00070000000 3.5500000000
pair_coeff 11 22 lj/cut 0.00070000000 3.5500000000
pair_coeff 11 23 lj/cut 0.00070000000 3.5500000000
pair_coeff 11 24 lj/cut 0.00070000000 3.5500000000
pair_coeff 11 25 lj/cut 0.00070000000 3.5500000000
pair_coeff 11 26 lj/cut 0.00070000000 3.5500000000
pair_coeff 11 27 lj/cut 0.00070000000 3.5500000000
pair_coeff 11 28 lj/cut 0.00070000000 3.5500000000
pair_coeff 11 29 lj/cut 0.00070000000 3.5500000000
pair_coeff 11 30 lj/cut 0.00070000000 3.5500000000
pair_coeff 11 31 lj/cut 0.00070000000 3.5500000000
pair_coeff 11 32 lj/cut 0.00070000000 3.5500000000

pair_coeff 12 13 lj/cut 0.00070000000 3.5500000000
pair_coeff 12 14 lj/cut 0.00070000000 3.5500000000
pair_coeff 12 15 lj/cut 0.00070000000 3.5500000000
pair_coeff 12 16 lj/cut 0.00070000000 3.5500000000
pair_coeff 12 17 lj/cut 0.00070000000 3.5500000000
pair_coeff 12 18 lj/cut 0.00070000000 3.5500000000
pair_coeff 12 19 lj/cut 0.00070000000 3.5500000000
pair_coeff 12 20 lj/cut 0.00070000000 3.5500000000
pair_coeff 12 21 lj/cut 0.00070000000 3.5500000000
pair_coeff 12 22 lj/cut 0.00070000000 3.5500000000
pair_coeff 12 23 lj/cut 0.00070000000 3.5500000000
pair_coeff 12 24 lj/cut 0.00070000000 3.5500000000
pair_coeff 12 25 lj/cut 0.00070000000 3.5500000000
pair_coeff 12 26 lj/cut 0.00070000000 3.5500000000
pair_coeff 12 27 lj/cut 0.00070000000 3.5500000000
pair_coeff 12 28 lj/cut 0.00070000000 3.5500000000
pair_coeff 12 29 lj/cut 0.00070000000 3.5500000000
pair_coeff 12 30 lj/cut 0.00070000000 3.5500000000
pair_coeff 12 31 lj/cut 0.00070000000 3.5500000000
pair_coeff 12 32 lj/cut 0.00070000000 3.5500000000

pair_coeff 13 14 lj/cut 0.00070000000 3.5500000000
pair_coeff 13 15 lj/cut 0.00070000000 3.5500000000
pair_coeff 13 16 lj/cut 0.00070000000 3.5500000000
pair_coeff 13 17 lj/cut 0.00070000000 3.5500000000
pair_coeff 13 18 lj/cut 0.00070000000 3.5500000000
pair_coeff 13 19 lj/cut 0.00070000000 3.5500000000
pair_coeff 13 20 lj/cut 0.00070000000 3.5500000000
pair_coeff 13 21 lj/cut 0.00070000000 3.5500000000
pair_coeff 13 22 lj/cut 0.00070000000 3.5500000000
pair_coeff 13 23 lj/cut 0.00070000000 3.5500000000
pair_coeff 13 24 lj/cut 0.00070000000 3.5500000000
pair_coeff 13 25 lj/cut 0.00070000000 3.5500000000
pair_coeff 13 26 lj/cut 0.00070000000 3.5500000000
pair_coeff 13 27 lj/cut 0.00070000000 3.5500000000
pair_coeff 13 28 lj/cut 0.00070000000 3.5500000000
pair_coeff 13 29 lj/cut 0.00070000000 3.5500000000
pair_coeff 13 30 lj/cut 0.00070000000 3.5500000000
pair_coeff 13 31 lj/cut 0.00070000000 3.5500000000
pair_coeff 13 32 lj/cut 0.00070000000 3.5500000000

pair_coeff 14 15 lj/cut 0.00070000000 3.5500000000
pair_coeff 14 16 lj/cut 0.00070000000 3.5500000000
pair_coeff 14 17 lj/cut 0.00070000000 3.5500000000
pair_coeff 14 18 lj/cut 0.00070000000 3.5500000000
pair_coeff 14 19 lj/cut 0.00070000000 3.5500000000
pair_coeff 14 20 lj/cut 0.00070000000 3.5500000000
pair_coeff 14 21 lj/cut 0.00070000000 3.5500000000
pair_coeff 14 22 lj/cut 0.00070000000 3.5500000000
pair_coeff 14 23 lj/cut 0.00070000000 3.5500000000
pair_coeff 14 24 lj/cut 0.00070000000 3.5500000000
pair_coeff 14 25 lj/cut 0.00070000000 3.5500000000
pair_coeff 14 26 lj/cut 0.00070000000 3.5500000000
pair_coeff 14 27 lj/cut 0.00070000000 3.5500000000
pair_coeff 14 28 lj/cut 0.00070000000 3.5500000000
pair_coeff 14 29 lj/cut 0.00070000000 3.5500000000
pair_coeff 14 30 lj/cut 0.00070000000 3.5500000000
pair_coeff 14 31 lj/cut 0.00070000000 3.5500000000
pair_coeff 14 32 lj/cut 0.00070000000 3.5500000000

pair_coeff 15 16 lj/cut 0.00070000000 3.5500000000
pair_coeff 15 17 lj/cut 0.00070000000 3.5500000000
pair_coeff 15 18 lj/cut 0.00070000000 3.5500000000
pair_coeff 15 19 lj/cut 0.00070000000 3.5500000000
pair_coeff 15 20 lj/cut 0.00070000000 3.5500000000
pair_coeff 15 21 lj/cut 0.00070000000 3.5500000000
pair_coeff 15 22 lj/cut 0.00070000000 3.5500000000
pair_coeff 15 23 lj/cut 0.00070000000 3.5500000000
pair_coeff 15 24 lj/cut 0.00070000000 3.5500000000
pair_coeff 15 25 lj/cut 0.00070000000 3.5500000000
pair_coeff 15 26 lj/cut 0.00070000000 3.5500000000
pair_coeff 15 27 lj/cut 0.00070000000 3.5500000000
pair_coeff 15 28 lj/cut 0.00070000000 3.5500000000
pair_coeff 15 29 lj/cut 0.00070000000 3.5500000000
pair_coeff 15 30 lj/cut 0.00070000000 3.5500000000
pair_coeff 15 31 lj/cut 0.00070000000 3.5500000000
pair_coeff 15 32 lj/cut 0.00070000000 3.5500000000

pair_coeff 16 17 lj/cut 0.00070000000 3.5500000000
pair_coeff 16 18 lj/cut 0.00070000000 3.5500000000
pair_coeff 16 19 lj/cut 0.00070000000 3.5500000000
pair_coeff 16 20 lj/cut 0.00070000000 3.5500000000
pair_coeff 16 21 lj/cut 0.00070000000 3.5500000000
pair_coeff 16 22 lj/cut 0.00070000000 3.5500000000
pair_coeff 16 23 lj/cut 0.00070000000 3.5500000000
pair_coeff 16 24 lj/cut 0.00070000000 3.5500000000
pair_coeff 16 25 lj/cut 0.00070000000 3.5500000000
pair_coeff 16 26 lj/cut 0.00070000000 3.5500000000
pair_coeff 16 27 lj/cut 0.00070000000 3.5500000000
pair_coeff 16 28 lj/cut 0.00070000000 3.5500000000
pair_coeff 16 29 lj/cut 0.00070000000 3.5500000000
pair_coeff 16 30 lj/cut 0.00070000000 3.5500000000
pair_coeff 16 31 lj/cut 0.00070000000 3.5500000000
pair_coeff 16 32 lj/cut 0.00070000000 3.5500000000

pair_coeff 17 18 lj/cut 0.00070000000 3.5500000000
pair_coeff 17 19 lj/cut 0.00070000000 3.5500000000
pair_coeff 17 20 lj/cut 0.00070000000 3.5500000000
pair_coeff 17 21 lj/cut 0.00070000000 3.5500000000
pair_coeff 17 22 lj/cut 0.00070000000 3.5500000000
pair_coeff 17 23 lj/cut 0.00070000000 3.5500000000
pair_coeff 17 24 lj/cut 0.00070000000 3.5500000000
pair_coeff 17 25 lj/cut 0.00070000000 3.5500000000
pair_coeff 17 26 lj/cut 0.00070000000 3.5500000000
pair_coeff 17 27 lj/cut 0.00070000000 3.5500000000
pair_coeff 17 28 lj/cut 0.00070000000 3.5500000000
pair_coeff 17 29 lj/cut 0.00070000000 3.5500000000
pair_coeff 17 30 lj/cut 0.00070000000 3.5500000000
pair_coeff 17 31 lj/cut 0.00070000000 3.5500000000
pair_coeff 17 32 lj/cut 0.00070000000 3.5500000000

pair_coeff 18 19 lj/cut 0.00070000000 3.5500000000
pair_coeff 18 20 lj/cut 0.00070000000 3.5500000000
pair_coeff 18 21 lj/cut 0.00070000000 3.5500000000
pair_coeff 18 22 lj/cut 0.00070000000 3.5500000000
pair_coeff 18 23 lj/cut 0.00070000000 3.5500000000
pair_coeff 18 24 lj/cut 0.00070000000 3.5500000000
pair_coeff 18 25 lj/cut 0.00070000000 3.5500000000
pair_coeff 18 26 lj/cut 0.00070000000 3.5500000000
pair_coeff 18 27 lj/cut 0.00070000000 3.5500000000
pair_coeff 18 28 lj/cut 0.00070000000 3.5500000000
pair_coeff 18 29 lj/cut 0.00070000000 3.5500000000
pair_coeff 18 30 lj/cut 0.00070000000 3.5500000000
pair_coeff 18 31 lj/cut 0.00070000000 3.5500000000
pair_coeff 18 32 lj/cut 0.00070000000 3.5500000000

pair_coeff 19 20 lj/cut 0.00070000000 3.5500000000
pair_coeff 19 21 lj/cut 0.00070000000 3.5500000000
pair_coeff 19 22 lj/cut 0.00070000000 3.5500000000
pair_coeff 19 23 lj/cut 0.00070000000 3.5500000000
pair_coeff 19 24 lj/cut 0.00070000000 3.5500000000
pair_coeff 19 25 lj/cut 0.00070000000 3.5500000000
pair_coeff 19 26 lj/cut 0.00070000000 3.5500000000
pair_coeff 19 27 lj/cut 0.00070000000 3.5500000000
pair_coeff 19 28 lj/cut 0.00070000000 3.5500000000
pair_coeff 19 29 lj/cut 0.00070000000 3.5500000000
pair_coeff 19 30 lj/cut 0.00070000000 3.5500000000
pair_coeff 19 31 lj/cut 0.00070000000 3.5500000000
pair_coeff 19 32 lj/cut 0.00070000000 3.5500000000

pair_coeff 20 21 lj/cut 0.00070000000 3.5500000000
pair_coeff 20 22 lj/cut 0.00070000000 3.5500000000
pair_coeff 20 23 lj/cut 0.00070000000 3.5500000000
pair_coeff 20 24 lj/cut 0.00070000000 3.5500000000
pair_coeff 20 25 lj/cut 0.00070000000 3.5500000000
pair_coeff 20 26 lj/cut 0.00070000000 3.5500000000
pair_coeff 20 27 lj/cut 0.00070000000 3.5500000000
pair_coeff 20 28 lj/cut 0.00070000000 3.5500000000
pair_coeff 20 29 lj/cut 0.00070000000 3.5500000000
pair_coeff 20 30 lj/cut 0.00070000000 3.5500000000
pair_coeff 20 31 lj/cut 0.00070000000 3.5500000000
pair_coeff 20 32 lj/cut 0.00070000000 3.5500000000

pair_coeff 21 22 lj/cut 0.00070000000 3.5500000000
pair_coeff 21 23 lj/cut 0.00070000000 3.5500000000
pair_coeff 21 24 lj/cut 0.00070000000 3.5500000000
pair_coeff 21 25 lj/cut 0.00070000000 3.5500000000
pair_coeff 21 26 lj/cut 0.00070000000 3.5500000000
pair_coeff 21 27 lj/cut 0.00070000000 3.5500000000
pair_coeff 21 28 lj/cut 0.00070000000 3.5500000000
pair_coeff 21 29 lj/cut 0.00070000000 3.5500000000
pair_coeff 21 30 lj/cut 0.00070000000 3.5500000000
pair_coeff 21 31 lj/cut 0.00070000000 3.5500000000
pair_coeff 21 32 lj/cut 0.00070000000 3.5500000000

pair_coeff 22 23 lj/cut 0.00070000000 3.5500000000
pair_coeff 22 24 lj/cut 0.00070000000 3.5500000000
pair_coeff 22 25 lj/cut 0.00070000000 3.5500000000
pair_coeff 22 26 lj/cut 0.00070000000 3.5500000000
pair_coeff 22 27 lj/cut 0.00070000000 3.5500000000
pair_coeff 22 28 lj/cut 0.00070000000 3.5500000000
pair_coeff 22 29 lj/cut 0.00070000000 3.5500000000
pair_coeff 22 30 lj/cut 0.00070000000 3.5500000000
pair_coeff 22 31 lj/cut 0.00070000000 3.5500000000
pair_coeff 22 32 lj/cut 0.00070000000 3.5500000000

pair_coeff 23 24 lj/cut 0.00070000000 3.5500000000
pair_coeff 23 25 lj/cut 0.00070000000 3.5500000000
pair_coeff 23 26 lj/cut 0.00070000000 3.5500000000
pair_coeff 23 27 lj/cut 0.00070000000 3.5500000000
pair_coeff 23 28 lj/cut 0.00070000000 3.5500000000
pair_coeff 23 29 lj/cut 0.00070000000 3.5500000000
pair_coeff 23 30 lj/cut 0.00070000000 3.5500000000
pair_coeff 23 31 lj/cut 0.00070000000 3.5500000000
pair_coeff 23 32 lj/cut 0.00070000000 3.5500000000

pair_coeff 24 25 lj/cut 0.00070000000 3.5500000000
pair_coeff 24 26 lj/cut 0.00070000000 3.5500000000
pair_coeff 24 27 lj/cut 0.00070000000 3.5500000000
pair_coeff 24 28 lj/cut 0.00070000000 3.5500000000
pair_coeff 24 29 lj/cut 0.00070000000 3.5500000000
pair_coeff 24 30 lj/cut 0.00070000000 3.5500000000
pair_coeff 24 31 lj/cut 0.00070000000 3.5500000000
pair_coeff 24 32 lj/cut 0.00070000000 3.5500000000

pair_coeff 25 26 lj/cut 0.00070000000 3.5500000000
pair_coeff 25 27 lj/cut 0.00070000000 3.5500000000
pair_coeff 25 28 lj/cut 0.00070000000 3.5500000000
pair_coeff 25 29 lj/cut 0.00070000000 3.5500000000
pair_coeff 25 30 lj/cut 0.00070000000 3.5500000000
pair_coeff 25 31 lj/cut 0.00070000000 3.5500000000
pair_coeff 25 32 lj/cut 0.00070000000 3.5500000000

pair_coeff 26 27 lj/cut 0.00070000000 3.5500000000
pair_coeff 26 28 lj/cut 0.00070000000 3.5500000000
pair_coeff 26 29 lj/cut 0.00070000000 3.5500000000
pair_coeff 26 30 lj/cut 0.00070000000 3.5500000000
pair_coeff 26 31 lj/cut 0.00070000000 3.5500000000
pair_coeff 26 32 lj/cut 0.00070000000 3.5500000000

pair_coeff 27 28 lj/cut 0.00070000000 3.5500000000
pair_coeff 27 29 lj/cut 0.00070000000 3.5500000000
pair_coeff 27 30 lj/cut 0.00070000000 3.5500000000
pair_coeff 27 31 lj/cut 0.00070000000 3.5500000000
pair_coeff 27 32 lj/cut 0.00070000000 3.5500000000

pair_coeff 28 29 lj/cut 0.00070000000 3.5500000000
pair_coeff 28 30 lj/cut 0.00070000000 3.5500000000
pair_coeff 28 31 lj/cut 0.00070000000 3.5500000000
pair_coeff 28 32 lj/cut 0.00070000000 3.5500000000

pair_coeff 29 30 lj/cut 0.00070000000 3.5500000000
pair_coeff 29 31 lj/cut 0.00070000000 3.5500000000
pair_coeff 29 32 lj/cut 0.00070000000 3.5500000000

pair_coeff 30 31 lj/cut 0.00070000000 3.5500000000
pair_coeff 30 32 lj/cut 0.00070000000 3.5500000000

pair_coeff 31 32 lj/cut 0.00070000000 3.5500000000

special_bonds lj 0.0 0.0 0.0 coul 0.0 0.0 0.0

#pair_style tersoff 
#pair_coeff * * C.4.tersoff 1 2 3 4

#pair_style lj/cut 12.0
#pair_coeff 1 1 0.00070000000 3.5500000000
#special_bonds lj 0.0 0.0 0.0 coul 0.0 0.0 0.0
###########################################################################


#--------------------------------------------------------------------------
#variables
#--------------------------------------------------------------------------
variable   	dt 		equal 0.001
#--------------------------------------------------------------------------
#kappa parameters
#--------------------------------------------------------------------------
variable    	p 		equal 100000 	# correlation length
variable    	s 		equal 10  	# sample interval
variable    	d 		equal $p*$s 	# dump interval 
variable    	d 		equal 100000*$s 	variable    	d 		equal 100000*10 	
#--------------------------------------------------------------------------
variable 	T_run 		equal 300
#--------------------------------------------------------------------------

log 	log_heat_${iseed}.lammps
log 	log_heat_5.lammps
